TITLE="results for TO code"
VARIABLES = "x", "y", "z", "density", "sigmaxx", "sigmayy", "sigmazz", "sigmaxy", "sigmaxz", "sigmayz"
ZONE T="load step 1", NODES= 12221, ELEMENTS= 10000, DATAPACKING=POINT, ZONETYPE=FEBRICK
               0.00000000                0.00000000                0.00000000                1.00000000               -0.00000000               -0.00000000                2.80168588                0.00000000                0.45918706                1.69199707
               1.00000000                0.00000000                0.00000000                1.00000000                0.00000000                0.00000000                1.56843019               -0.00000000               -0.32439632                0.85732461
               2.00000000                0.00000000                0.00000000                1.00000000               -0.00000000               -0.00000000                0.09910671                0.00000000               -0.49349110               -0.05410541
               3.00000000                0.00000000                0.00000000                1.00000000                0.00000000                0.00000000               -0.81568940               -0.00000000               -0.18420007               -0.61494224
               4.00000000                0.00000000                0.00000000                1.00000000               -0.00000000               -0.00000000                0.00657749               -0.00000000                0.02775280               -0.08673848
               5.00000000                0.00000000                0.00000000                1.00000000                0.00000000               -0.00000000               -0.00716233               -0.00000000                0.02709861               -0.00404618
               6.00000000                0.00000000                0.00000000                1.00000000               -0.00000000                0.00000000                0.00869145                0.00000000                0.03282841                0.02262754
               7.00000000                0.00000000                0.00000000                1.00000000                0.00000000               -0.00000000                0.02733630               -0.00000000                0.03664377                0.09477573
               8.00000000                0.00000000                0.00000000                1.00000000               -0.00000000                0.00000000                0.24478013                0.00000000               -0.12233541                0.20851274
               9.00000000                0.00000000                0.00000000                1.00000000               -0.00000000               -0.00000000               -1.00405092               -0.00000000               -0.13002896               -0.57730766
              10.00000000                0.00000000                0.00000000                1.00000000                0.00000000                0.00000000               -2.47606666                0.00000000                0.47878146               -1.54630089
               0.00000000                1.00000000                0.00000000                1.00000000               -0.00000000                0.00000000                2.32259556               -0.00000000                0.98357641                0.87530235
               1.00000000                1.00000000                0.00000000                1.00000000               -0.00000000                0.00000000                1.13621126                0.00000000                0.25347283                0.38968136
               2.00000000                1.00000000                0.00000000                1.00000000                0.00000000                0.00000000                0.04361179               -0.00000000                0.02722815               -0.09501212
               3.00000000                1.00000000                0.00000000                1.00000000               -0.00000000                0.00000000               -0.29043365               -0.00000000                0.05583654               -0.21903545
               4.00000000                1.00000000                0.00000000                1.00000000                0.00000000                0.00000000                0.02131640                0.00000000               -0.02270180               -0.09321778
               5.00000000                1.00000000                0.00000000                1.00000000               -0.00000000               -0.00000000               -0.00297707                0.00000000                0.00121982               -0.00652079
               6.00000000                1.00000000                0.00000000                1.00000000                0.00000000                0.00000000                0.00085210               -0.00000000                0.01869943                0.01375014
               7.00000000                1.00000000                0.00000000                1.00000000                0.00000000               -0.00000000               -0.03116419                0.00000000                0.06699695                0.06795972
               8.00000000                1.00000000                0.00000000                1.00000000               -0.00000000               -0.00000000                0.24923199                0.00000000                0.26184643                0.10201888
               9.00000000                1.00000000                0.00000000                1.00000000                0.00000000                0.00000000               -0.87110111                0.00000000                0.44767285               -0.27135072
              10.00000000                1.00000000                0.00000000                1.00000000                0.00000000               -0.00000000               -2.25497715               -0.00000000                1.12812099               -0.80610654
               0.00000000                2.00000000                0.00000000                1.00000000                0.00000000                0.00000000                2.27623936               -0.00000000                1.18939457                0.40505961
               1.00000000                2.00000000                0.00000000                1.00000000               -0.00000000               -0.00000000                0.93236364               -0.00000000                0.44941253                0.15674358
               2.00000000                2.00000000                0.00000000                1.00000000               -0.00000000                0.00000000               -0.14754998                0.00000000                0.24544406               -0.09655813
               3.00000000                2.00000000                0.00000000                1.00000000               -0.00000000               -0.00000000               -0.11577363               -0.00000000                0.16616760               -0.07609984
               4.00000000                2.00000000                0.00000000                1.00000000               -0.00000000                0.00000000                0.00889447                0.00000000                0.05023298               -0.04322307
               5.00000000                2.00000000                0.00000000                1.00000000               -0.00000000                0.00000000               -0.00048949               -0.00000000                0.01557125               -0.01460273
               6.00000000                2.00000000                0.00000000                1.00000000               -0.00000000               -0.00000000               -0.00035499               -0.00000000                0.03088542                0.00438079
               7.00000000                2.00000000                0.00000000                1.00000000                0.00000000                0.00000000               -0.02484044               -0.00000000                0.11171879                0.01122685
               8.00000000                2.00000000                0.00000000                1.00000000               -0.00000000                0.00000000                0.17851772                0.00000000                0.33512455               -0.01216806
               9.00000000                2.00000000                0.00000000                1.00000000               -0.00000000               -0.00000000               -0.70971332               -0.00000000                0.59613128               -0.07982465
              10.00000000                2.00000000                0.00000000                1.00000000                0.00000000                0.00000000               -2.46138688                0.00000000                1.37758178               -0.33856447
               0.00000000                3.00000000                0.00000000                1.00000000                0.00000000                0.00000000                2.15483456                0.00000000                1.19285615                0.09993698
               1.00000000                3.00000000                0.00000000                1.00000000               -0.00000000               -0.00000000                0.72265591                0.00000000                0.49250265                0.01989798
               2.00000000                3.00000000                0.00000000                1.00000000               -0.00000000               -0.00000000               -0.31160680               -0.00000000                0.35650263               -0.06514277
               3.00000000                3.00000000                0.00000000                1.00000000                0.00000000                0.00000000               -0.09567447                0.00000000                0.23493623                0.03362451
               4.00000000                3.00000000                0.00000000                1.00000000                0.00000000                0.00000000                0.01625432                0.00000000                0.07596823               -0.01277025
               5.00000000                3.00000000                0.00000000                1.00000000               -0.00000000               -0.00000000               -0.00082900                0.00000000                0.02912936               -0.00650490
               6.00000000                3.00000000                0.00000000                1.00000000                0.00000000                0.00000000               -0.00224558               -0.00000000                0.03426319               -0.00627592
               7.00000000                3.00000000                0.00000000                1.00000000               -0.00000000                0.00000000               -0.00244988                0.00000000                0.08268479               -0.01978459
               8.00000000                3.00000000                0.00000000                1.00000000               -0.00000000               -0.00000000               -0.00255186               -0.00000000                0.19006397               -0.02099712
               9.00000000                3.00000000                0.00000000                1.00000000                0.00000000               -0.00000000               -0.44555844                0.00000000                0.53857894                0.02457541
              10.00000000                3.00000000                0.00000000                1.00000000                0.00000000                0.00000000               -2.53984903                0.00000000                1.37834276                0.00698545
               0.00000000                4.00000000                0.00000000                1.00000000                0.00000000               -0.00000000                1.97554877                0.00000000                1.10530562               -0.10995937
               1.00000000                4.00000000                0.00000000                1.00000000                0.00000000                0.00000000                0.52606196                0.00000000                0.46135017               -0.04284397
               2.00000000                4.00000000                0.00000000                1.00000000               -0.00000000                0.00000000               -0.47099875                0.00000000                0.35403497               -0.02609289
               3.00000000                4.00000000                0.00000000                1.00000000                0.00000000               -0.00000000                0.06397999                0.00000000                0.14185089                0.02072761
               4.00000000                4.00000000                0.00000000                1.00000000               -0.00000000               -0.00000000               -0.00293330               -0.00000000                0.06030625                0.01084318
               5.00000000                4.00000000                0.00000000                1.00000000                0.00000000                0.00000000                0.00147614               -0.00000000                0.02941883               -0.00402285
               6.00000000                4.00000000                0.00000000                1.00000000               -0.00000000               -0.00000000               -0.00069416                0.00000000                0.02845926               -0.00870685
               7.00000000                4.00000000                0.00000000                1.00000000               -0.00000000                0.00000000               -0.00793911               -0.00000000                0.05584560               -0.02001438
               8.00000000                4.00000000                0.00000000                1.00000000                0.00000000                0.00000000                0.02442973                0.00000000                0.15413436               -0.03759963
               9.00000000                4.00000000                0.00000000                1.00000000               -0.00000000               -0.00000000               -0.43425902               -0.00000000                0.47223082                0.08263665
              10.00000000                4.00000000                0.00000000                1.00000000               -0.00000000               -0.00000000               -2.55393612                0.00000000                1.29715439                0.31001107
               0.00000000                5.00000000                0.00000000                1.00000000               -0.00000000                0.00000000                1.71697334                0.00000000                0.96942339               -0.26558052
               1.00000000                5.00000000                0.00000000                1.00000000                0.00000000                0.00000000                0.37812140                0.00000000                0.43038760               -0.08230417
               2.00000000                5.00000000                0.00000000                1.00000000                0.00000000               -0.00000000               -0.54937967                0.00000000                0.37580146                0.09768457
               3.00000000                5.00000000                0.00000000                1.00000000                0.00000000                0.00000000                0.07963156                0.00000000                0.12871717                0.04162851
               4.00000000                5.00000000                0.00000000                1.00000000               -0.00000000               -0.00000000               -0.00687153                0.00000000                0.05337876               -0.00035858
               5.00000000                5.00000000                0.00000000                1.00000000                0.00000000               -0.00000000                0.00242198               -0.00000000                0.02816747               -0.00265243
               6.00000000                5.00000000                0.00000000                1.00000000               -0.00000000                0.00000000               -0.00051570               -0.00000000                0.02094294               -0.00743829
               7.00000000                5.00000000                0.00000000                1.00000000                0.00000000               -0.00000000               -0.00468016                0.00000000                0.03376694               -0.01854561
               8.00000000                5.00000000                0.00000000                1.00000000               -0.00000000               -0.00000000                0.02007650                0.00000000                0.06840151               -0.04737714
               9.00000000                5.00000000                0.00000000                1.00000000               -0.00000000                0.00000000               -0.29940289                0.00000000                0.21378386                0.08613406
              10.00000000                5.00000000                0.00000000                1.00000000                0.00000000                0.00000000               -1.78397487                0.00000000                0.94801652                0.63267566
               0.00000000                6.00000000                0.00000000                1.00000000                0.00000000                0.00000000                1.39506508                0.00000000                0.74861797               -0.36505239
               1.00000000                6.00000000                0.00000000                1.00000000               -0.00000000               -0.00000000                0.14776148                0.00000000                0.34270624               -0.12826424
               2.00000000                6.00000000                0.00000000                1.00000000                0.00000000               -0.00000000               -0.26170357                0.00000000                0.33590875                0.19154021
               3.00000000                6.00000000                0.00000000                1.00000000                0.00000000                0.00000000               -0.16332435                0.00000000                0.30870716                0.14552919
               4.00000000                6.00000000                0.00000000                1.00000000               -0.00000000                0.00000000                0.02432629               -0.00000000                0.08576784                0.00957555
               5.00000000                6.00000000                0.00000000                1.00000000               -0.00000000               -0.00000000               -0.00038936                0.00000000                0.02885766               -0.00084511
               6.00000000                6.00000000                0.00000000                1.00000000               -0.00000000                0.00000000               -0.00006562                0.00000000                0.01516952               -0.00437798
               7.00000000                6.00000000                0.00000000                1.00000000                0.00000000                0.00000000                0.00016917               -0.00000000                0.01426377               -0.01330311
               8.00000000                6.00000000                0.00000000                1.00000000                0.00000000                0.00000000               -0.00815884                0.00000000                0.01410067               -0.01981505
               9.00000000                6.00000000                0.00000000                1.00000000               -0.00000000               -0.00000000                0.00838164                0.00000000                0.02996115                0.00328466
              10.00000000                6.00000000                0.00000000                1.00000000                0.00000000                0.00000000                0.11175444               -0.00000000                0.09536972                0.24570144
               0.00000000                7.00000000                0.00000000                1.00000000               -0.00000000               -0.00000000                1.04778123               -0.00000000                0.51324502               -0.38308956
               1.00000000                7.00000000                0.00000000                1.00000000               -0.00000000                0.00000000               -0.06490287                0.00000000                0.20988406               -0.15840736
               2.00000000                7.00000000                0.00000000                1.00000000               -0.00000000               -0.00000000               -0.00565580                0.00000000                0.15608328                0.17345621
               3.00000000                7.00000000                0.00000000                1.00000000               -0.00000000                0.00000000               -0.20788640               -0.00000000                0.16914417                0.22120142
               4.00000000                7.00000000                0.00000000                1.00000000                0.00000000               -0.00000000                0.02745421               -0.00000000                0.07965641                0.03004731
               5.00000000                7.00000000                0.00000000                1.00000000               -0.00000000                0.00000000               -0.00093729                0.00000000                0.02553474                0.00599007
               6.00000000                7.00000000                0.00000000                1.00000000               -0.00000000                0.00000000                0.00046719               -0.00000000                0.01040994               -0.00122576
               7.00000000                7.00000000                0.00000000                1.00000000                0.00000000               -0.00000000               -0.00070588                0.00000000                0.00468805               -0.00483321
               8.00000000                7.00000000                0.00000000                1.00000000               -0.00000000               -0.00000000                0.00023546               -0.00000000               -0.00070839               -0.00699108
               9.00000000                7.00000000                0.00000000                1.00000000               -0.00000000               -0.00000000                0.00164198               -0.00000000               -0.01695798                0.01068591
              10.00000000                7.00000000                0.00000000                1.00000000                0.00000000               -0.00000000               -0.01118563               -0.00000000               -0.01248851                0.05708049
               0.00000000                8.00000000                0.00000000                1.00000000               -0.00000000                0.00000000                0.72095038                0.00000000                0.31349037               -0.36440431
               1.00000000                8.00000000                0.00000000                1.00000000                0.00000000               -0.00000000               -0.19162710               -0.00000000                0.11831512               -0.09808058
               2.00000000                8.00000000                0.00000000                1.00000000               -0.00000000               -0.00000000                0.02364637               -0.00000000                0.02890170                0.05987797
               3.00000000                8.00000000                0.00000000                1.00000000               -0.00000000               -0.00000000                0.03009876                0.00000000                0.02873445                0.08214505
               4.00000000                8.00000000                0.00000000                1.00000000                0.00000000                0.00000000               -0.00497969                0.00000000                0.03679181                0.03848329
               5.00000000                8.00000000                0.00000000                1.00000000               -0.00000000                0.00000000                0.00219085               -0.00000000                0.01663376                0.00892662
               6.00000000                8.00000000                0.00000000                1.00000000                0.00000000                0.00000000               -0.00012833                0.00000000                0.00647699                0.00178855
               7.00000000                8.00000000                0.00000000                1.00000000               -0.00000000                0.00000000               -0.00013672                0.00000000                0.00197484               -0.00074595
               8.00000000                8.00000000                0.00000000                1.00000000                0.00000000                0.00000000               -0.00028824                0.00000000               -0.00253932                0.00071996
               9.00000000                8.00000000                0.00000000                1.00000000                0.00000000                0.00000000               -0.00060445               -0.00000000               -0.00493388                0.00797199
              10.00000000                8.00000000                0.00000000                1.00000000               -0.00000000               -0.00000000                0.00267397                0.00000000               -0.00029235                0.01253546
               0.00000000                9.00000000                0.00000000                1.00000000                0.00000000                0.00000000                0.32179045               -0.00000000                0.08324111               -0.32317911
               1.00000000                9.00000000                0.00000000                1.00000000               -0.00000000               -0.00000000               -0.13256880               -0.00000000                0.00093196               -0.01149059
               2.00000000                9.00000000                0.00000000                1.00000000               -0.00000000                0.00000000                0.01541707                0.00000000                0.00446990                0.02427467
               3.00000000                9.00000000                0.00000000                1.00000000                0.00000000               -0.00000000               -0.00289003                0.00000000                0.00578513                0.02968827
               4.00000000                9.00000000                0.00000000                1.00000000               -0.00000000                0.00000000                0.00277335                0.00000000                0.00802374                0.01988768
               5.00000000                9.00000000                0.00000000                1.00000000               -0.00000000                0.00000000               -0.00000662               -0.00000000                0.00718713                0.00918966
               6.00000000                9.00000000                0.00000000                1.00000000               -0.00000000                0.00000000                0.00013186               -0.00000000                0.00347181                0.00283870
               7.00000000                9.00000000                0.00000000                1.00000000                0.00000000               -0.00000000               -0.00020604                0.00000000                0.00116915                0.00116614
               8.00000000                9.00000000                0.00000000                1.00000000               -0.00000000               -0.00000000               -0.00028886               -0.00000000               -0.00010435                0.00184865
               9.00000000                9.00000000                0.00000000                1.00000000               -0.00000000                0.00000000               -0.00015914                0.00000000               -0.00003962                0.00354640
              10.00000000                9.00000000                0.00000000                1.00000000                0.00000000                0.00000000               -0.00158072               -0.00000000                0.00131405                0.00390070
               0.00000000               10.00000000                0.00000000                1.00000000                0.00000000               -0.00000000               -0.04577023                0.00000000               -0.03416210               -0.15632960
               1.00000000               10.00000000                0.00000000                1.00000000               -0.00000000                0.00000000                0.06254037                0.00000000               -0.05343191               -0.04357440
               2.00000000               10.00000000                0.00000000                1.00000000                0.00000000               -0.00000000               -0.01515623               -0.00000000               -0.01704033                0.01597194
               3.00000000               10.00000000                0.00000000                1.00000000               -0.00000000               -0.00000000               -0.00456047               -0.00000000               -0.00091648                0.02003429
               4.00000000               10.00000000                0.00000000                1.00000000                0.00000000                0.00000000               -0.00600901               -0.00000000                0.00484540                0.01512075
               5.00000000               10.00000000                0.00000000                1.00000000                0.00000000               -0.00000000               -0.00301395               -0.00000000                0.00515542                0.00876034
               6.00000000               10.00000000                0.00000000                1.00000000               -0.00000000                0.00000000               -0.00187489                0.00000000                0.00359893                0.00427849
               7.00000000               10.00000000                0.00000000                1.00000000                0.00000000                0.00000000               -0.00125168               -0.00000000                0.00152677                0.00232582
               8.00000000               10.00000000                0.00000000                1.00000000               -0.00000000                0.00000000               -0.00139662                0.00000000                0.00045504                0.00240152
               9.00000000               10.00000000                0.00000000                1.00000000                0.00000000                0.00000000               -0.00182702                0.00000000                0.00054607                0.00314497
              10.00000000               10.00000000                0.00000000                1.00000000               -0.00000000                0.00000000               -0.00310139                0.00000000                0.00201408                0.00361923
               0.00459187                0.01691997                1.02801686                1.00000000               -0.78358338               -0.81669471                2.88197720               -0.31028311               -0.39742830                0.84091027
               0.99675604                0.00857325                1.01568430                1.00000000               -0.47633908               -0.46764324                1.60889060               -0.29518209               -0.86698070                0.25739226
               1.99506509               -0.00054105                1.00099107                0.88292638                0.07009812               -0.04090672                0.19617789               -0.21541417               -0.87346597               -0.04060410
               2.99815800               -0.00614942                0.99184311                0.46534838                0.26062195                0.39590679               -0.98380893                0.22372007                0.34378345               -0.19672102
               4.00027753               -0.00086738                1.00006577                0.37941666                0.10564934               -0.00647930               -1.37423438                0.25499342                1.31303545               -1.00436965
               5.00027099               -0.00004046                0.99992838                0.38197893                0.00253780               -0.00247461               -1.76980308                0.02880421                1.47525040               -1.19012028
               6.00032828                0.00022628                1.00008691                0.43884682                0.00477258               -0.00887741               -1.87569503                0.03528198                2.01244849               -1.17704304
               7.00036644                0.00094776                1.00027336                0.61282308               -0.07758191               -0.02681601               -1.30989273                0.12329578                2.21766049               -0.89950748
               7.99877665                0.00208513                1.00244780                1.00000000               -0.08333637               -0.10649386                0.48234508                0.04814015                0.23739953                0.33766903
               8.99869971               -0.00577308                0.98995949                1.00000000                0.30055844                0.30595694               -1.00097330               -0.29970501               -0.57513432               -0.23463795
              10.00478781               -0.01546301                0.97523933                1.00000000                0.60881042                0.74019436               -2.48610128               -0.31965370               -0.42636047               -0.84441165
               0.00983576                1.00875302                1.02322596                1.00000000               -0.73010359               -0.64346873                2.57255692               -0.12051723                0.13751648                0.62968719
               1.00253473                1.00389681                1.01136211                1.00000000               -0.47817413               -0.35029051                1.31151829               -0.09825281               -0.15546322                0.15337556
               2.00027228                0.99904988                1.00043612                0.39549151               -0.09881814               -0.02122636                0.03238716                0.06510918                0.13216380               -0.14866193
               3.00055837                0.99780965                0.99709566                0.00010000               -0.02496498                0.26942120               -1.31649524                0.17608101                0.97038803               -0.16430356
               3.99977298                0.99906782                1.00021316                0.00010000               -0.02730836                0.02175770               -1.11419365                0.11749742                1.44531324               -0.64810217
               5.00001220                0.99993479                0.99997023                0.00010000                0.02070062               -0.00527827               -1.36969610                0.04772028                1.61352792               -0.62733595
               6.00018699                1.00013750                1.00000852                0.00010000                0.03288857               -0.00912338               -1.44566795                0.03626876                1.94002111               -0.54271857
               7.00066997                1.00067960                0.99968836                0.01130471                0.12157350               -0.04177444               -0.97931100                0.08167188                2.08410836               -0.22446854
               8.00261846                1.00102019                1.00249232                0.82577845                0.19033795               -0.11034040                0.48849439                0.05907477                0.88138053                0.18698145
               9.00447673                0.99728649                0.99128899                1.00000000                0.43313728                0.24874150               -0.99839076               -0.09098259                0.07651676               -0.08270049
              10.01128121                0.99193893                0.97745023                1.00000000                0.68044815                0.60386821               -2.46017860               -0.08535566                0.24034651               -0.68842858
               0.01189395                2.00405060                1.02276239                1.00000000               -0.73998204               -0.38768269                2.41762114               -0.14367616                0.23018367                0.44790437
               1.00449413                2.00156744                1.00932364                1.00000000               -0.47197526               -0.18489169                1.07239173               -0.13129396                0.04647178                0.08591315
               2.00245444                1.99903442                0.99852450                0.05679078               -0.14162247                0.01493467               -0.25609676                0.04821553                0.65096294               -0.21469641
               3.00166168                1.99923900                0.99884226                0.00010000               -0.09760554                0.12632998               -1.96812582                0.11621737                1.39229550               -0.43577940
               4.00050233                1.99956777                1.00008894                0.00010000               -0.07529817                0.04022377               -1.03922546                0.08008358                1.65639824               -0.26674607
               5.00015571                1.99985397                0.99999511                0.00010000               -0.00967378                0.00000795               -1.30790245                0.03775671                1.83943127               -0.27653538
               6.00030885                2.00004381                0.99999645                0.00010000                0.04807377               -0.01001303               -1.32392850                0.02069667                2.07420425               -0.16175106
               7.00111719                2.00011227                0.99975160                0.00010000                0.15211957               -0.04387215               -1.04376789               -0.00043050                2.28834125               -0.02650542
               8.00335125                1.99987832                1.00178518                0.15271799                0.24220624               -0.06150800                0.48709450               -0.08141698                1.26215831               -0.01815202
               9.00596131                1.99920175                0.99290287                1.00000000                0.52122861                0.14796306               -0.94831005               -0.11774516                0.33505963                0.13360396
              10.01377582                1.99661436                0.97538613                1.00000000                0.78145050                0.40654599               -2.55431793               -0.13362893                0.22193662               -0.49812371
               0.01192856                3.00099937                1.02154835                1.00000000               -0.70035350               -0.25750949                2.26832739               -0.12208348                0.22847945                0.11875271
               1.00492503                3.00019898                1.00722656                1.00000000               -0.41817676               -0.09979378                0.83256216               -0.07657106                0.12703779               -0.03186328
               2.00356503                2.99934857                0.99688393                0.00010000               -0.12878321                0.03523262               -0.55275993                0.06115872                0.91611895               -0.14784368
               3.00234936                3.00033625                0.99904326                0.00010000               -0.14026720                0.04841373                0.01815768                0.01402791                1.23028055                0.03238554
               4.00075968                2.99987230                1.00016254                0.00010000               -0.10290343                0.02703313               -1.33420405               -0.01502807                1.78924385               -0.06463539
               5.00029129                2.99993495                0.99999171                0.00010000               -0.02085252                0.00528994               -1.19841896                0.01017095                2.04896197                0.01695755
               6.00034263                2.99993724                0.99997754                0.00010000                0.02677772               -0.00654382               -1.23015721               -0.00785292                2.22192271                0.05864590
               7.00082685                2.99980215                0.99997550                0.00010000                0.07790039               -0.01562062               -1.03803004               -0.03529719                2.30738114                0.07050986
               8.00190064                2.99979003                0.99997448                0.03760028                0.22794707               -0.01271579               -0.96207913               -0.06831510                2.07726911               -0.22459461
               9.00538579                3.00024575                0.99554442                1.00000000                0.59413940                0.08123065               -0.74498064               -0.04795895                0.56485161                0.17738776
              10.01378343                3.00006985                0.97460151                1.00000000                0.83976382                0.32428777               -2.63464006               -0.05780365                0.04736799               -0.09942837
               0.01105306                3.99890041                1.01975549                1.00000000               -0.64395545               -0.18275875                2.07572266               -0.04460098                0.17526277               -0.14913455
               1.00461350                3.99957156                1.00526062                0.89663543               -0.37563532               -0.05110107                0.61259188                0.01087571                0.14147320               -0.07350974
               2.00354035                3.99973907                0.99529001                0.00010000               -0.15974964                0.08141367               -0.87188648                0.04143520                1.19565841               -0.02691826
               3.00141851                4.00020728                1.00063980                0.00010000               -0.14686436                0.00400200               -1.08073930               -0.03464149                1.86224330                0.29085549
               4.00060306                4.00010843                0.99997067                0.00010000               -0.05621603                0.00620583               -1.14486736               -0.02366997                1.90720581                0.15399718
               5.00029419                3.99995977                1.00001476                0.00010000               -0.01592349                0.00192623               -1.09538650               -0.01025597                2.15017128                0.21337953
               6.00028459                3.99991293                0.99999306                0.00010000                0.01321339               -0.00058118               -1.13060899               -0.01465589                2.26260688                0.19622150
               7.00055846                3.99979986                0.99992061                0.00010000                0.06283755                0.00061949               -1.13974422               -0.03890531                2.37383632                0.08072665
               8.00154134                3.99962400                1.00024430                0.02444424                0.20819261               -0.01319001               -1.05135542               -0.00950571                2.07412581               -0.02681551
               9.00472231                4.00082637                0.99565741                1.00000000                0.57151002                0.03077932               -0.68338604                0.01140781                0.53725129                0.22143983
              10.01297154                4.00310011                0.97446064                1.00000000                0.82492358                0.31284511               -2.62327378                0.01221130                0.00438258                0.62230871
               0.00969423                4.99734419                1.01716973                1.00000000               -0.53903579               -0.12754651                1.80535720                0.00493253                0.16210605               -0.35070801
               1.00430388                4.99917696                1.00378121                0.73610101               -0.29681097               -0.04271013                0.43173079                0.12231058                0.15491954               -0.16477908
               2.00375801                5.00097685                0.99450620                0.00010000               -0.15083521                0.10881655               -0.96656149                0.05290323                1.29301703                0.30164913
               3.00128717                5.00041629                1.00079632                0.00010000               -0.16121135                0.06240079               -2.63762691                0.03440656                2.40347087                0.92094186
               4.00053379                4.99999641                0.99993128                0.00010000               -0.05027485               -0.00063381               -0.64177588               -0.00940967                1.87711566                0.31789869
               5.00028167                4.99997348                1.00002422                0.00010000               -0.01621791                0.00158887               -1.01302977               -0.00382044                2.07871496                0.33134590
               6.00020943                4.99992562                0.99999484                0.00010000                0.00279974                0.00216444               -1.08387996               -0.01459146                2.24569757                0.24374419
               7.00033767                4.99981454                0.99995320                0.00010000                0.02372928                0.00335563               -1.17103549               -0.04076034                2.32583457                0.14741329
               8.00068402                4.99952623                1.00020077                0.03019139                0.09000846                0.00889229               -1.25448397               -0.01767701                2.08029873                0.00418878
               9.00213784                5.00086134                0.99700597                0.93793666                0.43980750               -0.03967600               -0.71321382                0.11889157                0.63660501                0.50373024
              10.00948017                5.00632676                0.98216025                1.00000000                0.73423266               -0.03215482               -2.66263196               -0.05435073                0.41244716                2.02182307
               0.00748618                5.99634948                1.01395065                1.00000000               -0.40591173               -0.05875452                1.48888742                0.00869897                0.09224718               -0.47296872
               1.00342706                5.99871736                1.00147761                0.66147803               -0.20635461               -0.03805160                0.13274081                0.16804453                0.34503493               -0.21316738
               2.00335909                6.00191540                0.99738296                0.08026638               -0.01699954                0.03788582               -0.51401355                0.02703763                0.93195040                0.49099698
               3.00308707                6.00145529                0.99836676                0.00010000               -0.12507046                0.08978645               -0.24510855               -0.07076883                1.06676151                0.27224879
               4.00085768                6.00009576                1.00024326                0.00010000               -0.13992475                0.01520294               -0.84869439               -0.06004832                1.68322173                0.49461685
               5.00028858                5.99999155                0.99999611                0.00010000               -0.03529916                0.00432125               -0.93777673               -0.00829313                2.00429220                0.30922003
               6.00015170                5.99995622                0.99999934                0.00010000               -0.00729694                0.00310626               -1.10014598               -0.01149551                2.22244169                0.28463547
               7.00014264                5.99986697                1.00000169                0.00010000               -0.00053442                0.00685620               -1.27457518               -0.02225798                2.30890595                0.20849627
               8.00014101                5.99980185                0.99991841                0.04760890                0.00784869                0.02019303               -1.46646229               -0.02626106                2.31025185                0.13552508
               9.00029961                6.00003285                1.00008382                0.76817678                0.04063452               -0.03772407               -1.98861265                0.01738733                2.57066107                0.16731018
              10.00095370                6.00245701                1.00111754                1.00000000                0.06540857               -0.28779759               -3.70943602               -0.23783574                3.75263634                0.41368668
               0.00513245                6.99616910                1.01047781                1.00000000               -0.30336096                0.00032404                1.18249494                0.00711840                0.08289435               -0.49454212
               1.00209884                6.99841593                0.99935097                0.65834930               -0.17858087                0.01509183               -0.23962548                0.16607733                0.59401953               -0.19841066
               2.00156083                7.00173456                0.99994344                0.18383535               -0.02036994               -0.06583112                0.24428228                0.03630086                0.11728231                0.05294100
               3.00169144                7.00221201                0.99792114                0.00010000               -0.03821344               -0.03169207               -0.44140205               -0.21169081                0.40414164                0.69863740
               4.00079656                7.00030047                1.00027454                0.00010000               -0.07180472                0.01445387               -0.94828948               -0.13209369                1.72593750                0.19582351
               5.00025535                7.00005990                0.99999063                0.00010000               -0.03462324                0.00488586               -0.97515626               -0.02174848                2.04506596                0.34700932
               6.00010410                6.99998774                1.00000467                0.00010000               -0.01042334                0.00308326               -1.16228781               -0.00975790                2.23249852                0.35554283
               7.00004688                6.99995167                0.99999294                0.00010000               -0.00555916                0.00627858               -1.41423145               -0.00902713                2.34781680                0.33431531
               7.99999292                6.99993009                1.00000235                0.08080685               -0.01082302                0.01026750               -1.80247826               -0.00056044                2.50995402                0.26104468
               8.99983042                7.00010686                1.00001642                0.69856842               -0.00589006                0.00234366               -2.43044008                0.01458827                2.92479843                0.08480698
               9.99987511                7.00057080                0.99988814                1.00000000                0.00446947               -0.11658299               -4.46698716               -0.00143646                4.20276522               -0.29063491
               0.00313490                7.99635596                1.00720950                1.00000000               -0.19517525                0.02995522                0.84743128                0.05132177                0.11459904               -0.57303858
               1.00118315                7.99901919                0.99808373                0.72365619               -0.14229433                0.07345838               -0.43196530                0.10766509                0.65412733                0.00708349
               2.00028902                8.00059878                1.00023646                0.31372804               -0.04479034               -0.07459077               -0.43653237                0.01430612                1.17171338                0.37161882
               3.00028734                8.00082145                1.00030099                0.00010000                0.00394506               -0.09575657               -1.28654042               -0.09237686                1.56154905                0.34920400
               4.00036792                8.00038483                0.99995020                0.00010000               -0.00605034               -0.00507981               -1.06522958               -0.07242555                2.01199990                0.34036033
               5.00016634                8.00008927                1.00002191                0.00010000               -0.01515741                0.00159979               -1.03939773               -0.02752118                2.13519533                0.45532439
               6.00006477                8.00001789                0.99999872                0.00010000               -0.00732946                0.00203223               -1.25753746               -0.00830535                2.25600413                0.53067493
               7.00001975                7.99999254                0.99999863                0.00010000               -0.00450816                0.00299967               -1.56910991               -0.00229375                2.38418884                0.55771376
               7.99997461                8.00000720                0.99999712                0.14698819               -0.00345436                0.00441987               -2.03707919                0.00466099                2.58967788                0.53876359
               8.99995066                8.00007972                0.99999396                0.75584392                0.00112348               -0.00356975               -2.76847514                0.01436693                3.06551171                0.46284916
               9.99999708                8.00012535                1.00002674                1.00000000                0.00464153               -0.02658989               -4.94323720                0.01146475                4.45992503                0.34971752
               0.00083241                8.99676821                1.00321790                1.00000000               -0.08230915                0.10403735                0.61711163                0.13786229                0.18299684               -0.71337001
               1.00000932                8.99988509                0.99867431                0.88775876               -0.03938561                0.02725309               -0.57260198                0.08785338                0.50387839                0.31892028
               2.00004470                9.00024275                1.00015417                0.52137408                0.00242659               -0.02195302               -0.48176669               -0.00238158                1.04244681                0.29958630
               3.00005785                9.00029688                0.99997110                0.00010000                0.00177692               -0.03105538               -1.29076071               -0.01701896                1.58741972                0.75341126
               4.00008024                9.00019888                1.00002773                0.00010000                0.00070100               -0.01168127               -1.14931719               -0.02622251                2.04766377                0.65915116
               5.00007187                9.00009190                0.99999993                0.00010000               -0.00227597               -0.00008314               -1.12532324               -0.01426366                2.13784668                0.73518276
               6.00003472                9.00002839                1.00000132                0.00010000               -0.00300899                0.00124497               -1.36587677               -0.00545079                2.24305671                0.84608156
               7.00001169                9.00001166                0.99999794                0.00010000               -0.00178808                0.00153589               -1.70806176               -0.00071906                2.36881636                0.96170750
               7.99999896                9.00001849                0.99999711                0.31152956               -0.00060438                0.00084078               -2.21940091                0.00268731                2.57943470                1.05463527
               8.99999960                9.00003546                0.99999841                1.00000000                0.00070920               -0.00241351               -2.99707011                0.00376600                3.06729667                1.13496893
              10.00001314                9.00003901                0.99998419                1.00000000                0.00135367               -0.00445812               -5.20836210                0.00150752                4.45167124                1.22949332
              -0.00034162                9.99843670                0.99954230                1.00000000               -0.01926981                0.16684951                0.75410310               -0.00464801                0.87554476               -0.54792712
               0.99946568                9.99956426                1.00062540                1.00000000                0.00856089               -0.03208380               -0.06288431                0.03178690                0.71835240                0.38784809
               1.99982960               10.00015972                0.99984844                0.84044701                0.02625771               -0.00830273               -0.69182220                0.01029412                0.95259886                0.44109924
               2.99999084               10.00020034                0.99995440                0.37166400                0.01094286               -0.00965398               -1.19789780               -0.00712721                1.37984356                1.14247873
               4.00004845               10.00015121                0.99993991                0.35039586                0.00303595               -0.00476694               -1.39674256               -0.00881532                1.81773853                1.11686231
               5.00005155               10.00008760                0.99996986                0.36425350               -0.00062324               -0.00042932               -1.54453230               -0.00745283                2.02062246                1.25852150
               6.00003599               10.00004278                0.99998125                0.39931924               -0.00181433                0.00143979               -1.83510697               -0.00309014                2.10771075                1.47721083
               7.00001527               10.00002326                0.99998748                0.46948887               -0.00157195                0.00115968               -2.25244648               -0.00058087                2.22089341                1.73954186
               8.00000455               10.00002402                0.99998603                0.74193359               -0.00049035                0.00055287               -2.82940869                0.00096896                2.42227340                2.02767918
               9.00000546               10.00003145                0.99998173                1.00000000                0.00077952               -0.00040142               -3.67906475                0.00119455                2.88047259                2.31942766
              10.00002014               10.00003619                0.99996899                1.00000000                0.00146800               -0.00028148               -5.90888116                0.00117428                4.22826634                2.79956289
               0.01671655                0.02640001                2.05763954                1.00000000               -0.70303702               -0.85518030                3.02196237               -0.28463203               -0.51276455                0.39509799
               1.00968618                0.01379222                2.03217781                1.00000000               -0.51723357               -0.43640470                1.66071800               -0.30567020               -0.62241083                0.03833554
               2.00637188                0.00029782                2.00392356                0.95512045               -0.09426082               -0.08044882                0.30162208               -0.35780310               -0.59274974               -0.07238427
               3.00780096               -0.01443954                1.98032382                0.49668513                0.59017809                0.41543065               -1.21923656                0.14897595                0.34070849               -0.98479483
               4.01817544               -0.02038217                1.97251531                0.40682487                1.08414535                0.73969580               -2.66226124                0.31329733                1.71036503               -0.65503816
               5.02948387               -0.02388611                1.96460394                0.41313126                1.08642727                1.12726633               -3.69644559                0.14903820                2.81014761               -0.91962690
               6.03990398               -0.02338407                1.96248610                0.48791038                0.62542273                1.26201666               -4.03522212                0.27112953                4.60203518               -0.98388232
               7.04199232               -0.01682014                1.97380215                0.70505902               -1.24210604                1.28525365               -2.69720206                1.22302537                6.63935007               -0.68157512
               8.01506186                0.00666434                2.00964690                1.00000000               -1.31432707               -0.22620902                0.70688001                1.56993092                2.85610472                0.44185963
               9.01570578               -0.00735176                1.97998053                1.00000000                0.29256213                0.27543694               -0.95057744               -0.31205380               -0.39993656               -0.05184671
              10.02091311               -0.02131002                1.95027797                1.00000000                0.52073239                0.73946536               -2.49810010               -0.23869221               -0.45278572               -0.42303835
               0.02647802                1.01784821                2.05145114                1.00000000               -0.67974424               -0.78821572                2.85346657               -0.10377122               -0.09763496                0.50448699
               1.01968057                1.00942818                2.02623037                1.00000000               -0.47841453               -0.39692037                1.46986526               -0.14368646               -0.07295978                0.09516957
               2.01690972                0.99949333                2.00064774                0.62617866               -0.00249294               -0.05197794                0.00632801               -0.12923252               -0.14183649               -0.20334908
               3.01963071                0.98971477                1.97367010                0.00010000                0.45609871                0.18881778               -1.83554193                0.30009814                1.41881526               -1.29598347
               4.02603170                0.98701479                1.97771613                0.00010000                0.64222435                0.75489353               -2.54320806                0.57357333                2.99171370               -0.55731408
               5.03247520                0.98738655                1.97260608                0.00010000                0.65252972                0.91669613               -3.25234706                0.48092789                3.35401415               -0.68537409
               6.03908229                0.98923609                1.97108664                0.00010000                0.33615833                1.00900147               -3.44232816                0.52347276                4.53774481               -0.51712349
               7.03919837                0.99603240                1.98041378                0.20616885               -0.65276568                0.80014442               -2.19852560                0.85759677                5.96414584               -0.19537086
               8.02602698                1.00440225                2.00976989                1.00000000               -0.63129708               -0.22547725                0.66985475                0.82001249                3.08125488                0.38915399
               9.02657243                0.99540261                1.98003218                1.00000000                0.32287357                0.28842038               -1.07303557               -0.04615828                0.09509697               -0.01375940
              10.03248445                0.98608463                1.95079643                1.00000000                0.59120246                0.70981338               -2.65892037               -0.00384346                0.05166490               -0.52883436
               0.03148119                2.01063570                2.04835242                1.00000000               -0.63138589               -0.62331244                2.61039294               -0.14143079                0.04880440                0.50268864
               1.02516733                2.00585382                2.02144783                1.00000000               -0.39902781               -0.30012127                1.18693720               -0.19264218                0.15075067                0.06899470
               2.02350063                1.99925826                1.99487806                0.22096402                0.05570683                0.03921429               -0.31610731               -0.34605191               -0.14324486               -0.33594025
               3.02628147                1.98933682                1.96063748                0.00010000                0.42372459                0.45677017               -2.31467773               -0.14231365                2.29196644                1.17354821
               4.03197512                1.99471570                1.97921549                0.00010000                0.52998272                0.59053916               -2.60001969                0.69578574                4.22729596               -0.78265315
               5.03688112                1.99444781                1.97384195                0.00010000                0.48762356                0.64664711               -2.98784918                0.53846466                3.79357687               -0.31303820
               6.04172759                1.99679596                1.97352143                0.00010000                0.35484890                0.59701084               -3.10001200                0.50536532                4.67122332               -0.06560503
               7.04397810                1.99918275                1.97912464                0.00010000               -0.48178498                0.26043936               -2.22932407                0.61555801                6.23994751               -0.02427368
               8.03209189                2.00215480                2.00974189                0.43760928               -0.54389298               -0.36766328                0.63945004                0.95916959                3.66747614               -1.08777777
               9.03310024                1.99841665                1.98103380                1.00000000                0.36901543                0.26952990               -1.14962293                0.04145118                0.45776322                0.25037255
              10.03947220                1.99288624                1.94891364                1.00000000                0.63719651                0.64261473               -2.67708106               -0.03560476                0.19007980               -0.49119187
               0.03321316                3.00538196                2.04536655                1.00000000               -0.60079926               -0.46198882                2.41422295               -0.14493070                0.07394953                0.28266284
               1.02720517                3.00342575                2.01665124                1.00000000               -0.33537395               -0.19393331                0.90985745               -0.14883679                0.21301918                0.00626209
               2.02650568                3.00027761                1.98894480                0.07564307               -0.29390848                0.12905529               -0.81071292                0.02288899                2.29015107               -0.35290080
               3.02132700                2.99885017                2.00036315                0.00010000                0.41653698                0.73636146               -2.69471008                0.24153509                2.94855563                0.65600359
               4.03483642                2.99882557                1.97331592                0.00010000                0.99186193                0.42977513               -2.65944949                0.41316757                3.10074182               -0.16994121
               5.04116424                3.00031949                1.97603162                0.00010000                0.48091203                0.48936345               -2.66825153                0.42253270                4.53964983                0.25722738
               6.04445466                3.00117631                1.97539686                0.00010000                0.24932236                0.35555878               -2.71860593                0.22701924                4.86253562                0.41357321
               7.04615069                3.00124118                1.97923940                0.00010000                0.07609024                0.12270436               -2.23573434               -0.04399663                5.07183819                0.22503903
               8.04597647                2.99704899                1.98075842                0.29929919               -0.47403410               -0.14586961               -1.73148485                0.66029243                4.94774176               -1.42947487
               9.03667000                3.00079321                1.98510039                1.00000000               -0.15716481                0.22752943               -1.08986388                0.26581918                2.18253445                0.36865715
              10.04283317                2.99893693                1.94730720                1.00000000                0.61631678                0.60005940               -2.72247806               -0.03517921               -0.03908981               -0.18390386
               0.03249499                4.00139592                2.04151445                1.00000000               -0.52000526               -0.32956417                2.21432079               -0.10177719                0.08499241               -0.00706362
               1.02729494                4.00197515                2.01225184                1.00000000               -0.19805018               -0.14691640                0.63414221               -0.04999030                0.16753422               -0.02391421
               2.02853399                4.00183936                1.98256227                0.05723135                0.26346362                0.18312084               -1.22685225                0.22142277                1.55715011               -0.10332972
               3.03256421                4.00406405                1.97838521                0.00010000                0.51175833                1.09208530               -3.04242682                1.13945873                3.76148672               -2.11346159
               4.03876915                4.00331120                1.97710265                0.00010000                0.52084114                0.36299040               -2.47783721                0.18245090                4.47473370                1.06160760
               5.04298103                4.00423508                1.97809227                0.00010000                0.32885677                0.31630392               -2.32676332                0.04712158                4.64211748                0.59766700
               6.04534629                4.00390713                1.97738782                0.00010000                0.21222267                0.18461444               -2.37946675               -0.10339676                4.83018533                0.58466221
               7.04722549                4.00163684                1.97720512                0.00010000                0.01997126                0.08129995               -2.31180159               -0.22548207                5.07213530                0.25309901
               8.04574572                3.99923741                1.97897289                0.29182058               -0.53484016                0.16803369               -1.95864074               -0.00464303                5.19571926               -0.07411692
               9.03652868                4.00296724                1.98633228                1.00000000               -0.16322608                0.24274929               -1.02947511               -0.01236817                2.41780390                0.26967690
              10.04248119                4.00488743                1.94753452                1.00000000                0.59525093                0.74213153               -2.79274538               -0.05262028                0.01129681                0.10793155
               0.03001916                4.99879068                2.03610714                1.00000000               -0.42572388               -0.20816872                1.97106522               -0.11552417                0.17893016               -0.24612890
               1.02576192                5.00048742                2.00863462                1.00000000               -0.05869604               -0.09041276                0.32899070                0.06614000                0.19997477               -0.16861865
               2.02884524                5.00394003                1.98066877                0.09725935                0.84412075                0.12716687               -1.22701768                0.67101678               -0.00291745                0.65138203
               3.04264434                5.02069188                1.94724746                0.00010000                0.47345850                0.21280530               -1.94475990               -0.59719664                2.60418300                0.19832464
               4.03831441                5.00608538                1.98716448                0.00010000               -0.05667975                0.31189388               -2.13461989               -1.03901887                5.52549171                1.03638823
               5.04151074                5.00664557                1.97973940                0.00010000                0.33352819                0.09914563               -2.10122177               -0.19340253                4.19714758                0.68885859
               6.04498497                5.00486860                1.97832240                0.00010000                0.24000143                0.08878746               -2.25140045               -0.23407158                4.77402896                0.54395938
               7.04631077                5.00286718                1.97657929                0.00010000               -0.02158855                0.12466734               -2.35695345               -0.27126868                4.88184654                0.30215754
               8.04455320                5.00040966                1.97491032                0.30294241               -0.77690778                0.18357529               -2.35732679                0.15791060                5.32681517               -0.07231473
               9.03077261                5.00564820                1.98573572                1.00000000               -0.33064095               -0.13157431               -1.11703068                1.35276493                2.57403273               -0.91084960
              10.03794038                5.01377956                1.94674736                1.00000000                0.71677690               -0.71707957               -3.27918408                2.33833961                0.01493389               -0.68189409
               0.02679102                5.99723255                2.02977775                1.00000000               -0.33226304               -0.09701861                1.65613497               -0.01194471                0.12565989               -0.31339432
               1.02346839                6.00016690                2.00265482                0.92498970               -0.25205746               -0.05308753               -0.01845944                0.19014971                0.81578809               -0.36247053
               2.02174987                6.00438270                1.98971973                0.17433372               -0.24967268               -0.28673552               -0.60768051               -0.84582485                2.17567915                1.49859315
               3.01847493                6.00832016                1.99509783                0.00010000                0.51426091               -0.43266818               -1.20342126               -1.48631122                2.48239644                2.04011701
               4.03203508                6.00954908                1.98302611                0.00010000                1.09274158               -0.09379240               -1.88742984               -0.39836560                3.19458062                0.17774361
               5.04032976                6.00621799                1.98124447                0.00010000                0.62040819                0.01344056               -2.06574111               -0.21028754                4.34666923                0.64986811
               6.04444325                6.00568288                1.97799708                0.00010000                0.29646440                0.11214426               -2.30601825               -0.12125637                4.63264652                0.50199187
               7.04625905                6.00413018                1.97450850                0.00010000                0.08398319                0.19110910               -2.62402255               -0.10630424                4.80907926                0.28784409
               8.04612291                6.00290891                1.97067075                0.32793092                0.19775187                0.23662631               -2.98412008                0.09139862                4.57917551               -0.06729460
               9.05021409                6.00033575                1.96022775                1.00000000                1.34311792               -0.19310988               -4.09720105                0.77372474                3.43642953               -1.42765825
              10.07298527                5.99054584                1.92581128                1.00000000                2.27711821               -0.92507245               -6.44174561                1.33958231                3.06208110               -2.33405189
               0.02391157                6.99685030                2.02364990                1.00000000               -0.14968080               -0.07167052                1.33099020               -0.05483745               -0.03279550               -0.40251805
               1.02241476                6.99942567                1.99520749                0.90821436               -1.00680437                0.03257170               -0.49393098               -0.10288912                1.96798379               -0.20610022
               2.00377548                6.99820532                2.00488565                0.27725248               -0.73315141                0.14194734               -0.34670045                0.60399936                3.42337995                0.78534472
               3.00775173                7.01203852                1.99117196                0.00010000                1.43368886               -0.16930195               -1.85566158                0.95232598                2.76190236               -0.70136718
               4.03244926                7.00420953                1.98103421                0.00010000                1.67097283               -0.12475322               -1.97570172                0.16799299                3.67795898                0.36117593
               5.04117119                7.00691438                1.98049687                0.00010000                0.60991987                0.14395938               -2.13435156                0.26137918                4.44924419                0.58125782
               6.04464766                7.00711148                1.97675424                0.00010000                0.28937320                0.24669857               -2.48576401                0.02375452                4.60178262                0.57445222
               7.04695865                7.00668936                1.97171537                0.00010000                0.27639728                0.35095471               -3.00447707               -0.02714857                4.69836551                0.42938291
               8.05017560                7.00514219                1.96395043                0.37084735                0.58257631                0.39358015               -3.81850423                0.03859791                4.71380080                0.07090866
               9.05861018                7.00178600                1.95139120                1.00000000                1.70681273                0.44696197               -5.30965551                0.06012213                3.80879410               -0.39779420
              10.08431186                6.99527811                1.91066026                1.00000000                2.57016771                0.81762301               -8.03988077                0.15659370                3.41681361               -1.37015118
               0.02054353                7.99579914                2.01694863                1.00000000               -0.04879436               -0.17252493                0.96871720               -0.05630308                0.05271980               -0.46804992
               1.02005559                8.00081833                1.99136069                0.97949790                0.03367393                0.22055292               -0.71569417                0.10745260                1.40188942                0.11590897
               2.02121701                8.00722165                1.99126935                0.41373711                0.57308274                0.40872159               -0.24057601                0.99462271                2.83054797                0.03251286
               3.03151724                8.00493412                1.97426919                0.00010000                0.96510341                0.16881502               -3.74900859                1.19777332                3.05806123               -0.12292994
               4.04051908                8.00705402                1.97869541                0.00010000                0.55690757                0.44918931               -2.09588662                0.63191236                4.66016734                0.59050671
               5.04265539                8.00909718                1.97921205                0.00010000                0.23121406                0.39206594               -2.28261826                0.25874980                4.58607354                0.75236496
               6.04514336                8.01061685                1.97484925                0.00010000                0.25149914                0.49138066               -2.71884006                0.11337839                4.57742186                0.80700191
               7.04768538                8.01114928                1.96861780                0.01662585                0.33274383                0.62779673               -3.39578036                0.02927720                4.67330968                0.77740143
               8.05179823                8.01078051                1.95925842                0.44909557                0.67976182                0.79808009               -4.40488525               -0.02308297                4.73162045                0.63310933
               9.06128061                8.00927499                1.94463050                1.00000000                1.86673487                1.04628019               -6.11494079               -0.05667704                3.85034121                0.35456397
              10.08913293                8.00689830                1.90113526                1.00000000                2.78523201                1.46847566               -9.00743658               -0.00016931                3.48464168               -0.01497799
               0.01274712                8.99339981                2.01234223                1.00000000                0.03941796                0.02967675                0.76447579                0.78375014               -0.16813891               -0.10471808
               1.01314130                9.00383673                1.98854796                1.00000000                0.34025133                0.15182246               -0.97046785                0.34926337                1.16717964                0.90955726
               2.01955215                9.00637975                1.99036467                0.63285126                0.93667651                0.11059017               -0.61417503                0.50420315                2.99730939                0.51919176
               3.03187483                9.01541482                1.97418479                0.00010000                1.06861464                0.89744336               -4.11082812                0.14008607                3.04946322                0.84413716
               4.04092444                9.01319332                1.97701366                0.00010000                0.54542585                0.77294390               -2.25265973               -0.24194430                4.58299862                0.77726712
               5.04278335                9.01475570                1.97749354                0.00010000                0.19693435                0.80666978               -2.53473516                0.07307478                4.56003640                0.76603921
               6.04486313                9.01693910                1.97268246                0.00010000                0.22985930                0.94837498               -3.01963034                0.07414151                4.51424232                0.89112814
               7.04738053                9.01924530                1.96583876                0.04662916                0.33625483                1.18312367               -3.78747427                0.04462011                4.59439222                0.95785625
               8.05158822                9.02110379                1.95561198                0.61050623                0.69891588                1.48976120               -4.90564393                0.00596456                4.65022344                0.96756570
               9.06135885                9.02271160                1.94005860                1.00000000                1.87368157                1.85734582               -6.72517805               -0.00551411                3.77666059                0.90869983
              10.08906186                9.02464762                1.89583276                1.00000000                2.77030043                2.45616849               -9.71199297               -0.03350434                3.44427151                0.91506924
               0.01534468                9.99639267                2.01508206                1.00000000               -0.12837751                0.29928653                1.53663849                1.00596683                0.99290316                0.60450354
               1.01406091               10.00385478                1.99874231                1.00000000                0.21891513                0.00180473               -0.09888674                0.74399966                1.27836500                1.24415683
               2.01972299               10.00943345                1.98616356                0.88939177                0.67222455                0.30536989               -1.41637671                0.96849398                1.85524110                0.11565563
               3.02750540               10.02288298                1.97604204                0.37658328                0.83081599                0.74681660               -1.70654429                0.21702885                3.08073222                1.41555619
               4.03633931               10.02251289                1.97206515                0.35224940                0.64328545                0.93195771               -2.69890196               -0.34113393                3.83854246                0.87109944
               5.04037111               10.02523058                1.96910935                0.37210805                0.28986434                1.04748734               -2.83390831                0.11234887                4.16186894                0.85216295
               6.04213659               10.02958435                1.96329786                0.42589866                0.20209888                1.26452548               -3.40081414                0.20640506                4.21124579                1.05136320
               7.04441309               10.03481175                1.95495107                0.53329330                0.31573146                1.55664505               -4.21149347                0.25282448                4.28169450                1.20699810
               8.04845122               10.04057574                1.94341183                0.86324705                0.66067070                1.94719495               -5.36522226                0.26680769                4.34940388                1.34832633
               9.05762650               10.04642191                1.92641870                1.00000000                1.80697963                2.37103066               -7.19725563                0.39906136                3.50895848                1.46439321
              10.08459081               10.05602167                1.88182238                1.00000000                2.69643147                3.13740512              -10.18701070                0.51287180                3.15645292                1.65909376
               0.04526004                0.03719874                3.08845611                1.00000000               -0.72362373               -0.90688569                3.09662762               -0.28993260               -0.36353626                0.37186084
               1.03802381                0.02123485                3.04889866                1.00000000               -0.50979794               -0.47046666                1.68527518               -0.24628042               -0.48471731                0.04833320
               2.03506408                0.00456289                3.00702351                0.92653409               -0.08216960               -0.05344994                0.30046971               -0.19546202               -0.46842022               -0.09619147
               3.03638041               -0.01253787                2.96745837                0.50366723                0.75703134                0.41141804               -1.20399539                0.10195387                0.57566925               -0.45439559
               4.05020471               -0.02436978                2.94682055                0.43648455                1.50613684                0.55911394               -2.61959829               -0.04831448                1.88508876               -0.09683999
               5.06650315               -0.03443728                2.92599946                0.44922515                1.64830346                1.14265767               -4.17416899                0.10774773                3.28269003               -0.44488584
               6.08317078               -0.03665245                2.91938247                0.51480011                0.97447430                1.54121552               -4.77199785                0.42285400                6.22007782               -0.66878184
               7.08599264               -0.02590701                2.94632932                0.70635337               -1.67252144                1.73566978               -3.48511702                1.89414034               10.16138742               -0.61103156
               8.04972035                0.01067635                3.01658540                1.00000000               -1.79613655               -0.19680675                0.65466970                2.44016563                5.48868395                0.39580937
               9.05006991               -0.00691331                2.97094794                1.00000000                0.27084338                0.28713524               -0.90799146               -0.25362940               -0.31180127                0.00144860
              10.05513722               -0.02496068                2.92527733                1.00000000                0.50673130                0.76872635               -2.47476556               -0.23985679               -0.32622818               -0.36066511
               0.05832461                1.02812988                3.08029529                1.00000000               -0.64456821               -0.85048909                2.87220210               -0.08901189               -0.02978837                0.48903312
               1.05187893                1.01653018                3.04075942                1.00000000               -0.41643939               -0.43541982                1.44156957               -0.05709019               -0.03636248                0.05026061
               2.04999582                1.00402839                3.00056268                0.58691635               -0.00063207               -0.02721671                0.02492846                0.01909706               -0.03457617               -0.18516959
               3.05186629                0.99157631                2.96038483                0.00010000                0.53377254                0.42773869               -1.32125925                0.19880680                1.38078947               -0.51392498
               4.06067127                0.98122136                2.94934900                0.00010000                1.09278402                0.63423459               -2.88893085                0.35260268                3.22054832               -0.40142333
               5.07372197                0.97698930                2.93492329                0.00010000                1.12314577                1.23024726               -4.21450864                0.63782492                4.09932706               -0.39122048
               6.08313419                0.97875970                2.93116196                0.00010000                0.37738363                1.55369734               -4.69744949                0.98701173                6.36514396               -0.37052716
               7.08126964                0.99144968                2.95571785                0.22242177               -0.92545157                1.33540951               -3.15233881                1.68258101                9.39509742               -0.24924662
               8.06462516                1.00870828                3.01588941                1.00000000               -0.79587560               -0.17710566                0.55147362                1.47898080                5.34418986                0.39654569
               9.06535213                0.99595804                2.96982828                1.00000000                0.30804323                0.30271574               -1.02576054               -0.00533901                0.07539780                0.07249102
              10.07078602                0.98272658                2.92427182                1.00000000                0.54338941                0.76202150               -2.61078109                0.01087957                0.07054869               -0.42343521
               0.06667921                2.02018896                3.07497025                1.00000000               -0.56957133               -0.73196442                2.64079668               -0.14057315                0.07511752                0.59352255
               1.06098350                2.01252645                3.03306238                1.00000000               -0.31396578               -0.35049820                1.15349336               -0.12210878                0.16973766                0.05087265
               2.06039989                2.00401856                2.99220235                0.21464963                0.10900409                0.02889801               -0.23989981               -0.04246153                0.30948228               -0.43021050
               3.06316358                1.99601691                2.95254871                0.00010000                0.57219435                0.20661363               -1.09138364                0.46897148                2.13021380               -0.29891330
               4.07184378                1.98831491                2.94808855                0.00010000                0.92788661                0.86824747               -3.20617786                1.02927687                4.19842286               -0.41709156
               5.08172131                1.99016767                2.94023812                0.00010000                0.83034240                1.19199410               -3.93818368                1.06939823                4.71334129                0.18914287
               6.08845063                1.99442149                2.93799621                0.00010000                0.39871837                1.27913068               -4.33997491                1.09424435                6.27032118                0.46932096
               7.08969568                2.00080118                2.95516511                0.00010000               -0.68295091                0.73863889               -3.18530615                1.41725761                9.33159628                0.15959878
               8.07479161                2.00713423                3.01457418                0.42621221               -0.68754262               -0.33693752                0.42862726                1.43545782                5.77276890               -1.98423048
               9.07594483                1.99914100                2.96991041                1.00000000                0.35130589                0.31811887               -1.12258423                0.01405410                0.41195593                0.33672446
              10.08181773                1.99027975                2.92184451                1.00000000                0.58729033                0.75221569               -2.67902213                0.00397380                0.20580495               -0.41027905
               0.07083816                3.01349060                3.06983280                1.00000000               -0.52310048               -0.60852110                2.42545697               -0.16709150                0.11329159                0.47794618
               1.06560716                3.00952022                3.02542371                1.00000000               -0.25910121               -0.27082746                0.86490781               -0.14756867                0.15053470                0.02415144
               2.06565614                3.00460635                2.98066967                0.07875063                0.56711005                0.09649762               -0.76291205               -0.28307754                0.62344978               -0.52224999
               3.07694936                2.99570859                2.94514905                0.00010000                1.07249573                0.75184144               -6.40525789                0.64621215                2.76683142               -0.75392967
               4.08710605                2.99858631                2.94697355                0.00010000                0.60269980                0.95885530               -2.64140541                1.18337461                5.21088591                0.17123739
               5.08900335                3.00082918                2.94662668                0.00010000                0.36397571                0.90188307               -3.20746754                0.84430314                5.43357364                0.79689585
               6.09438557                3.00434231                2.94560543                0.00010000                0.39493483                0.71295690               -3.25728183                0.73590527                6.19244931                1.13457159
               7.09690205                3.00622246                2.95526081                0.00010000                0.03044606                0.33603849               -2.64964125                0.41738138                6.76796149                0.69457505
               8.09499449                3.00196953                2.96534478                0.30636648               -0.72071765               -0.15722361               -1.69738442                0.88174550                6.60780400               -2.09157561
               9.08248770                3.00232042                2.97374714                1.00000000               -0.32032395                0.32217830               -1.16313999                0.21866460                3.11133952                0.45451098
              10.08858801                2.99777089                2.92015195                1.00000000                0.61003109                0.77694165               -2.72748475               -0.00618926               -0.00309570               -0.26803768
               0.07127814                4.00801854                3.06404190                1.00000000               -0.43617665               -0.46661373                2.22217382               -0.22187679                0.15558297                0.25883371
               1.06691637                4.00710990                3.01794346                1.00000000               -0.13640800               -0.20593059                0.55925524               -0.19677204                0.15380622               -0.01051439
               2.06854998                4.00594851                2.97075297                0.02890322                0.75957460                0.11203385               -1.10054061                0.16872576                0.89511822                0.01252839
               3.08210786                4.01105374                2.93979126                0.00010000                1.09203525               -0.40192119               -5.48822426               -1.42653627                3.46914114                0.93993849
               4.09039068                4.00749202                2.95041392                0.00010000                0.53717547                0.81072040               -2.47657440               -0.57013907                5.97905902                0.64912458
               5.09285137                4.00820533                2.95347950                0.00010000                0.36923865                0.48846362               -2.54489564                0.26259822                5.72521494                0.82422747
               6.09777545                4.00868063                2.95240372                0.00010000                0.37823601                0.29266149               -2.50456095                0.18905875                5.88298137                0.94801097
               7.10041609                4.00752195                2.95368458                0.00010000               -0.07234441                0.11659264               -2.28672129               -0.01031190                6.39670467                0.53534354
               8.09632857                4.00398976                2.96107148                0.30556118               -0.79496687                0.22062708               -1.75974164                0.05660104                6.88491973               -0.02550250
               9.08451675                4.00558457                2.97506791                1.00000000               -0.27677878                0.32142318               -1.16593589                0.05612869                3.52829147                0.31297189
              10.09079299                4.00581858                2.91860573                1.00000000                0.62762364                0.83206127               -2.86126297               -0.01822079                0.00773878               -0.16661346
               0.06821789                5.00415832                3.05659104                1.00000000               -0.44761484               -0.27398513                2.01217930               -0.22731618                0.24319812               -0.03168013
               1.06374175                5.00540161                3.01036103                0.95002723               -0.15655371               -0.11074156                0.14838530               -0.22134096                0.58417405               -0.08934062
               2.06508682                5.00684703                2.96996585                0.01080310               -0.84333129                0.08609408               -1.52515154               -1.59258808                2.47563369                1.37897220
               3.04687512                4.98767016                2.96190112                0.00010000                0.67324297               -0.63603006                0.15872760               -0.73627761                4.31637403                1.63140648
               4.07855168                5.01480072                2.95723889                0.00010000                2.30957941                0.11444396               -2.78329482                0.55701315                5.22923147                0.81621175
               5.09306671                5.01059845                2.95799978                0.00010000                1.01492220                0.20130567               -2.29436328               -0.26027762                5.64430031                0.56802485
               6.09885012                5.01019554                2.95496683                0.00010000                0.41599864                0.14417921               -2.33950604               -0.01394984                5.71532985                0.51691133
               7.10138668                5.00855431                2.95281413                0.00010000               -0.03931189                0.14829123               -2.33868378               -0.02895073                5.99522552                0.24506237
               8.09806389                5.00638207                2.95305423                0.31584211               -0.98026137                0.27130407               -2.17260059                0.49356339                7.16005311               -0.44457583
               9.08178145                5.00874888                2.97466536                1.00000000               -0.51541583                0.01198194               -1.14340192                1.87004859                4.14599863               -2.53811761
              10.08775557                5.01441212                2.91657657                1.00000000                0.59741155               -0.69777497               -2.93244527                2.57808711                0.10694816               -2.31753648
               0.06424524                6.00253883                3.04707335                1.00000000               -0.44443980               -0.16052277                1.74965499               -0.10720312                0.27069490               -0.24300308
               1.05980084                6.00489507                3.00110843                0.81443772               -0.49077920                0.00932188               -0.34807812                0.08062894                1.86011457               -0.29594466
               2.05442966                6.00767039                2.98522935                0.01403560               -0.01861133                0.45224026               -0.73967892                0.12076032                4.11661186                2.03038849
               3.05942862                5.99833313                2.97429833                0.00010000                1.20864984                1.06715727               -2.12566184                1.80081573                4.94031327                0.47871111
               4.07860265                6.00978090                2.96249467                0.00010000                1.64111880               -0.14730120               -2.08674702                1.01887275                5.07830151                0.51587299
               5.09225099                6.01223144                2.95868128                0.00010000                1.04689701                0.15595125               -2.32721144                0.11184026                5.48489735                0.45324903
               6.09954059                6.01156421                2.95387898                0.00010000                0.56997781                0.22145359               -2.48345985                0.01637309                5.56729058                0.28606060
               7.10365055                6.01048777                2.94752124                0.00989896                0.32323358                0.29378533               -2.74494522                0.16414741                5.65378781               -0.06158161
               8.10600527                6.00941584                2.94023601                0.33319124                0.51185638                0.31892645               -3.08635578                0.59328281                5.09668915               -0.86216099
               9.11388768                6.00582421                2.91813980                0.93920713                1.25114939               -0.05003280               -4.03210238                1.49811320                3.36702873               -3.53776929
              10.13102825                5.99186308                2.87228263                1.00000000                1.71405773               -0.82841574               -5.06304759                1.69977245                1.84467832               -3.71246782
               0.06136136                7.00094787                3.03709762                1.00000000               -0.11385874               -0.21181051                1.37978018                0.02001389                0.00102574               -0.43577843
               1.06022277                7.00558804                2.98947235                0.74879492                0.63513032                0.15509156               -0.62194524                0.50216678                2.57579730               -0.03511117
               2.07406396                7.01589183                2.99300943                0.03766576                1.02790773                0.40498133               -0.86848148                1.14935425                5.07711062                1.86488138
               3.08078092                7.00901331                2.96080790                0.00010000                0.54834323                0.85084450               -2.28349674                0.52783796                5.01879416               -1.93009942
               4.08503083                7.01185470                2.96076051                0.00010000                0.63696369                0.32173108               -2.01340077                0.73649627                5.69846418                0.56380426
               5.09352020                7.01371748                2.95730360                0.00010000                0.79452139                0.29542319               -2.39492592                0.31264469                5.44017436                0.44608520
               6.10092126                7.01462462                2.95028939                0.00010000                0.66489010                0.43327440               -2.75852500                0.16896999                5.38719900                0.24927156
               7.10681800                7.01443002                2.93990340                0.02347196                0.68359245                0.54647025               -3.28350113                0.17811056                5.24457338               -0.08678942
               8.11459310                7.01276060                2.92363227                0.35742540                1.12392401                0.57959979               -4.12799978                0.29536291                4.64044284               -0.73615780
               9.12929648                7.00774822                2.89382331                0.89817304                1.75400829                0.63396965               -5.53158136                0.31380868                3.03814007               -1.45492251
              10.14967327                6.99784380                2.83909053                1.00000000                2.03767902                1.13951066               -6.73808676                0.29216493                1.45654810               -2.31277851
               0.05536516                7.99830262                3.02658385                1.00000000               -0.04649503               -0.22037275                0.93734592                0.15426889                0.05721298               -0.48518440
               1.05490021                8.00799690                2.98376985                0.75455982                0.93131580                0.25532877               -0.81793458                0.12875504                2.82194915                0.36849700
               2.07399148                8.01577002                2.99542494                0.09015490                0.95611504               -0.00797271                0.21026896                0.38216097                3.22584206                0.55047455
               3.07402251                8.01535002                2.92532082                0.00010000                0.73184660                0.31967327               -2.45401867               -0.29686466                3.76488798               -1.25425735
               4.08862841                8.01621552                2.95803247                0.00010000                1.08557263                0.52598917               -2.22732254                0.30952563                6.90224920                0.52473285
               5.09573397                8.01813990                2.95436954                0.00010000                0.67895200                0.58989477               -2.54892173                0.30488871                5.31572870                0.39744205
               6.10220745                8.02022970                2.94562192                0.00010000                0.66714052                0.73888618               -3.06678066                0.21651747                5.22378930                0.27893193
               7.10907678                8.02141718                2.93208303                0.03871973                0.81934347                0.92027485               -3.79022839                0.14650777                5.04564952                0.06317830
               8.11859432                8.02100784                2.91189941                0.39098431                1.30019346                1.12278950               -4.86600914                0.06384561                4.44319610               -0.25247668
               9.13508065                8.01850360                2.87769514                0.89232814                1.90430361                1.43365140               -6.48098059               -0.01694931                2.92093283               -0.66998367
              10.15668039                8.01465329                2.81987801                0.97898136                2.15997468                1.99047330               -7.71279735               -0.00118160                1.35969082               -1.06446550
               0.04505818                8.99654041                3.01850742                1.00000000                0.02723015                0.33722457                0.34247555                1.25695966               -0.14340448                0.65798387
               1.04533048                9.01069462                2.97926495                0.81264410                1.46479420               -0.19691087               -0.55609959                0.91216209                2.24668434                1.49761343
               2.07435406                9.01573238                2.98787067                0.17665994                1.45338235               -0.24474819               -0.12295579               -0.48223183                3.17739550               -0.34768240
               3.07439813                9.01540677                2.91775454                0.00010000                0.70386996                0.47234628               -2.82835873                0.41617370                3.99348993                2.40143889
               4.08843146                9.02237448                2.95497454                0.00010000                1.06028325                0.56273450               -2.35487356                0.26160907                7.00031259                0.06630076
               5.09560379                9.02551537                2.94930523                0.00010000                0.67714372                0.78796600               -2.77828972                0.16750580                5.15930283                0.25879901
               6.10197433                9.02940234                2.93960871                0.00010000                0.66831140                0.98047771               -3.35165692                0.17659415                5.10491404                0.24142558
               7.10897002                9.03283552                2.92424845                0.04252192                0.84046287                1.22607170               -4.17509439                0.11362330                4.89563207                0.16533898
               8.11878359                9.03521639                2.90188423                0.41759744                1.31710103                1.51915068               -5.35631056                0.02582042                4.29887275                0.01960030
               9.13531204                9.03642125                2.86549485                0.95185256                1.92833291                1.90477500               -7.05926502               -0.04348427                2.78794718               -0.17887742
              10.15735025                9.03765327                2.80574433                0.96881237                2.20382110                2.32927681               -8.35342476               -0.09372504                1.26241550               -0.39295519
               0.05219594               10.00504712                3.03027507                1.00000000                0.17555481                0.85067050                1.99482915                0.61493315                2.03302379                1.94428951
               1.05395149               10.00405869                2.99864767                0.92876448                0.37193749               -0.66359335                0.07001195                1.15349762                2.41177990                1.86257337
               2.05963469               10.01087505                2.97152090                0.62090637                1.08762001               -0.48573262               -1.24455043               -0.43502407                3.42677849               -1.45662828
               3.07570389               10.02479695                2.96582351                0.36502668                1.20586524                0.93901769               -1.64183276                0.96033407                4.23381714                4.85281194
               4.08375199               10.02747021                2.94596187                0.35077291                0.81761671                0.50957325               -2.33969513               -0.01283299                4.44865729               -0.47404130
               5.09205622               10.03389922                2.94329169                0.37082725                0.73335976                0.83838525               -2.62989598                0.26369531                5.16230448                0.03154974
               6.09841919               10.03983926                2.93196497                0.41822940                0.67394855                1.04369171               -3.16137460                0.24645458                4.93234070                0.00340679
               7.10553519               10.04593861                2.91575761                0.51057130                0.85529025                1.31030914               -3.94471038                0.23409712                4.80881233               -0.03945564
               8.11552499               10.05139085                2.89268159                0.70060540                1.31194438                1.61744625               -5.08220845                0.20716466                4.28155812               -0.15693836
               9.13177408               10.05659910                2.85603662                1.00000000                1.84084309                2.01778469               -6.71315744                0.13860288                2.84330954               -0.30170573
              10.15234186               10.06123883                2.79622877                0.99049429                2.05677757                2.35855589               -8.01114985               -0.03686648                1.35561951               -0.61507751
               0.08856071                0.05015887                4.11957210                1.00000000               -0.71362825               -0.90441417                3.08968948               -0.27282156               -0.34083740                0.37469589
               1.08142443                0.03103738                4.06588332                1.00000000               -0.50584762               -0.47677053                1.70492384               -0.21701053               -0.44638679                0.03650222
               2.07844376                0.01129565                4.00993295                0.92101189               -0.09535619               -0.06845571                0.32773894               -0.20598261               -0.45661408               -0.08966356
               3.07951730               -0.00938035                3.95624391                0.51661399                0.94461822                0.37262850               -1.05302967               -0.03928879                0.50281126               -0.47152095
               4.09733612               -0.02737588                3.92012335                0.47437072                2.15292210                0.50941957               -2.80576710               -0.20574842                3.00018152               -0.39847598
               5.12257575               -0.05063147                3.88112056                0.49659894                2.33197797                1.59549601               -4.24329957               -0.63983619                4.98671804               -0.83598777
               6.14397568               -0.06031868                3.86704614                0.55025974                1.27206976                2.35304936               -4.97693573                0.30217589                9.20038238               -1.95048347
               7.14801714               -0.04781782                3.90409980                0.72745981               -2.18793806                3.00294914               -4.06677370                3.25013102               15.73763067               -2.24716577
               8.10021692                0.01597250                4.02274030                1.00000000               -2.36196580               -0.16281135                0.55563610                3.99506066                8.68279285                0.38852121
               9.10077783               -0.00508345                3.96182070                1.00000000                0.27564205                0.29734225               -0.92760440               -0.23222538               -0.27957879                0.01100808
              10.10572976               -0.02651230                3.90078266                1.00000000                0.49519366                0.75610521               -2.41662535               -0.21502752               -0.29367880               -0.31319379
               0.10495399                1.04111472                4.10889518                1.00000000               -0.62680540               -0.85951179                2.82488451               -0.07257691               -0.01854213                0.53457900
               1.09868593                1.02626967                4.05506176                1.00000000               -0.41805962               -0.44151982                1.43056836               -0.02990410               -0.01035905                0.04878233
               2.09659279                1.01061109                4.00114631                0.57480927               -0.01128767               -0.03742980                0.07616661               -0.00817716               -0.03151393               -0.21746991
               3.09846018                0.99434594                3.94724491                0.00010000                0.96557040                0.39873365               -1.28449512                0.02947339                1.28955500               -0.47845922
               4.11590420                0.97771832                3.91993751                0.00010000                1.70943042                0.80625970               -3.69790469                0.09477968                3.40916440               -0.69026540
               5.13264879                0.96532349                3.88831591                0.00010000                1.48432061                1.85793759               -5.99193385                0.20790162                6.45716147               -0.80578889
               6.14559061                0.96321181                3.87713765                0.00010000                0.48620358                2.60287944               -6.22411770                1.25597643                9.87722154               -1.42036217
               7.14237286                0.98221167                3.91736700                0.23857386               -1.33951344                2.53247876               -5.88874686                2.85737462               14.21609626               -1.68100805
               8.11880035                1.01434439                4.02079936                1.00000000               -1.13374415               -0.14788424                0.44031405                2.41316768                8.26423999                0.39459166
               9.11969798                0.99788997                3.95951697                1.00000000                0.31039960                0.31578675               -1.03989374               -0.00022219                0.06376313                0.08821079
              10.12500834                0.98104875                3.89858081                1.00000000                0.53103614                0.76564202               -2.52925611                0.01539475                0.06949818               -0.38087864
               0.11679928                2.03296863                4.10116836                1.00000000               -0.54693018               -0.76227462                2.57970451               -0.10900516                0.06126032                0.70450526
               1.11132998                2.02220698                4.04451770                1.00000000               -0.32976668               -0.36209869                1.14695051               -0.08642585                0.18499030                0.06243740
               2.11020395                2.01054705                3.99008007                0.23382793                0.08347820                0.03354548               -0.20601818               -0.04780578                0.42144138               -0.59838742
               3.11299954                1.99859433                3.93880981                0.00010000                0.90251097                0.10915447               -1.44097277               -0.49490829                1.95244085               -3.36537353
               4.12825417                1.98874932                3.91509193                0.00010000                1.41203711                1.11033133               -3.95053626                0.48026327                4.23912120                0.12885503
               5.14124029                1.98652728                3.89507828                0.00010000                1.19764288                1.88462760               -6.02005786                1.07723203                7.15491026                0.85900518
               6.15220703                1.99173891                3.88672193                0.00010000                0.63958845                2.31242082               -6.10195480                1.51916887                9.53439522                1.20505960
               7.15403206                2.00283176                3.91541852                0.00010000               -0.97025234                1.72007749               -5.87880641                2.03368049               14.09058808                1.19418114
               8.13280198                2.01301482                4.01831444                0.43589017               -0.99815154               -0.28121099                0.32877684                1.96232018                8.69434160               -3.05652519
               9.13406902                2.00123228                3.95858211                1.00000000                0.34590600                0.34179820               -1.13946975                0.00886854                0.39944194                0.37631791
              10.13972010                1.98880054                3.89533320                1.00000000                0.56510740                0.78831013               -2.61873844                0.00449047                0.20530576               -0.39383964
               0.12429719                3.02586923                4.09387569                1.00000000               -0.49181924               -0.65771343                2.35360732               -0.13394120                0.10564033                0.67855879
               1.11937899                3.01902770                4.03394940                1.00000000               -0.25239270               -0.26897184                0.85725590               -0.11286065                0.10811552                0.06074934
               2.11924933                3.01128200                3.97368656                0.09531473               -0.45096230                0.11233514               -0.66654465               -0.40570327               -2.00354670               -0.69007922
               3.11035975                2.99652903                3.87225800                0.00010000                0.91635912                0.37582151               -4.15885522               -0.10352602                2.56686505               -3.18233892
               4.13757652                2.99992495                3.92048781                0.00010000                2.04220454                0.86395213               -3.15737075                1.14474734                8.49008967                0.72025360
               5.15120384                3.00301604                3.91188227                0.00010000                1.10464995                1.14096235               -3.54391577                1.18952641                7.17050646                1.58069716
               6.15966951                3.00946023                3.91025122                0.00010000                0.52833589                1.08835177               -3.59764953                1.20954968                8.69772409                2.30413850
               7.16177056                3.01661322                3.92624657                0.00010000               -0.00116449                0.59793178               -2.65138672                0.58598543                9.63685584                1.78644761
               8.15964622                3.00872017                3.94681073                0.30552951               -0.88404634               -0.09984540               -1.94492640                0.86857556                9.22017344               -2.96766167
               9.14408963                3.00472593                3.96183759                1.00000000               -0.48422937                0.35380892               -1.20142246                0.17930101                4.20702216                0.50012159
              10.14996164                2.99681495                3.89275750                1.00000000                0.58720067                0.81650030               -2.70653007                0.00091296               -0.01604576               -0.32976365
               0.12780353                4.01981436                4.08595793                1.00000000               -0.41435309               -0.53718025                2.12457673               -0.14638422                0.20889268                0.52644663
               1.12366000                4.01682754                4.02343694                1.00000000               -0.16074887               -0.17460239                0.54756218               -0.11645057                0.21496077                0.01245247
               2.12458855                4.01279376                3.96055146                0.03644645               -0.06869602                0.28805440               -1.02415297               -0.15741482               -1.31902200               -0.35054244
               3.12228608                4.00611076                3.86862073                0.00010000                1.00367753                1.11419577               -4.21907544                1.22868180                4.18504849                3.73136377
               4.14466210                4.00602836                3.92757116                0.00010000                1.66047267                0.52019619               -2.60893834                0.62298131                9.11832562                0.22203507
               5.15549553                4.00934653                3.92719436                0.00010000                0.90693661                0.48941214               -2.58814631                0.64712715                6.95937066                0.93491705
               6.16280084                4.01350594                3.92729660                0.00010000                0.54981447                0.21356708               -2.38833901                0.51257885                7.40542222                1.20572959
               7.16649182                4.01479039                3.93147069                0.00010000               -0.03700281               -0.13407275               -2.07083150                0.19346484                8.06469541                0.65199945
               8.16206078                4.01101791                3.94377806                0.30703345               -0.84657783                0.18167234               -1.64567162               -0.01125600                8.84330945               -0.10012770
               9.14956027                4.00830846                3.96301356                1.00000000               -0.32502286                0.35440127               -1.22610056                0.00966235                4.60027252                0.34974880
              10.15556032                4.00513054                3.89030926                1.00000000                0.60000568                0.84684872               -2.78719639               -0.00302747               -0.01350592               -0.30283503
               0.12734314                5.01512563                4.07635073                1.00000000               -0.32725516               -0.39742278                1.87355166               -0.14243631                0.31714171                0.26693542
               1.12407059                5.01553565                4.01160232                0.94483297               -0.02626592               -0.08454323                0.15014265                0.03860672                0.56606316               -0.23054528
               2.12681782                5.01704309                3.95016574                0.01501454                0.88140946                0.45765662               -1.65765002                0.47904695                3.82787188                1.64280517
               3.14169878                5.01881294                3.95042201                0.00010000                0.99912743                0.64384176               -1.93141456                0.55077934                7.51364222                5.60654586
               4.14680037                5.01032887                3.93149859                0.00010000                0.74850104                0.51582794               -2.39055936               -0.07263013                6.58592516                0.50391531
               5.15666880                5.01280428                3.93385214                0.00010000                0.88384265                0.33163187               -2.41968609                0.32752825                7.11258533                0.38483037
               6.16447722                5.01373157                3.93153228                0.00010000                0.57295423                0.12877963               -2.34040935                0.26378769                7.00029266                0.22322585
               7.16812788                5.01393177                3.92980561                0.00693600                0.07129057                0.05094443               -2.26400662                0.25540010                7.30387227               -0.21922750
               8.16590304                5.01235362                3.93145831                0.31915089               -0.89788192                0.20348701               -2.11756091                0.66297761                9.10032152               -1.25865556
               9.15017025                5.01181396                3.96286769                1.00000000               -0.48230571                0.10569787               -1.22633623                1.86730415                5.47676431               -3.84726000
              10.15625692                5.01375192                3.88809846                1.00000000                0.60866757               -0.56740081               -2.82080091                2.49543876                0.17469617               -3.36577555
               0.12413476                6.01186591                4.06477085                1.00000000               -0.16200892               -0.32506946                1.62248524               -0.08094930                0.03977608               -0.07213514
               1.12251467                6.01513668                3.99569325                0.80386445                0.33787182                0.02631905               -0.38298648                0.20146405                2.57566437               -0.26042751
               2.13089220                6.02194689                3.97492615                0.01744748                0.87506060                0.41321350               -1.22031420                0.55076155                5.68087929                2.85661078
               3.14001588                6.01898759                3.95258459                0.00010000                0.91629819                0.18005510               -1.93916641               -0.34621032                6.43571040                1.14409130
               4.14921816                6.01634492                3.94129117                0.00010000                0.93137563                0.48094706               -2.11632434                0.00570256                6.72016428                1.03265777
               5.15864340                6.01597916                3.93470024                0.00010000                0.88654707                0.36717741               -2.40008141                0.17568042                6.70685975                0.23158089
               6.16694910                6.01608153                3.92832788                0.00010000                0.71671894                0.33112042               -2.57124566                0.25723625                6.63556013               -0.18327107
               7.17297778                6.01580928                3.91960959                0.01734004                0.52445184                0.32300124               -2.78869319                0.46927372                6.56463006               -0.79729607
               8.17743814                6.01508765                3.90894364                0.33665679                0.62651323                0.32010057               -3.08052236                0.88873249                5.69887777               -2.06178156
               9.18550804                6.01042242                3.87958570                0.94067071                1.20775115                0.06591241               -3.74843252                1.62196756                3.52336076               -5.71933480
              10.20159316                5.99378253                3.82455033                1.00000000                1.60851226               -0.61623821               -4.66254983                1.66858390                2.15559157               -5.38730368
               0.11918261                7.00862424                4.05124550                1.00000000               -0.11637226               -0.35901311                1.34107177               -0.09716925               -0.03639093               -0.37484977
               1.11801889                7.01606203                3.98276859                0.72855988                0.73997644                0.16294940               -0.63647749                0.09109608                3.63576317                0.15863614
               2.13398214                7.02530736                3.98751602                0.04298162                1.11788257                0.07115071               -0.88481053                0.98213483                4.70458121                1.77271739
               3.14037654                7.02241404                3.94550202                0.00010000                0.79703548                0.19573729               -1.12867317               -0.05839793                4.36874685               -0.34487865
               4.14992285                7.01994781                3.94076620                0.00010000                1.00346254                0.34948610               -2.04406519               -0.09845218                6.55803568                0.43275000
               5.16044579                7.02014783                3.93259836                0.00010000                0.99344906                0.45326124               -2.49650923                0.15716462                6.42359373                0.22343458
               6.16979183                7.02035398                3.92158374                0.00010000                0.90307252                0.53973178               -2.90510725                0.26002605                6.21367836               -0.28762440
               7.17850724                7.02039179                3.90604535                0.02774011                0.96363583                0.61292542               -3.40039924                0.38723718                5.73736204               -0.88477060
               8.18906455                7.01875563                3.88139044                0.35807596                1.27037401                0.61956835               -4.14698059                0.51761585                4.66217854               -1.88583678
               9.20391472                7.01313221                3.84075957                0.90039336                1.69219163                0.68906831               -5.11362629                0.44420823                2.64988352               -2.80074351
              10.22290838                7.00142716                3.77589852                1.00000000                1.89936587                1.25863301               -6.12696368                0.34788790                1.31167618               -3.57647081
               0.10731579                8.00468564                4.03569554                1.00000000                0.03376799               -0.28779873                1.10706924               -0.16993031                0.48515355               -0.57116283
               1.10765347                8.01839567                3.97500200                0.72056892                1.84335429                0.14245734               -1.15983349               -0.53114472                4.57950913                0.95236888
               2.14418288                8.02336990                3.99547473                0.09926324                1.82769999               -0.09886071                0.00527714                0.75675024                4.54173651                0.78093308
               3.14420747                8.02290234                3.92518882                0.00010000                0.26662267                0.02634286               -0.01494921                0.21144796                3.96689418               -0.64069966
               4.14951533                8.02333464                3.93414896                0.00010000                0.85865241                0.33210603               -2.05612178                0.07995999                7.02637396                0.13653780
               5.16138052                8.02504439                3.92823361                0.00010000                1.11951643                0.54308516               -2.67514601                0.22154849                6.25927043                0.05063408
               6.17190566                8.02687617                3.91351364                0.00010000                1.04701735                0.75352888               -3.22797162                0.26248772                5.85805509               -0.27787638
               7.18232087                8.02806779                3.89281323                0.03500640                1.15721904                0.92428496               -3.92001805                0.25566299                5.31970171               -0.69143798
               8.19505004                8.02747902                3.86193823                0.38162960                1.46999021                1.09789953               -4.87485430                0.16953661                4.21362094               -1.17488481
               9.21172067                8.02420378                3.81501089                0.89442776                1.84554846                1.38301862               -6.00316555                0.04095701                2.34322194               -1.68501531
              10.23196101                8.01895519                3.74687931                0.97200637                2.02403387                1.95052957               -7.02118251                0.02028100                1.14539249               -2.06823547
               0.08836396                9.00286826                4.01919174                1.00000000                0.03477754                0.35287615                2.46076779                2.20149935                3.89908426                2.56867081
               1.08871174                9.01891118                3.97742597                0.76595722                2.81232565               -0.80274242                0.84743368                1.69295382                6.50755986                1.89335897
               2.14461048                9.02333014                3.98790555                0.17702780                2.79645115               -0.51847414                0.00382953               -0.95352201                4.04981017               -0.94860397
               3.14464076                9.02294090                3.91761761                0.00010000                0.23847620                0.04494707               -0.01570190               -0.16034562                4.14135077                1.65505487
               4.14938000                9.02658993                3.92991618                0.00010000                0.83472355                0.38613814               -2.17478893                0.31987819                7.14688790               -0.04851957
               5.16133523                9.03100953                3.92192774                0.00010000                1.13190928                0.64221283               -2.77509203                0.25341013                6.10390903               -0.13379231
               6.17201819                9.03542456                3.90564933                0.00010000                1.08412111                0.90319021               -3.40168417                0.21398916                5.70310491               -0.21214375
               7.18301765                9.03887749                3.88233688                0.02937740                1.21505504                1.14682648               -4.17104647                0.14204532                5.13423357               -0.40544611
               8.19631929                9.04071362                3.84848577                0.39494136                1.51200203                1.41816209               -5.20141234                0.03342126                4.05076921               -0.63463874
               9.21325770                9.04079258                3.79887330                0.94250762                1.87459543                1.75502371               -6.37343039               -0.05255169                2.25040092               -0.86500632
              10.23381120                9.04043775                3.72876426                0.95762264                2.05534999                2.18980288               -7.39749214               -0.06758849                1.09020145               -1.12666085
               0.11925996               10.01174317                4.05497864                1.00000000                0.17907140                0.88749036                1.86261669                2.14936433                2.11580621                4.10575990
               1.12105067               10.00234082                4.00014255                0.91263835                0.09113794               -1.65703588                0.10054872                3.29675574                2.73129977                3.02865964
               2.12108271               10.01300042                3.96127255                0.61905873                0.83450523               -1.03297254               -0.74575997               -1.27975310                4.45229613               -1.88201119
               3.13774077               10.02380128                3.94320539                0.35941694                1.33807758                0.08603764               -1.87519265                0.21285056                5.31277308                2.82651305
               4.14784427               10.03105740                3.92527125                0.35132752                0.99366628                0.44674724               -2.09277690                0.55079495                5.87943025               -0.18611338
               5.15761410               10.03788864                3.91651143                0.37266682                1.02366102                0.68791115               -2.71238976                0.32201534                6.08927604               -0.21655686
               6.16831749               10.04493997                3.90007037                0.41960201                1.11293058                0.95154190               -3.27977291                0.28571381                5.67802420               -0.18678099
               7.17987271               10.05100432                3.87605686                0.50793621                1.27429469                1.21268270               -4.02583048                0.23062000                5.13255980               -0.28798580
               8.19380338               10.05584226                3.84176766                0.69662441                1.55363975                1.51286409               -5.04465776                0.16340637                4.11915671               -0.40846231
               9.21094551               10.05930426                3.79215556                1.00000000                1.87577571                1.85116788               -6.21588675                0.11423033                2.35899371               -0.54600091
              10.23131889               10.06275124                3.72159938                0.98450020                2.03733879                2.23134915               -7.26015742                0.09546862                1.25670156               -0.71850348
               0.14582086                0.06604649                5.15024990                1.00000000               -0.70856422               -0.88212870                3.02660581               -0.26387247               -0.33623790                0.39759679
               1.13873522                0.04360801                5.08299714                1.00000000               -0.51248260               -0.47365674                1.70916182               -0.21663969               -0.43473402                0.04579492
               2.13557121                0.02034290                5.01357829                0.92680686               -0.12444850               -0.08110222                0.41059764               -0.21779590               -0.44702296               -0.09161433
               3.13624624               -0.00397028                4.94639778                0.53125185                2.48802458                0.34115109               -0.89579097               -0.35353168                0.20556894               -0.46432817
               4.18533170               -0.03196762                4.89070521                0.51196671                4.15342356                0.44150907               -2.18887898               -2.83368552                2.12446215                0.25197261
               5.21931472               -0.06554773                4.84113347                0.54391657                2.94337425                1.24635284               -3.44933936               -0.55884198                6.65241349               -3.13375390
               6.24419918               -0.09584514                4.81984376                0.58584855                1.28681907                2.65218093               -3.29959990               -0.84901617               11.15188598               -2.47149301
               7.24505110               -0.09738473                4.86499385                0.75116565               -3.92719365                4.38955361               -1.27718470                3.59656501               18.48757912               -6.52353412
               8.16565531                0.02232864                5.02769812                1.00000000               -3.93075675               -0.13026690                0.43809201                6.97541972               11.61122249                0.38245123
               9.16643596               -0.00208569                4.95239585                1.00000000                0.28422088                0.30465353               -0.95556230               -0.21647623               -0.27557781                0.01160771
              10.17133973               -0.02682084                4.87694482                1.00000000                0.49037638                0.73793170               -2.35063338               -0.20265611               -0.28875110               -0.30878658
               0.16562061                1.05722520                5.13679298                1.00000000               -0.61999988               -0.83739667                2.74441990               -0.06613272               -0.00833672                0.58815928
               1.15942061                1.03887144                5.06937078                1.00000000               -0.42191115               -0.43602259                1.42266610               -0.03284766                0.00916965                0.06533545
               2.15718239                1.01953188                5.00208601                0.58910454               -0.02772130               -0.04161694                0.10939871               -0.02324015               -0.00239030               -0.23375044
               3.15886619                0.99944123                4.93469492                0.00010000                1.53005877                0.38333148               -1.21877017               -0.30650615                0.37324296               -0.49114672
               4.18778357                0.97244747                4.87539091                0.00010000                4.33994331                1.11546690               -7.91373793               -1.87496948               11.49234990               -1.07468104
               5.24566506                0.94691580                4.81508461                0.02545237                3.19219772                2.46645662               -7.25166036               -0.39479985               13.23492946               -1.68153052
               6.25162752                0.93067667                4.80667960                0.00959839               -1.18675996                4.06271289               -7.51670466                0.70970588               17.20668580               -1.93612078
               7.22192986                0.94651081                4.83794291                0.25829875               -3.19337669                5.65949781              -10.32147299                4.26065720               27.13363105               -5.25733474
               8.18775999                1.02102597                5.02469570                1.00000000               -1.65419559               -0.11681405                0.33742878                4.71547884               13.14606854                0.38828234
               9.18884594                1.00096085                4.94903040                1.00000000                0.31441671                0.32162182               -1.05614688                0.00057184                0.05962349                0.09057976
              10.19404832                0.98055847                4.87368670                1.00000000                0.52023768                0.75235507               -2.45131518                0.01386007                0.06603551               -0.37683853
               0.18120573                2.04929856                5.12656434                1.00000000               -0.54341353               -0.74765029                2.48807544               -0.08195347                0.06388120                0.80827427
               1.17577159                2.03488756                5.05600139                1.00000000               -0.33345566               -0.35277392                1.14367849               -0.06250102                0.20150282                0.08419665
               2.17453661                2.01951056                4.98808199                0.25123329                0.07144699                0.04007505               -0.19144885               -0.05484959                0.49062395               -0.69117090
               3.17720053                2.00369635                4.92372925                0.00010000                1.29105629                0.14048290               -1.53446252               -0.32748130                1.15397671               -2.98699921
               4.20035774                1.99034171                4.86907783                0.00010000                3.79944936                1.40323427               -8.36059892                0.47925294               12.89769477               -0.13480087
               5.25318952                1.98378140                4.81983696                0.00010000                2.92202768                2.67056212               -8.28678204               -0.39737892               14.80113060                1.35178461
               6.25879829                1.98540912                4.81595711                0.00010000               -0.66372907                3.95868735               -8.73678484                1.71860230               17.82075593                0.17258772
               7.23991494                2.01580523                4.83758899                0.00010000               -2.66417222                3.96942174              -10.97815454                3.28665228               27.09451306               -1.69707423
               8.20551485                2.01999236                5.02114971                0.42719604               -1.65000178               -0.19366503                0.23708590                2.22942373               13.44474925               -4.16554447
               9.20691490                2.00434675                4.94712101                1.00000000                0.34534139                0.34652781               -1.15087397                0.00346582                0.39774355                0.39160037
              10.21242168                1.98822626                4.86946974                1.00000000                0.55067748                0.78205415               -2.54748350                0.00689791                0.20408110               -0.40137595
               0.19280354                3.04227220                5.11690495                1.00000000               -0.48449498               -0.66130653                2.23483844               -0.08101159                0.11385637                0.81331044
               1.18795859                3.03181596                5.04256883                1.00000000               -0.27634685               -0.25907640                0.87318740               -0.05441787                0.08999946                0.07925228
               2.18727661                3.02033338                4.96733878                0.10166247               -0.32365928                0.14739606               -0.57287731               -0.35579688               -1.52648999               -0.85670489
               3.18148541                3.00225089                4.86197195                0.00010000                1.50034822                0.19103214               -0.76125401                0.08836847                3.65626646               -2.66394746
               4.21728357                3.00051215                4.88382614                0.00010000                3.05823331                0.52901161               -3.03282394                0.59509894                8.67866226                0.36960732
               5.24265007                3.00032704                4.87574836                0.00010000                1.83460862                1.05761973               -3.57068291               -0.57689539                9.32130063                3.25753707
               6.25397574                3.00985042                4.87365244                0.00010000                0.52147913                1.30525223               -3.34553132                0.41907361               11.32478294                2.77067381
               7.25307966                3.02589924                4.90223308                0.00010000               -0.50844003                0.05988329               -1.83595666                0.63079314               11.21258545                3.11628058
               8.24380694                3.01715267                4.92644626                0.29584829               -1.61991456               -0.13263665               -1.79830206                0.90645972               11.21365870               -3.82447631
               9.22068137                3.00789140                4.94971869                1.00000000               -0.86898414                0.36013496               -1.21981746                0.10614893                5.34291851                0.52994331
              10.22642726                2.99619956                4.86602135                1.00000000                0.57458944                0.80973357               -2.63415631                0.00630471               -0.01625984               -0.36064022
               0.20049796                4.03607243                5.10653344                1.00000000               -0.38759076               -0.57940438                1.97290836               -0.07393963                0.21669585                0.65918202
               1.19662206                4.02970603                5.02889471                1.00000000               -0.17561069               -0.16407874                0.56047451               -0.01622708                0.20748704               -0.02671988
               2.19698575                4.02245848                4.95026991                0.03277426                0.10835343                0.24975311               -0.87745591               -0.33205391               -0.69058835               -0.50241591
               3.19878912                4.00751699                4.85540975                0.00010000                0.85989075                0.67931631               -1.13470920                0.63965877                5.69739639                3.39640988
               4.21418356                4.00092195                4.89823516                0.00010000                1.67621115                0.53234332               -2.82771095                0.34866458               10.49874857                0.71001484
               5.23231335                4.00493380                4.90171657                0.00010000                1.37120004                0.52310683               -2.66168226                0.16134304                8.67863274                0.91965440
               6.24160757                4.01151416                4.90463694                0.00010000                0.64575971                0.18891820               -2.33196092                0.04979257                8.99118191                1.14484836
               7.24522854                4.01700289                4.91226795                0.00010000                0.00221589               -0.49341904               -1.93259783                0.01419537                9.66714501                0.06631280
               8.24165188                4.01733963                4.92815805                0.29858556               -0.76187720               -0.05546463               -1.46372504               -0.11260727               10.38898934               -0.45470730
               9.22999100                4.01154945                4.95054590                1.00000000               -0.28602095                0.36700703               -1.26494348                0.05382633                5.49656767                0.38498875
              10.23593146                4.00442093                4.86286180                1.00000000                0.59404665                0.83279953               -2.70723580                0.00518275               -0.01286113               -0.33875942
               0.20405754                5.03068411                5.09406207                1.00000000               -0.28095454               -0.49355338                1.68305624               -0.08007273                0.31631111                0.39544436
               1.20124800                5.02853439                5.01336388                0.93220247               -0.06164897               -0.05928862                0.22060612               -0.04094497                0.56697327               -0.33731613
               2.20282457                5.02532844                4.93681285                0.00660646                0.72835589                0.24969242               -1.19166128                0.07364912                3.85117618                1.47083440
               3.21581512                5.01583722                4.92327283                0.00010000                1.20077458                0.93089784               -2.82705721                0.44096297                6.98475318                4.17566310
               4.22684006                5.01115902                4.90942770                0.00010000                0.97348016                1.01222498               -2.40827366                0.58293474                8.02716952                1.10116165
               5.23528472                5.01078918                4.90960606                0.00010000                0.80312218                0.65915209               -2.39425026                0.47539448                8.46977037                0.17418112
               6.24290250                5.01362878                4.90815865                0.00010000                0.61266885                0.31665841               -2.32385606                0.54882794                8.37250656               -0.32333969
               7.24753810                5.01603086                4.90753400                0.00261210                0.20528723                0.06496106               -2.18631722                0.57567275                8.66037616               -1.03976969
               8.24700825                5.01604338                4.91070301                0.31134224               -0.64307522                0.04542267               -2.04785736                0.87777561               10.88212664               -2.28110210
               9.23467659                5.01523154                4.95013863                1.00000000               -0.31101466                0.09980893               -1.30733611                1.77846853                6.65629507               -4.98933173
              10.24078795                5.01285555                4.86016055                1.00000000                0.61113590               -0.40519936               -2.76679376                2.17636853                0.18754220               -4.25648561
               0.20319595                6.02620136                5.07952305                1.00000000               -0.20371232               -0.40789683                1.40166812               -0.09161878                0.04243553                0.14878178
               1.20115883                6.02852026                4.99344870                0.79018505                0.39799765                0.04588144               -0.15382383               -0.16647555                2.70290640               -0.35358744
               2.21115590                6.02745233                4.96082307                0.00746895                1.03094875                0.27345802               -1.25740464                0.01061380                5.74784458                2.76025560
               3.22177780                6.02613495                4.93551500                0.00010000                0.98671954                0.68371464               -1.93760300               -0.35976589                6.69743271                1.50714174
               4.23089030                6.02116645                4.92016818                0.00010000                0.87868363                0.82464454               -2.19308952               -0.28814783                7.57399595                0.91208664
               5.23935148                6.01811684                4.91067966                0.00010000                0.82260732                0.69318073               -2.40841733                0.12853435                7.84956979                0.02783731
               6.24734244                6.01784733                4.90245407                0.00010000                0.74879595                0.50287975               -2.57858976                0.45153021                7.73677631               -0.74304312
               7.25432740                6.01830212                4.89174738                0.01218544                0.63321360                0.37500524               -2.76060121                0.73106003                7.54885503               -1.68128261
               8.26000671                6.01824808                4.87862556                0.32847010                0.72104037                0.30029448               -2.97716541                1.06788586                6.40712213               -3.31396245
               9.26874820                6.01354562                4.84317115                0.94355198                1.21020572                0.05383129               -3.55553611                1.55891671                3.93382105               -7.66991742
              10.28421083                5.99631694                4.77903164                1.00000000                1.54626260               -0.44350691               -4.45714897                1.51917867                2.48322680               -6.90259656
               0.19758737                7.02252617                5.06391905                1.00000000               -0.09198525               -0.36341164                1.18545298               -0.14444738                0.02838801                0.09115435
               1.19666752                7.02945202                4.97674280                0.71276553                0.39173885                0.19333198               -0.56256980               -0.30880985                4.33208487               -0.15899021
               2.20542215                7.03079760                4.97531322                0.03240416                0.91190812                0.17734073               -1.75245031                0.17714897                6.61261079                2.39884375
               3.21490568                7.02951151                4.93823444                0.00010000                1.18365302                0.21427470               -0.90822515               -0.51186609                6.17032675                0.27865593
               4.22909521                7.02765191                4.91987920                0.00010000                1.31344209                0.43149206               -2.04160325               -0.48189565                7.24144671                0.53472992
               5.24117452                7.02465279                4.90737341                0.00010000                1.13263108                0.58531803               -2.52728354               -0.08811584                7.40477242               -0.11630701
               6.25174783                7.02368637                4.89218725                0.00010000                1.02920108                0.63796316               -2.92127333                0.31623298                7.07648649               -0.83776626
               7.26175855                7.02353097                4.87189541                0.02017183                1.06873108                0.64973859               -3.36399063                0.55408576                6.33921590               -1.70595231
               8.27312245                7.02204927                4.84069266                0.34818631                1.30137614                0.60833648               -3.96466144                0.67197876                4.93397817               -2.99331960
               9.28778607                7.01630817                4.79155078                0.90003918                1.62532204                0.65719712               -4.76216288                0.50959718                2.71236892               -4.03744271
              10.30562889                7.00398541                4.71655125                1.00000000                1.78428251                1.20529512               -5.77193758                0.34975221                1.32772846               -4.75226666
               0.18645532                8.01893313                5.04872523                1.00000000                0.02558904                0.30522758                1.05698617                1.79457912                0.15274039                1.88217528
               1.18671121                8.03238690                4.96057318                0.70038573                1.40920382               -0.30153847               -1.18272193                1.10831831                6.30055509                2.44016779
               2.21463939                8.03099914                4.99553049                0.08411169                1.39874820                0.00824422               -0.07570905                0.38850100                5.48096737                1.45379216
               3.21468617                8.03042044                4.92502183                0.00010000                0.57358520                0.04898955               -0.09938980               -0.04470156                3.41921199               -0.30837761
               4.22611110                8.02979629                4.91691004                0.00010000                1.34342617                0.13149447               -1.89143446               -0.13166815                7.31531296                0.29558656
               5.24155469                8.02982320                4.90086662                0.00010000                1.43389161                0.49544541               -2.69240461                0.07923059                7.03635594               -0.25052634
               6.25478893                8.03060659                4.88106248                0.00010000                1.27457600                0.74581798               -3.21946641                0.26765754                6.60314482               -0.73729534
               7.26704621                8.03129689                4.85368266                0.02412063                1.29400789                0.89760000               -3.84127276                0.34339596                5.72856129               -1.32938274
               8.28066909                8.03041481                4.81440233                0.36914372                1.49788970                1.03224609               -4.61487390                0.27663918                4.29233535               -1.94610145
               9.29700401                8.02668957                4.75763183                0.89689417                1.75911538                1.28341436               -5.53355449                0.11317645                2.29241664               -2.50644919
              10.31585140                8.02042284                4.67945436                0.96966497                1.88473863                1.82072878               -6.53933367                0.06050035                1.10744220               -2.84752873
               0.20657141                9.02863073                5.06772278                1.00000000                0.01964569               -0.16723077                3.41327381                0.36549878                3.65101345                3.21695648
               1.20676787                9.02342125                4.99621363                0.74026397                0.42936049               -0.65940934                1.57603991                0.89520648                6.50397016                3.43338464
               2.21515862                9.03096248                4.98794726                0.14323452                0.42233186               -0.22491543               -0.01876490               -0.09757834                3.45505441               -1.08248739
               3.21521451                9.03049130                4.91744050                0.00010000                0.59502333               -0.01343941               -0.13795321                0.12968969                3.63697192                0.88956150
               4.22705909                9.03028180                4.91147876                0.00010000                1.33671618                0.16207671               -1.95394182                0.29969289                7.40601521               -0.22196473
               5.24194883                9.03456170                4.89380339                0.00010000                1.42841039                0.52887494               -2.77199854                0.29044299                6.90066129               -0.21772184
               6.25562730                9.03860273                4.87157503                0.00010000                1.34347078                0.83274798               -3.38751370                0.22832891                6.41117430               -0.47137891
               7.26881825                9.04148297                4.84082752                0.02052491                1.38176296                1.07210171               -4.08525791                0.17671712                5.49784518               -0.74304583
               8.28326256                9.04269419                4.79785599                0.38423442                1.56116599                1.31215110               -4.92827524                0.08169181                4.09332008               -1.01440373
               9.30004157                9.04197646                4.73802624                0.94537149                1.80548963                1.62124985               -5.88582252               -0.00879931                2.18715109               -1.24436130
              10.31937235                9.04039998                4.65779449                0.95653242                1.93307831                2.03878415               -6.89510287               -0.02080508                1.05902910               -1.48139280
               0.20418425               10.01558851                5.06752740                1.00000000               -0.19006678               -1.30422149                1.78054150                0.12230346                2.84157167                1.63848686
               1.20228358               10.01919871                5.00065864                0.89897624                0.07167638               -0.42225379                0.32364920                0.09718720                3.78639148                2.50072337
               2.20561778               10.02650083                4.95660570                0.59198545                0.78385350               -0.44616490               -0.24501867               -0.40643744                6.18036073               -1.47273641
               3.21796065               10.03015166                4.92831966                0.35660902                1.12083888               -0.03396439               -1.76245608                0.60146366                6.69124989                1.71974331
               4.22803455               10.03303782                4.90410633                0.35154021                1.05409850                0.27560225               -2.02601867                0.60999861                6.91361507               -0.43400891
               5.23904262               10.04040070                4.88904390                0.37388081                1.21998455                0.58389980               -2.80513971                0.42056548                7.09174887               -0.18236996
               6.25243424               10.04726155                4.86636951                0.42041460                1.37232399                0.86588184               -3.39573723                0.29760574                6.46304616               -0.31136184
               7.26648910               10.05273892                4.83524100                0.50723004                1.46875953                1.12559546               -4.07308297                0.23689941                5.55551983               -0.44412540
               8.28180943               10.05665783                4.79178843                0.69485070                1.63165659                1.39636415               -4.92154251                0.17347001                4.16890609               -0.58243450
               9.29912223               10.05911456                4.73171888                1.00000000                1.83894022                1.71381085               -5.89895017                0.13510121                2.28502173               -0.69683132
              10.31858824               10.06119853                4.65102562                0.98455492                1.94660077                2.07985430               -6.90911945                0.12998521                1.17151882               -0.86474818
               0.21634147                0.08502464                6.18010421                1.00000000               -0.69401110               -0.84611759                2.92222587               -0.25284892               -0.31993394                0.41202537
               1.20940136                0.05920598                6.10006655                1.00000000               -0.51194054               -0.46338538                1.69023373               -0.21134257               -0.39298739                0.06179769
               2.20610266                0.03244792                6.01814490                0.93993944               -0.14497967               -0.10155366                0.48745064               -0.21153930               -0.38978393               -0.09068300
               3.20650176                0.00473881                5.93832809                0.54709627                1.94935088                0.24527240               -0.74618208                1.40405059                0.57817886               -0.47664884
               4.24508967                0.00829217                5.87634577                0.54779262                5.99918521               -3.04400932               -2.99968912               18.72980207                1.72604424               -8.29679913
               5.32648547               -0.06120883                5.81213377                0.58861876                4.90316769                1.41982123               -2.93539536                9.37170103                6.05094324               -5.30051966
               6.34315303               -0.08342023                5.80105414                0.61929210               -0.82855544                1.17962742               -1.80987590                9.22241063               12.59414109               -5.43846955
               7.30991436               -0.12418662                5.87855611                0.77282882               -4.90568313                2.86564631                0.86755929               21.36383388               19.50982639              -16.04354784
               8.24503937                0.02962638                6.03150214                1.00000000               -3.19473948               -0.09679376                0.32598407                8.86279705               11.79599051                0.38064072
               9.24601957                0.00187960                5.94270946                1.00000000                0.29087171                0.30968018               -0.97847564               -0.20192095               -0.27893307                0.00931203
              10.25085680               -0.02617178                5.85377000                1.00000000                0.48372309                0.71588451               -2.28262889               -0.18917314               -0.29333664               -0.31462076
               0.23963164                1.07656346                6.16378358                1.00000000               -0.60553441               -0.80012486                2.64005296               -0.05606647                0.00350944                0.62653649
               1.23357629                1.05457213                6.08351508                1.00000000               -0.42053930               -0.42565550                1.39974732               -0.03450258                0.02245903                0.09601026
               2.23122085                1.03143238                6.00333429                0.61431209               -0.04780764               -0.04885260                0.15616144               -0.05973444                0.00070783               -0.22494539
               3.23262014                1.00719153                5.92286951                0.00010000               11.70703305                0.34192538               -1.05341529               -0.24994091               -4.07566679               -0.51253717
               4.46536151                0.97785208                5.76166275                0.03511585               11.67192710               -1.53370518               -5.68077034                9.54042666                5.81315918               -5.45541849
               5.46605868                0.95298939                5.74328270                0.07814112                0.07522605                0.70540221               -3.61724746                5.72110509               10.15776216               -3.16979132
               6.46686603                0.92837604                5.72680356                0.04806297                0.04853531                0.58190323               -3.98359507                4.95987743                9.98180901               -3.83358879
               7.46702939                0.90446984                5.71093754                0.27928817               -9.81159050                1.43933620               -6.34816881               14.05488821               28.11665758              -10.47766664
               8.27063422                1.02865845                6.02754794                1.00000000               -9.75649724               -0.08365070                0.23315908                7.38160682               20.31094829                0.38641972
               9.27189944                1.00497640                5.93839404                1.00000000                0.31911164                0.32481998               -1.07100886                0.00064577                0.05669619                0.08816452
              10.27701646                0.98098706                5.84955450                1.00000000                0.51170123                0.73050768               -2.37571681                0.01343885                0.06415622               -0.38508902
               0.25920281                2.06902214                6.15092987                1.00000000               -0.53604213               -0.71985588                2.36928654               -0.05218074                0.07215406                0.86105622
               1.25384239                2.05069287                6.06739127                1.00000000               -0.34571231               -0.34263512                1.13889751               -0.01912087                0.20637968                0.14149168
               2.25228856                2.03147086                5.98625109                0.26653013                0.06204271                0.02638028               -0.15820457               -0.05099991                0.44385382               -0.71173593
               3.25508324                2.01157731                5.90812056                0.00010000               11.89058942                0.21890230               -1.71395028               -0.97376068               -3.53759704               -2.40270923
               4.49010035                1.97761807                5.74787996                0.00010000               11.76501835                0.01538404               -6.04431572              -11.33331316                6.50217484                4.97921140
               5.49038361                1.95289922                5.72934264                0.00010000                0.03848849                1.66488947               -4.53501891               -8.38276838               10.97771774                4.00442068
               6.49087012                1.92821783                5.71198623                0.00010000                0.01730529                2.39089178               -5.19153314               -7.77423466               10.74929766                3.71326222
               7.49072972                1.90460010                5.69585543                0.00010000               -9.93525930                4.98950164               -7.09256510               -1.70327020               28.91099040                4.12270844
               8.29216494                2.02795337                6.02305615                0.41816987               -9.85129233               -0.17180684                0.14094615                8.47877343               21.30155120               -4.99446747
               9.29370387                2.00837600                5.93556464                1.00000000                0.34696640                0.34617555               -1.16143951               -0.00207671                0.39846679                0.39934722
              10.29910426                1.98843837                5.84438353                1.00000000                0.54003953                0.76115117               -2.46966669                0.00697007                0.20445307               -0.41277570
               0.27524656                3.06216635                6.13857246                1.00000000               -0.45014103               -0.65906298                2.09054817               -0.03408719                0.14013850                0.86159681
               1.27074515                3.04771943                6.05141315                1.00000000               -0.29650774               -0.25973906                0.87543646                0.00122599                0.09174310                0.10927659
               2.26931641                3.03195998                5.96222901                0.10704052               -0.18737171                0.09002522               -0.33204735               -0.20883370               -0.81871167               -0.85506150
               3.26699772                3.01156958                5.85703292                0.00010000                1.40284682                0.05803810               -0.34245794               -1.03073539                4.07133827               -2.07920010
               4.29737335                2.97815976                5.85983133                0.00010000                4.04029177                0.85045127               -3.12989261              -10.35262471                8.37569889                5.06790910
               5.34780355                2.98628717                5.84046861                0.00010000                3.11535555                2.04913486               -3.59352988               -8.48415484                9.29779640                6.12458298
               6.35968046                2.97619388                5.84334059                0.00010000               -0.72875552                3.68394338               -3.30173818               -7.04121649               12.52059915                6.05101468
               7.33322844                3.00425987                5.88952744                0.00010000               -1.16233336                5.31078149               -2.15206031               -5.26938335               12.32276104                7.56204618
               8.33643379                3.02522231                5.91084469                0.28678041               -1.09277676               -0.51431795               -1.24994259                2.35188619               11.62664410               -5.24571947
               9.31137291                3.01189992                5.93744124                1.00000000               -0.97013330                0.36061441               -1.23631444                0.10358853                6.18915125                0.55308949
              10.31703112                2.99621008                5.84007438                1.00000000                0.56582139                0.78888901               -2.55616390                0.00936786               -0.01695593               -0.37173625
               0.28741491                4.05584088                6.12541610                1.00000000               -0.33416385               -0.60607240                1.80600349               -0.04332028                0.21200296                0.70268135
               1.28407327                4.04549809                6.03464643                1.00000000               -0.15765849               -0.17420440                0.57677549               -0.03276955                0.22451760               -0.04674972
               2.28426174                4.03327137                5.94300234                0.03240977                0.20977444                0.19733149               -0.56511677               -0.40720108               -0.07510085               -0.54141282
               3.28826876                4.01273808                5.84592654                0.00010000                1.20342609                0.53256894               -0.85080129                0.15685002                5.84796108                2.72334431
               4.30833026                3.99462710                5.87101695                0.00010000                1.71988206                1.61296589               -2.60832659                0.23905090               11.09565343                0.95547030
               5.32266640                3.99388191                5.87396071                0.00010000                1.18714175                1.05188208               -2.65798434               -0.66003466                9.99477840                1.49890648
               6.33207310                4.00189670                5.88065738                0.00010000                0.68236075                1.66268891               -2.36973604               -0.43736098               10.42081030                1.09630902
               7.33631362                4.01081573                5.89281873                0.00010000               -0.02552392                0.46985355               -1.83628956                1.06664562               11.11930223               -0.95996178
               8.33156262                4.01766701                5.91450356                0.29057395               -0.57628749               -0.44791232               -1.38084011                0.46398520               11.84301219               -1.16062507
               9.32478787                4.01558829                5.93771469                1.00000000               -0.04456659                0.37510795               -1.29924243                0.45074182                6.22852768                0.41292667
              10.33067129                4.00421615                5.83616455                1.00000000                0.58834199                0.81211483               -2.63454317                0.00942613               -0.01487451               -0.34861962
               0.29506574                5.05004490                6.11001185                1.00000000               -0.24064668               -0.54281606                1.52057427               -0.09509204                0.29794162                0.47245736
               1.29265928                5.04423534                6.01601444                0.91724323               -0.05666713               -0.04060409                0.28627845               -0.14693839                0.54849378               -0.38380079
               2.29393240                5.03590661                5.92633251                0.00256677                0.80598576                0.26901290               -0.96416743               -0.12466686                3.58628780                1.56477919
               3.30877899                5.02222096                5.89388087                0.00010000                1.35390621                1.07153671               -4.63338647                0.04315676                7.61031979                4.19702428
               4.32101053                5.01041908                5.88333311                0.00010000                0.92771338                1.47540258               -2.33850609                0.11535143                9.52373741                1.44816526
               5.32733326                5.00732482                5.88596713                0.00010000                0.64944479                1.24433228               -2.39100824                0.48555403                9.83589227                0.37036936
               6.33399942                5.00944765                5.88505516                0.00010000                0.57288919                0.76476877               -2.30476835                0.74379699                9.69300196               -0.63288871
               7.33879104                5.01365694                5.88607927                0.00010000                0.34707559                0.35032398               -2.16787055                0.91430871                9.99869633               -1.78042871
               8.34094093                5.01626406                5.89050116                0.30336842               -0.24762184                0.05758724               -2.02423702                1.41696646               12.51285742               -3.35363197
               9.33383861                5.01940207                5.93672096                1.00000000               -0.04885024                0.00118134               -1.36655162                1.75894205                7.70359136               -6.00115346
              10.33996393                5.01245238                5.83276258                1.00000000                0.61253213               -0.24381288               -2.71069913                1.74830224                0.19422238               -5.04133531
               0.29713219                6.04498456                6.09280421                1.00000000               -0.18594039               -0.43998752                1.25318032               -0.07799890                0.01207342                0.31190204
               1.29527279                6.04468601                5.99261678                0.77500046                0.33252967                0.07612044               -0.03805459               -0.28628978                2.89071823               -0.46614463
               2.30378278                6.03865163                5.94977806                0.00168862                0.96733219                0.13351012               -1.20081010                0.01465596                5.97575171                2.61138472
               3.31461943                6.03416881                5.91383253                0.00010000                1.08753227                0.81296894               -1.86813773               -0.20391881                7.33198840                2.56123035
               4.32553343                6.02413515                5.89742938                0.00010000                0.93647387                1.17407370               -2.36287028               -0.53989805                8.65018819                1.19016179
               5.33334891                6.01876856                5.88653189                0.00010000                0.75417401                1.01549527               -2.37953960                0.09784316                8.96132398               -0.12600575
               6.34061691                6.01719207                5.87675609                0.00010000                0.72172366                0.77712911               -2.54931299                0.59268933                8.82932125               -1.19430662
               7.34778338                6.01782221                5.86439757                0.00538491                0.67699531                0.53402574               -2.70332100                0.98108938                8.57073804               -2.48540335
               8.35415681                6.01881876                5.84940033                0.32017703                0.79975044                0.34242051               -2.87904412                1.24687588                7.20303544               -4.43364212
               9.36377839                6.01561192                5.80847498                0.94515993                1.26899517               -0.07397030               -3.39434345                1.44930171                4.39191803               -9.37112147
              10.37953672                5.99933989                5.73540735                1.00000000                1.57583294               -0.32466375               -4.26912107                1.34770149                2.84098287               -8.27585729
               0.29410287                7.04124515                6.07495456                1.00000000               -0.08364556               -0.32295679                0.99555663               -0.07161389                0.00538334                0.27521040
               1.29326642                7.04575775                5.97151719                0.69722919                0.53199229                0.15210935               -0.42833493               -0.55408969                4.23090830               -0.30832985
               2.30474272                7.03857682                5.95246701                0.02439224                1.29753391                0.05800401               -1.57621200               -1.08533112                8.18241136                3.34988869
               3.31921710                7.03848033                5.92733752                0.00010000                1.04350484                0.16799577               -1.35275772               -1.40417641                7.86824352                1.32788396
               4.32561282                7.03390055                5.89993413                0.00010000                0.85080515                0.67558340               -1.93329113               -0.82011200                8.08759492                0.45650022
               5.33623320                7.02763472                5.88205269                0.00010000                1.05933716                0.74176609               -2.49297392               -0.21520160                8.36479621               -0.33669692
               6.34679956                7.02499024                5.86315828                0.00010000                1.02764756                0.77752045               -2.85410919                0.36191721                7.96863600               -1.28202140
               7.35678615                7.02433746                5.83876554                0.01258170                1.06445925                0.73629070               -3.24741566                0.69455545                7.04189112               -2.39055816
               8.36808874                7.02311247                5.80209721                0.33982048                1.27586778                0.62874531               -3.76069639                0.81879909                5.40013825               -3.93134392
               9.38230350                7.01792267                5.74551631                0.89940936                1.56866330                0.59937130               -4.47206881                0.57926092                2.93207072               -5.07114436
              10.39946201                7.00595911                5.66045977                1.00000000                1.71585046                1.07107419               -5.46489468                0.35004767                1.44737505               -5.76264725
               0.28667472                8.03852543                6.05683527                1.00000000                0.01846070                0.35800384                0.69324358                1.43525971                0.20440020                2.76713990
               1.28685932                8.04772820                5.95134756                0.68124020                0.13394283                0.08678280               -0.79567241                0.32932604                7.60582305                3.55451424
               2.28935357                8.03981171                5.99396055                0.06717589                0.21764214                0.10141807               -1.87261692               -1.12287471                8.69491173                2.92583316
               3.29121217                8.03752873                5.92320102                0.00010000                1.53116146               -0.05230140               -0.49220608               -1.37666428                5.95399856                0.35632037
               4.31997680                8.03764682                5.89632027                0.00010000                2.33715138                0.05268928               -1.99688649               -0.42001229                8.13274297                0.20281402
               5.33795519                8.03360388                5.87438552                0.00010000                1.55878579                0.54215488               -2.58719769               -0.09426707                8.02180441               -0.38431079
               6.35115252                8.03274248                5.84912431                0.00010000                1.27985294                0.78498577               -3.12339012                0.26810600                7.37396729               -1.06808582
               7.36355225                8.03254802                5.81598778                0.01662042                1.28975346                0.90603884               -3.67886015                0.42793154                6.27282329               -1.81522707
               8.37694759                8.03139366                5.76964076                0.36108187                1.44823616                0.99634825               -4.34710622                0.39747747                4.60678721               -2.54581691
               9.39251697                8.02759934                5.70433980                0.89829296                1.67586059                1.19478152               -5.16699492                0.20632109                2.42549440               -3.14863147
              10.41046480                8.02076138                5.61609264                0.96976332                1.79478229                1.66397625               -6.16684759                0.11586651                1.19284703               -3.45193847
               0.30440253                9.04840522                6.08745722                1.00000000               -0.58358704                0.31891142                1.81765136                1.06652725                2.66417442                3.83687472
               1.29856666                9.04749340                6.00894677                0.71326041               -0.59589170               -0.21314700                0.98805493                0.65204143                5.30970710                4.80014727
               2.29248469                9.04060518                5.98753025                0.10648089               -0.23589783                0.32085487               -1.16040710                0.88081246                5.49795789               -0.41085247
               3.29384870                9.03743431                5.91485855                0.00010000                1.43263601               -0.05454482               -0.42310869                1.36010695                5.88722233                0.25392704
               4.32113741                9.03495434                5.89083735                0.00010000                2.27017450               -0.02623675               -2.02850575                0.32295184                8.18421423                0.21285139
               5.33925219                9.03847782                5.86648777                0.00010000                1.60400616                0.50781722               -2.68106707                0.24831600                7.85996937               -0.25957282
               6.35321754                9.04068995                5.83789905                0.00010000                1.37207051                0.81906464               -3.29895410                0.21046015                7.15002543               -0.63384824
               7.36669360                9.04245823                5.80063172                0.01634980                1.38847183                1.03734136               -3.93111366                0.21807103                5.99823884               -0.98765086
               8.38098697                9.04303944                5.74992027                0.37708829                1.51843061                1.24675071               -4.66700785                0.15580514                4.36375094               -1.29883319
               9.39706221                9.04181830                5.68115685                0.94652231                1.72341512                1.51915013               -5.52802503                0.05454842                2.29831564               -1.53521570
              10.41545528                9.03923863                5.59086221                0.95747860                1.83930629                1.91163193               -6.52972719                0.02558268                1.12813820               -1.75206891
               0.30982891               10.04490365                6.09058947                1.00000000               -0.21287089               -0.35015705                2.22545036                0.39879798                2.71175316                2.94182664
               1.30770020               10.04346526                6.00661554                0.88453769                0.36000053               -0.40281465                0.63331978                0.97961148                4.28726243                1.99272640
               2.31702892               10.04622880                5.95637217                0.56747742                0.81824735                0.56236253                0.05748932                2.10305102                5.85371311               -1.37009283
               3.32406514               10.03643783                5.90795627                0.35544336                0.41817044               -0.09964769               -1.59438205                2.56630819                6.85227711                0.37702564
               4.32539233               10.03712208                5.88475087                0.35179559                0.65603785                0.21677417               -2.01291397                0.79161099                8.28064955                0.16581907
               5.33718590               10.04376023                5.86040864                0.37457159                1.29944898                0.52824068               -2.81568789                0.39345576                8.06286685               -0.15997368
               6.35138130               10.04912377                5.83215562                0.42077205                1.41891422                0.84338240               -3.38459411                0.29310805                7.31924092               -0.36392229
               7.36556419               10.05329485                5.79459520                0.50748992                1.46611600                1.08366164               -4.00881909                0.24730351                6.09283903               -0.54634748
               8.38070362               10.05632868                5.74333681                0.69323410                1.59222829                1.32892377               -4.75291602                0.20603990                4.43739922               -0.69656319
               9.39740875               10.05798235                5.67417655                1.00000000                1.77160818                1.61640472               -5.62704689                0.16792074                2.37964914               -0.81285553
              10.41613579               10.05899401                5.58341699                0.98551523                1.87270372                1.97553836               -6.62896915                0.16921807                1.22018273               -0.96407958
               0.29949750                0.10692827                7.20869441                1.00000000               -0.66627242               -0.79979859                2.77701272               -0.22510565               -0.28648792                0.41016140
               1.29283477                0.07794691                7.11680181                1.00000000               -0.49917573               -0.44799809                1.64276134               -0.19045841               -0.33508720                0.07751599
               2.28951398                0.04815047                7.02332730                0.95562052               -0.16129075               -0.12236936                0.52987049               -0.19383599               -0.33635554               -0.07187488
               3.28960896                0.01741392                6.93147414                0.56288144                2.82664599                0.19841033               -0.61830152                2.10714037               -0.74164225               -0.34529158
               4.34604690                0.03146243                6.83071143                0.57992994                6.30081218               -3.96575162               -2.91176781               11.19517076                1.47371992               -5.95147570
               5.41562520               -0.03385597                6.78242557                0.62779005                4.18063799                0.01670831               -1.61687922                2.42663959                4.56727167               -1.93645740
               6.42965966               -0.05611336                6.78364624                0.64797067               -0.54127847               -0.08138387               -0.53503869                2.93679015               11.73765909               -3.69314122
               7.40479963               -0.08301855                6.88234503                0.79051812               -4.61189466                0.26767094                0.81696822               12.57006040               21.05807591              -13.46851882
               8.33742177                0.03784986                7.03421780                1.00000000               -3.31050963               -0.06495065                0.21963244                7.39756628               12.36780575                0.38213795
               9.33858944                0.00673140                6.93282634                1.00000000                0.29650746                0.31375643               -0.99619805               -0.18822061               -0.28412677                0.00728052
              10.34335192               -0.02468227                6.83129225                1.00000000                0.47624787                0.69254325               -2.21164183               -0.17550770               -0.29907345               -0.32160776
               0.32622780                1.09893028                7.18959404                1.00000000               -0.59087130               -0.75987314                2.50825445               -0.03491047                0.00997895                0.62886679
               1.32031909                1.07346693                7.09736573                1.00000000               -0.41928402               -0.40637928                1.37070944               -0.01301588                0.03747247                0.13612307
               2.31784212                1.04692678                7.00520924                0.64256871               -0.06473495               -0.08846809                0.21631558               -0.04492454                0.05208523               -0.18301950
               3.31902439                1.01939802                6.91362662                0.00010000                8.28957193                0.20324190               -0.91243564                0.00444470               -2.96355398               -0.65105675
               4.48363356                0.99180491                6.76177550                0.07523790                8.23275516               -1.98525316                0.02767621                5.50226707               -6.68803724               -2.67760104
               5.48367949                0.96631111                6.74273966                0.12613987               -0.00123520                0.02699393               -0.06541203                2.21401412                0.07327456               -1.39729281
               6.48360885                0.94307280                6.72700770                0.08313685               -0.00804309               -0.03746571                0.03336326                1.54794191                0.07488231               -2.07479476
               7.48351863                0.91965816                6.71097953                0.29868545               -5.85431972                0.13440259                0.00594524                9.81963704               16.76847212               -7.80240355
               8.36652246                1.03720035                7.02935888                1.00000000               -5.77726645               -0.05217986                0.12965919                7.23128483               21.02747420                0.38693793
               9.36797330                1.00986896                6.92761023                1.00000000                0.32440265                0.32775470               -1.08588495                0.00051136                0.05509468                0.08615271
              10.37301051                0.98224316                6.82617236                1.00000000                0.50372123                0.70665707               -2.30155242                0.01347127                0.06280474               -0.39379584
               0.34972600                2.09173080                7.17395007                1.00000000               -0.51480372               -0.69561890                2.23160509               -0.00629156                0.08657676                0.85335045
               1.34457796                2.06981932                7.07877934                1.00000000               -0.35207975               -0.33602969                1.13094073                0.02340589                0.18491903                0.18190927
               2.34268440                2.04638111                6.98491790                0.28268781                0.01208840               -0.02229414               -0.05976006               -0.04500410                0.15151687               -0.50152649
               3.34481973                2.02147876                6.88945025                0.00010000                8.32473795                0.17314408               -1.43184736               -0.41691418               -2.30782342               -1.49220966
               4.50917916                1.99175736                6.74819151                0.00010000                8.19089334               -0.65357825                0.03379239               -6.85332792               -6.00093470                4.42632577
               5.50863759                1.96668390                6.72913659                0.00010000               -0.09538527                0.59447592               -0.06472714               -4.36013928                0.22916157                4.33812272
               6.50727145                1.94313733                6.71212645                0.00010000               -0.07863833                0.95633794                0.00522614               -3.76471810               -0.04356839                5.53610411
               7.50706483                1.91966950                6.69573768                0.00010000               -5.77173944                3.02593519               -0.00700998                2.10905429               17.22768404                8.93217167
               8.39183667                2.03680626                7.02396864                0.41037762               -5.67539827               -0.82047359                0.03994489                7.77602785               21.98310255               -5.46518674
               9.39355686                2.01328649                6.92389222                1.00000000                0.35181421                0.34670875               -1.17460963               -0.00469963                0.39964036                0.40431677
              10.39887295                1.98945087                6.82007641                1.00000000                0.53160885                0.73703258               -2.39344273                0.00700522                0.20477674               -0.42091393
               0.36992493                3.08501790                7.15871591                1.00000000               -0.37880332               -0.65220746                1.94807744                0.00041091                0.12771238                0.84912179
               1.36613690                3.06674634                7.06007756                1.00000000               -0.23211629               -0.28247924                0.85941579                0.02056004                0.13429197                0.11859300
               2.36528260                3.04648090                6.96069783                0.11471881               -0.04135208                0.05728059               -0.05734985               -0.11831053               -0.17849607               -0.60837924
               3.36530986                3.02286090                6.85512279                0.00010000                1.80396240                0.18285844               -0.19597751               -1.24167701                3.24049964               -0.99236125
               4.40136185                2.97873334                6.82122829                0.00010000                3.98934429                0.23861049               -2.70243912               -7.28884851                7.38919407                6.12236471
               5.44509674                2.97820063                6.80387777                0.00010000                2.69835222                1.13647513               -2.53832896               -5.13014489                8.06627804                6.12517910
               6.45532890                2.96219956                6.80761767                0.00010000               -0.65329795                2.42942246               -2.38522087               -3.70647351               11.37248588                7.07615907
               7.43203078                2.98017686                6.85919187                0.00010000               -1.34514347                4.07911644               -1.99835928               -0.73525487               14.10217371                7.71416284
               8.42842603                3.02079088                6.90144740                0.27752220               -0.83980407               -1.11678033               -0.91010632                3.92028883               12.67177163               -6.60604662
               9.41523470                3.01680314                6.92499240                1.00000000               -0.38020826                0.36208825               -1.25441550                0.77683152                6.67123456                0.56943102
              10.42082186                2.99698381                6.81489807                1.00000000                0.55871615                0.76547328               -2.48123559                0.01113299               -0.01763266               -0.37621586
               0.38627735                4.07868666                7.14265351                1.00000000               -0.27511864               -0.61363794                1.66511763               -0.04737825                0.16493177                0.71300418
               1.38352616                4.06416974                7.04043022                1.00000000               -0.10368652               -0.19291528                0.58215932               -0.06998063                0.22494653               -0.02531174
               2.38420362                4.04752672                6.93896757                0.03581888                0.21037879                0.16837034               -0.34053725               -0.38162610                0.30500189               -0.52115186
               3.38773374                4.02513593                6.83839373                0.00010000                1.19294227                0.45054051               -0.75978647               -0.26430474                5.70788104                0.28771629
               4.40806247                3.99652957                6.84606862                0.00010000                1.74173690                1.74882722               -2.27170472               -0.59279155               10.81748222                2.85611293
               5.42256848                3.98941341                6.84855688                0.00010000                1.15516421                1.37123807               -2.33247894               -0.98100089               10.91882294                2.95062718
               6.43116575                3.99172578                6.85724222                0.00010000                0.55999664                2.13363694               -2.16477326               -0.34200362               11.65840320                2.06871491
               7.43376841                4.00125183                6.87554216                0.00010000                0.12252091                1.43332958               -1.76897924                1.63900580               12.44352223               -0.58286725
               8.43361617                4.01447065                6.90054125                0.28236817               -0.04339254               -0.33584551               -1.44207779                1.87370494               13.24362408               -1.88101399
               9.43290056                4.02052825                6.92456105                1.00000000                0.25590457                0.38225264               -1.32971860                1.07709901                6.90972637                0.43115453
              10.43873426                4.00476033                6.81017094                1.00000000                0.58336995                0.79011151               -2.56551849                0.01157296               -0.01597002               -0.35118600
               0.39801120                5.07274514                7.12447356                1.00000000               -0.21139821               -0.55949811                1.39725968               -0.10896472                0.25885994                0.52691023
               1.39589722                5.06288803                7.01908945                0.90272437               -0.06636511               -0.02375595                0.32204487               -0.22118291                0.46433240               -0.36107310
               2.39668390                5.04984830                6.91752950                0.00319403                0.75618489                0.30094013               -0.79702144               -0.28823756                1.34942608                1.48583113
               3.41102091                5.03187171                6.83060510                0.00010000                1.42723225                0.93834898               -5.17854354               -0.15529545                7.62494850                3.84228467
               4.42522854                5.01370989                6.86265758                0.00010000                0.96298029                1.59195464               -2.11757511               -0.15570447               12.17817728                2.00828724
               5.43028052                5.00562539                6.86178590                0.00010000                0.57109311                1.50488837               -2.29499793                0.39225910               10.74428703                0.81153813
               6.43665040                5.00487230                6.86206328                0.00010000                0.58927507                1.20661515               -2.25710192                0.90577519               10.91992589               -0.57735659
               7.44206602                5.00884345                6.86417659                0.00010000                0.49866488                0.73279769               -2.17817976                1.42655862               11.29184648               -2.29224033
               8.44662370                5.01407397                6.87021827                0.29550375                0.22104904                0.17542687               -2.05357459                2.09892901               14.08425171               -4.17053617
               9.44648700                5.02444819                6.92280760                1.00000000                0.29827322               -0.16002050               -1.40990868                1.81955283                8.67276594               -6.91345590
              10.45258917                5.01278604                6.80594657                1.00000000                0.61021636               -0.08288639               -2.65066692                1.25535941                0.19703285               -5.75072660
               0.40381229                6.06749669                7.10458666                1.00000000               -0.18129411               -0.43729095                1.13468960               -0.05227806                0.00579860                0.38055429
               1.40199935                6.06369462                6.99268760                0.76112195                0.28214484                0.08333026                0.03489508               -0.30375724                2.81174341               -0.49733864
               2.40945518                6.05354553                6.93680687                0.00051044                0.93834509                0.18822874               -1.19710883               -0.16127828                6.38821509                2.94455181
               3.42076625                6.04390291                6.89815225                0.00010000                1.08697588                0.74144921               -1.72022045               -0.56971723                7.90731446                4.98988530
               4.43119470                6.02836866                6.87291077                0.00010000                0.92425004                1.20905694               -2.34867161               -0.67441643                9.29339776                1.47264870
               5.43925125                6.01951117                6.86308886                0.00010000                0.74342440                1.22199193               -2.31533087                0.12275979               10.03351318               -0.00898059
               6.44606319                6.01585808                6.85146781                0.00010000                0.69233326                1.04027129               -2.48730570                0.70769528                9.83383752               -1.39365983
               7.45309791                6.01590778                6.83768096                0.00010000                0.69634119                0.76430698               -2.64014952                1.18562629                9.58497979               -3.00927032
               8.45999001                6.01797919                6.82104468                0.31223412                0.87408156                0.45539989               -2.79587621                1.45854004                8.03955090               -5.30143983
               9.47057955                6.01732784                6.77528428                0.94748275                1.35878651               -0.27138625               -3.24938697                1.33506679                4.89016720              -10.83758450
              10.48716574                6.00310261                6.69364921                1.00000000                1.65861985               -0.23694324               -4.08122503                1.18249186                3.18793206               -9.51071842
               0.40456978                7.06399933                7.08383018                1.00000000               -0.07965456               -0.28617132                0.81326502               -0.05914709                0.00568831                0.30363981
               1.40377324                7.06455463                6.96817610                0.68334305                0.43401307                0.11764925               -0.27064676               -0.53417038                4.57541311               -0.34274760
               2.41325004                7.05361288                6.94378898                0.01986353                1.05150970                0.04535183               -0.95925934               -0.53124752                8.61843644                2.81296270
               3.42480343                7.04670070                6.91117929                0.00010000                1.14409494                0.30614601               -1.56899889               -0.25408378                8.21718554                1.86979994
               4.43613194                7.03789103                6.88121338                0.00010000                1.02214346                0.72903424               -1.90621891               -0.51243562                8.86483308                0.75914651
               5.44524630                7.03006523                6.85751393                0.00010000                0.91378786                0.90953635               -2.38547061               -0.11389043                9.14971570               -0.38218185
               6.45440770                7.02567773                6.83510506                0.00010000                0.92055667                0.93230113               -2.74173121                0.43335953                8.80998868               -1.52538624
               7.46365743                7.02412959                6.80694710                0.00691823                0.99833695                0.86091898               -3.10780484                0.81962807                7.77661968               -2.86972779
               8.47437444                7.02318197                6.76547873                0.33199794                1.22037443                0.68481135               -3.56933296                0.96768358                5.95086140               -4.65439461
               9.48806492                7.01902046                6.70210941                0.89953443                1.51575210                0.53742799               -4.22243744                0.66738402                3.22732900               -5.91749686
              10.50468948                7.00804718                6.60725336                1.00000000                1.66245587                0.89395166               -5.18069258                0.35451682                1.60163146               -6.62997509
               0.40151873                8.06177327                7.06259010                1.00000000                0.01836568                0.38073437                0.45866140                1.04273500                0.20133507                3.46511577
               1.40170238                8.06604761                6.94465973                0.66446104                0.75827208               -0.01992065               -0.55533909                0.08975188                6.77000598                4.40056953
               2.41668417                8.05445256                6.95807815                0.05398373                1.48520201                0.33604658               -2.58891159               -0.50329119               11.13679109                2.69113071
               3.43140643                8.05002583                6.91517771                0.00010000                1.04486453                0.20569487               -1.09946162               -0.33273945                9.03954296                1.09541182
               4.43758146                8.04294935                6.87697231                0.00010000                0.88901585                0.41085976               -1.77171160               -0.46708586                8.89462094                0.16714521
               5.44918674                8.03770190                6.84912267                0.00010000                1.15422775                0.66409486               -2.44452827               -0.08025175                8.82175011               -0.41501459
               6.46066602                8.03450410                6.81859468                0.00010000                1.13997462                0.86083647               -2.96638703                0.27502081                8.09409092               -1.25713164
               7.47198623                8.03312616                6.78010546                0.01199553                1.18933997                0.94964661               -3.48895429                0.51378455                6.86049426               -2.15221041
               8.48445281                8.03167542                6.72746020                0.35349779                1.35378911                0.99197550               -4.09734306                0.52941246                5.01858811               -2.99920436
               9.49906202                8.02807640                6.65429193                0.89848960                1.58749205                1.12074610               -4.86071170                0.31536181                2.64069477               -3.66026882
              10.51620266                8.02098164                6.55611741                0.97155309                1.71406391                1.49935371               -5.83646918                0.18226910                1.31023774               -3.94709641
               0.41687581                9.07161401                7.10407580                1.00000000               -0.39868279                0.31936336                1.66663762                0.49664379                3.21581165                4.79987825
               1.41288898                9.06415622                7.01597473                0.69192909                0.11650966               -0.11659529                0.39908194                0.46317713                5.32014357                5.22250540
               2.41920600                9.06033381                6.96473912                0.08065913                0.83814391                0.34812857               -1.96321803               -0.43372440                7.59263372                1.54709174
               3.42965186                9.05081460                6.90897833                0.00010000                0.99540753                0.07354513               -0.82360477               -0.95022606                8.64795727                0.38544657
               4.43911415                9.04610822                6.87090865                0.00010000                1.12173286                0.27889025               -1.83095057               -0.19268804                8.96452042                0.37029034
               5.45208651                9.04334712                6.84018205                0.00010000                1.26848529                0.58287924               -2.54519717                0.02473479                8.68107794               -0.26314413
               6.46448386                9.04289445                6.80559595                0.00010000                1.23376475                0.84829308               -3.13849837                0.18709417                7.84003095               -0.73000005
               7.47676181                9.04312252                6.76220525                0.01486106                1.27642951                1.03794200               -3.73884316                0.26527420                6.53418019               -1.15282611
               8.49001245                9.04302148                6.70451583                0.37161007                1.41520648                1.21090344               -4.41660789                0.24180576                4.72486857               -1.51145337
               9.50506594                9.04143538                6.62746574                0.94602847                1.62559747                1.43708191               -5.22403153                0.12928933                2.48446252               -1.76593891
              10.52252440                9.03803425                6.52719995                0.95891568                1.74584575                1.79128624               -6.20574279                0.07530452                1.22764512               -1.97122430
               0.42636719               10.06816053                7.11203641                1.00000000               -0.41210578               -0.34534792                2.07875858                0.50465459                2.53142793                2.97085980
               1.42224613               10.06371570                7.01332504                0.87390273               -0.25079401               -0.04405221                0.69463828                0.59844510                4.66394728                1.54434057
               2.42135131               10.06141513                6.95775549                0.55170195                0.21906818                0.10813236               -0.48201964               -0.39641784                6.31603406                0.67242709
               3.42662749               10.05149673                6.89643202                0.35526316                0.99219319                0.06821327               -1.01600484               -0.94683543                7.49004048                0.20177296
               4.44119517               10.04852715                6.86384805                0.35212722                1.31338563                0.24189321               -2.03022322                0.10123990                9.22203318                0.42728873
               5.45289521               10.04935949                6.83273014                0.37503869                1.17186640                0.60123616               -2.66879127                0.22800957                8.96704561               -0.11897849
               6.46463250               10.05146996                6.79867763                0.42116521                1.21347457                0.85755083               -3.26547393                0.24114003                8.07614727               -0.39974757
               7.47716470               10.05388500                6.75506462                0.50842565                1.31717854                1.07624775               -3.86843097                0.26146496                6.65403763               -0.61562994
               8.49097607               10.05589349                6.69673011                0.69268535                1.47351667                1.28720102               -4.55748343                0.24301434                4.79581645               -0.78902548
               9.50663503               10.05681804                6.61917794                1.00000000                1.67674736                1.53826578               -5.37515559                0.20260299                2.55747368               -0.91398274
              10.52451102               10.05680736                6.51844624                0.98646409                1.78759867                1.87731136               -6.35702893                0.19759413                1.30823396               -1.06272020
               0.39439691                0.13142862                8.23564447                1.00000000               -0.63301838               -0.75434821                2.60477604               -0.19092402               -0.25929389                0.39250873
               1.38806673                0.09962846                8.13292178                1.00000000               -0.48468450               -0.43114033                1.57938585               -0.14472262               -0.29898272                0.09148568
               2.38470322                0.06724654                8.02874231                0.97094628               -0.18909664               -0.10651500                0.54449636               -0.17517710               -0.30553475               -0.08238994
               3.38428479                0.03352802                7.92596206                0.57728383                1.94547135                0.26662663               -0.46720123                1.24419879               -0.50133788               -0.35813037
               4.42361265                0.02713451                7.81811041                0.60718830                4.03056470               -2.03145328               -0.27608585                5.18279821                1.70710268               -5.70699135
               5.46489609               -0.02056617                7.77979619                0.66035261                2.71870482               -0.11013247                1.03699364                0.18256402                5.43259423               -1.54386902
               6.47798674               -0.04400598                7.79035337                0.67133405                0.78041123                0.24059172                2.14766582                0.70071493               12.60618854               -3.60202316
               7.48050431               -0.05082600                7.89489548                0.80405289               -1.80362848               -1.41448835                2.55581183                6.50398349               21.38959163              -13.05699583
               8.44191417                0.04698700                8.03589478                1.00000000               -1.86208598               -0.03406255                0.11705622                6.42805625               12.40620381                0.38441702
               9.44326259                0.01245744                7.92278550                1.00000000                0.30146734                0.31761325               -1.01100733               -0.17503246               -0.28840451                0.00617795
              10.44794352               -0.02236417                7.80953716                1.00000000                0.46809280                0.66911549               -2.13877934               -0.16168605               -0.30369814               -0.32680889
               0.42428783                1.12388514                8.21394867                1.00000000               -0.55772862               -0.72306739                2.35842412               -0.01286269                0.01391055                0.60358544
               1.41871054                1.09531706                8.11092927                1.00000000               -0.41430779               -0.40046159                1.33643690                0.04012353                0.03587295                0.15946425
               2.41600167                1.06618139                8.00766060                0.67059580               -0.09638711               -0.06474007                0.30490453                0.04110007                0.01159352               -0.14901992
               3.41678280                1.03619429                7.90462079                0.01762344                4.32430260                0.33544631               -0.88303911                0.10034770               -2.05710467               -0.57578447
               4.50248772                1.00681997                7.76221628                0.11118077                4.27545877               -1.02213529                0.04025654                2.44604483               -6.26867055               -1.99311639
               5.50229197                0.97833251                7.74197446                0.16803451               -0.11819569               -0.04551334               -0.06057652                0.88578867                0.17426549               -1.35514340
               6.50012381                0.95839993                7.72747082                0.11357944               -0.11221587                0.11679636                0.02977020                0.10537616                0.10606306               -2.37697638
               7.50004766                0.93502912                7.71105645                0.31567616               -1.27853971               -0.70714044                0.00984601                6.55916690               16.78939445               -8.41301158
               8.47455301                1.04664637                8.03014112                1.00000000               -1.19299018               -0.02129447                0.02711048                7.11813674               21.64797462                0.38873157
               9.47618785                1.01563358                7.91667634                1.00000000                0.32976309                0.33113592               -1.10100418                0.00034633                0.05440637                0.08532057
              10.48114828                0.98432698                7.80352345                1.00000000                0.49604241                0.68292780               -2.22875512                0.01373613                0.06222785               -0.39991421
               0.45127581                2.11696727                8.19556197                1.00000000               -0.47028668               -0.67198959                2.09799605                0.00468115                0.09148004                0.81562508
               1.44657294                2.09161923                8.09001009                1.00000000               -0.33139084               -0.34383264                1.10871470                0.08615001                0.15865298                0.18412479
               2.44464799                2.06595174                7.98505589                0.29983930               -0.04598909               -0.02193322                0.10702114                0.16586486                0.15619903               -0.29394549
               3.44565316                2.04023695                7.87948361                0.00010000                4.28736633                0.32922918               -0.93165708               -0.23827375               -1.25838360               -0.79025268
               4.53039532                2.00669180                7.74855580                0.00010000                4.26893696               -0.20450159               -0.05372825               -3.38994253               -5.33095998                3.70542200
               5.53103190                1.97852357                7.72804809                0.00010000               -0.34988320                0.55189757               -0.03937971               -1.39570506                0.36689552                3.59502088
               6.52339766                1.95832994                7.71209076                0.00010000               -0.37953457                0.71006763                0.00136602               -0.59000578                0.01521338                4.94049569
               7.52344121                1.93503119                7.69571523                0.00010000               -0.98626041                2.18547694               -0.00217855                5.48128479               17.22956111                8.46789598
               8.50367245                2.04656111                8.02385505                0.40712271               -0.89261517               -1.50588025               -0.06335136                6.67823260               22.56669597               -5.85333887
               9.50558891                2.01908016                7.91207244                1.00000000                0.35794910                0.34930670               -1.19026464               -0.00538197                0.40158161                0.40819434
              10.51083143                1.99129438                7.79651467                1.00000000                0.52425236                0.71321256               -2.32029867                0.00736491                0.20549211               -0.42610894
               0.47507753                3.11044535                8.17753400                1.00000000               -0.36284562               -0.63119746                1.83483256               -0.00627819                0.09410925                0.81965525
               1.47144907                3.08844041                8.06860146                1.00000000               -0.21881387               -0.28196362                0.86024001                0.04912851                0.16591943                0.10921841
               2.47070125                3.06574273                7.96108202                0.12459913               -0.00859069                0.00324624                0.05192634                0.10443667                0.17047728               -0.43086498
               3.47127726                3.04277887                7.85311337                0.00010000                1.28504995                0.13865742               -0.31298359               -0.66703089                3.18664638               -0.52194449
               4.49640225                3.00272994                7.80578255                0.00010000                2.57312353                0.18141305               -0.95129688               -3.46434900                7.14048909                6.30651106
               5.52273973                2.98937046                7.78970203                0.00010000                1.77069078                0.82313796               -0.76863463               -1.56456492                8.35600268                6.02225505
               6.53181607                2.97260129                7.79563618                0.00010000               -0.06487722                1.52477223               -0.48185812                0.21132125               11.83499504                7.16803497
               7.52144219                2.97873866                7.84956026                0.00010000               -0.38736856                2.95712400               -0.50856453                3.11856526               14.90617722                7.73552256
               8.52406870                3.01652877                7.89264256                0.26980001                0.49523750               -1.76426216               -0.91915267                4.38124061               13.42325891               -7.13733998
               9.53134694                3.02261971                7.91235293                1.00000000                0.63992182                0.36580089               -1.27396708                1.49131306                7.06907232                0.58015932
              10.53686713                2.99859123                7.79044967                1.00000000                0.55201960                0.74247727               -2.40994751                0.01218580               -0.01831701               -0.37865117
               0.49516013                4.10434332                8.15871845                1.00000000               -0.29019893               -0.58976991                1.57564766               -0.03965509                0.11028698                0.71707555
               1.49225814                4.08597996                8.04628962                1.00000000               -0.13809300               -0.18419602                0.60767583               -0.04428766                0.19399670                0.00756012
               2.49239827                4.06601666                7.93619160                0.04236070                0.15335962                0.10206080               -0.30321522               -0.21329205                0.42812713               -0.53004202
               3.49532533                4.04301010                7.83073082                0.00010000                1.10592432               -0.17353709               -0.50466545               -0.54119881                5.35781513               -1.15937289
               4.51451675                4.01032006                7.82558285                0.00010000                1.72719663                1.05063659               -1.82757614               -0.55163753               10.97947502                3.40195841
               5.52986926                3.99498633                7.82731113                0.00010000                1.18695671                0.98265684               -1.73881844               -0.07105536               11.75205759                3.39963785
               6.53825589                3.98882539                7.83736192                0.00010000                0.60078867                1.55368263               -1.72189161                0.86892652               12.67939999                2.32076543
               7.54188503                3.99417367                7.85743915                0.00010000                0.45801605                1.34673392               -1.72630172                2.87406372               13.72899208               -0.59192497
               8.54741621                4.01127586                7.88566200                0.27487970                0.57338333               -0.20894298               -1.53727503                3.60743827               14.64186486               -2.22726867
               9.55335270                4.02639618                7.91112032                1.00000000                0.58579468                0.38950086               -1.35706266                1.75433782                7.57503528                0.44198642
              10.55913210                4.00614393                7.78485418                1.00000000                0.57793996                0.76841699               -2.49851043                0.01275070               -0.01681789               -0.35269590
               0.51101116                5.09864995                8.13795705                1.00000000               -0.21211750               -0.55521524                1.32096316               -0.09503861                0.21606832                0.57175578
               1.50888998                5.08475649                8.02245534                0.88839377               -0.08029398               -0.01636892                0.34895609               -0.19183479                0.37849959               -0.32290580
               2.50940528                5.06778394                7.91039208                0.00723325                0.36299522                0.26332583               -0.63917850               -0.58820915                0.13860004                1.43677923
               3.51614989                5.03930813                7.79031000                0.00010000                1.19939971                0.51911154               -2.97615134               -0.13523915                7.80189203                4.21580514
               4.53339327                5.02374267                7.84098161                0.00010000                1.33317067                1.23561277               -2.04803548                0.08317424               13.84647775                2.37705481
               5.54281330                5.00902360                7.84006718                0.00010000                0.83069905                1.39372935               -2.05989754                0.27625704               11.68211466                1.26107061
               6.55000725                5.00367494                7.83991312                0.00010000                0.68298423                1.37258531               -2.11155125                1.05477090               11.97023458               -0.36049037
               7.55647298                5.00567334                7.84251568                0.00010000                0.69938509                1.03463074               -2.12421890                1.83480181               12.47248898               -2.37166756
               8.56399495                5.01234991                7.84942967                0.28839488                0.75463221                0.31268171               -2.08091482                2.73323499               15.61439063               -4.61632534
               9.57156563                5.03040973                7.90852279                1.00000000                0.68158477               -0.34188804               -1.44370297                1.86170823                9.59678364               -7.73909049
              10.57762665                5.01395957                7.77974924                1.00000000                0.60610210                0.08374009               -2.58813161                0.72665369                0.19887018               -6.39216825
               0.52104628                6.09323902                8.11549800                1.00000000               -0.17588282               -0.46677241                1.09913643               -0.03296151                0.00129285                0.40292601
               1.51928745                6.08565258                7.99331468                0.74822548                0.25180827                0.10870913                0.05892514               -0.30149695                2.73967669               -0.49162668
               2.52608244                6.07128318                7.92583588                0.00247312                0.86871828                0.28904245               -1.02144139               -0.37786339                6.43503188                3.09971083
               3.53666181                6.05339233                7.87942812                0.00010000                1.01911637                0.97713713               -1.79200001               -0.31321703                8.31264622                6.55279517
               4.54646477                6.03503232                7.85045595                0.00010000                0.94001628                1.06396388               -2.13775304               -0.36749264               10.12164784                1.95315490
               5.55546214                6.02286091                7.84022527                0.00010000                0.81183989                1.24668410               -2.22243102                0.18836536               10.96052968                0.23552663
               6.56270157                6.01627709                7.82700997                0.00010000                0.72219815                1.18403490               -2.37656805                0.77821429               10.75903668               -1.35907349
               7.56990610                6.01486629                7.81159458                0.00010000                0.73214739                0.94225311               -2.54872010                1.33621486               10.54658165               -3.25144215
               8.57734451                6.01752950                7.79348281                0.30517329                0.95355485                0.56295759               -2.70403978                1.63204224                8.88995314               -5.87695140
               9.58897720                6.01955842                7.74348724                0.95052285                1.46104846               -0.49223255               -3.10782275                1.18995297                5.41867195              -12.08721946
              10.60656548                6.00781873                7.65378285                1.00000000                1.75882843               -0.15340810               -3.88932116                1.00503533                3.52489086              -10.61718991
               0.52552480                7.08931450                8.09121986                1.00000000               -0.07089197               -0.28284487                0.70938960                0.03741168                0.06370209                0.21174587
               1.52481588                7.08693067                7.96610425                0.67090975                0.42917317                0.11441901               -0.18716820               -0.41328795                4.66934483               -0.27269373
               2.53410826                7.07356479                7.93328182                0.01807318                1.06602632                0.07005018               -0.95438854               -0.62954140                9.01183326                2.88242518
               3.54613641                7.05885087                7.89595754                0.00010000                1.12332835                0.41227984               -1.52891836               -0.60478925                8.97824191                2.46138476
               4.55657483                7.04502195                7.86180975                0.00010000                0.95997117                0.81310687               -1.92515852               -0.37170501                9.45639663                1.40892386
               5.56533583                7.03395728                7.83434327                0.00010000                0.84956661                0.98872805               -2.26532663               -0.01803176                9.84287065               -0.19282901
               6.57356616                7.02735564                7.80832365                0.00010000                0.83045224                1.04159361               -2.59981972                0.49555475                9.55385520               -1.57465246
               7.58194488                7.02451840                7.77660944                0.00282438                0.91887513                0.96896891               -2.94864885                0.91219683                8.48521672               -3.13363792
               8.59194367                7.02360906                7.73071055                0.32497883                1.15652896                0.74214884               -3.38092532                1.09175227                6.52296474               -5.17196709
               9.60507545                7.02056508                7.66106756                0.90042341                1.46315334                0.47396078               -3.98821161                0.74894104                3.55338890               -6.60278978
              10.62120673                7.01089141                7.55684592                1.00000000                1.61312780                0.70270650               -4.89761324                0.35528937                1.77403658               -7.37289041
               0.52656217                8.08758212                8.06600850                1.00000000                0.02092285                0.28209921                0.18435011                1.00568962                0.12603538                4.15112164
               1.52677140                8.08794096                7.94024078                0.65044216                0.75046210               -0.18262360               -0.30239301                0.22961971                6.51563581                4.95828926
               2.54157141                8.07268418                7.94218232                0.04505176                1.31687344               -0.08475604               -1.02627526               -0.45387665               10.79018855                2.55760428
               3.55310887                8.06163792                7.90121179                0.00010000                1.11764245                0.25190303               -1.42272704               -0.34439083                8.70630922                1.45020700
               4.56392426                8.05129446                7.86088604                0.00010000                0.98294763                0.52312227               -1.69077305               -0.31765905                9.20586387                0.57216199
               5.57276782                8.04263547                7.82549495                0.00010000                0.90636413                0.78250926               -2.28866341               -0.06674359                9.29123432               -0.33098827
               6.58205154                8.03710897                7.78979657                0.00010000                0.95643980                0.93256835               -2.78917837                0.30194904                8.70265726               -1.31096099
               7.59189662                8.03424567                7.74620869                0.00913034                1.05406682                0.99620770               -3.28542065                0.58879780                7.41843805               -2.35092584
               8.60313288                8.03237248                7.68769389                0.34700297                1.23885254                0.99657006               -3.85726407                0.65360807                5.44690891               -3.32304895
               9.61667367                8.02903764                7.60712556                0.89825489                1.49428606                1.05242146               -4.57701054                0.42461383                2.87775777               -4.06496836
              10.63301860                8.02187286                7.49936325                0.97438259                1.63449345                1.32969489               -5.51027844                0.25017408                1.43731624               -4.35235320
               0.54492091                9.09495649                8.12078997                1.00000000               -0.06146999                0.04087587                1.96638897                0.39807305                3.21015080                5.42198016
               1.54430621                9.08327820                8.01692841                0.67542366                0.32064284               -0.41447594                0.47434791                0.27009237                5.03718177                5.68978860
               2.55133377                9.07186967                7.94826589                0.06292060                0.81660533                0.04802089               -1.18494962               -0.03590284                7.63180923                1.62954650
               3.56063832                9.06388893                7.89838645                0.00010000                0.89451648                0.19639927               -1.14633331               -0.08603747                8.72258114                0.65570898
               4.56922410                9.05548440                7.85421834                0.00010000                0.87740646                0.42472918               -1.68836819               -0.23354328                9.23768486                0.19322903
               5.57818645                9.04960746                7.81558383                0.00010000                0.93854267                0.68244982               -2.37153136               -0.02739876                9.16116227               -0.23252549
               6.58799495                9.04600700                7.77512908                0.00010000                1.01354367                0.89282474               -2.95013334                0.16766563                8.39880303               -0.75932730
               7.59845732                9.04444255                7.72585486                0.01461573                1.11144524                1.05089224               -3.52547567                0.31146471                7.02561514               -1.24908725
               8.61022386                9.04354046                7.66158811                0.36779940                1.28050119                1.18735615               -4.16810888                0.32723536                5.09132087               -1.66290317
               9.62406735                9.04161351                7.57667622                0.94465280                1.51579527                1.36203225               -4.93499134                0.20566401                2.68446873               -1.94695337
              10.64053976                9.03748531                7.46674735                0.96045534                1.64724171                1.66870806               -5.87580002                0.12444404                1.33247077               -2.14818366
               0.55788020               10.08839964                8.13216465                1.00000000               -0.26201435               -0.65568457                1.74350298                0.42110952                2.61152341                3.12843920
               1.55526006               10.07965144                8.02050830                0.86595532                0.11812086               -0.36267552                0.41840767                0.35763289                4.62497527                2.03326541
               2.56024262               10.07364460                7.94673178                0.54110446                0.62566651                0.17749316               -1.01274008                0.18660844                7.41667305                1.17611357
               3.56777339               10.06556591                7.88763617                0.35563708                0.66461209                0.16769765               -1.05884465                0.02072899                8.96887909                0.34074028
               4.57353486               10.05978904                7.84414641                0.35248157                0.69619242                0.43046416               -1.86064366               -0.03299553                9.65826739                0.12942015
               5.58169724               10.05628447                7.80703281                0.37536588                0.85174530                0.66770061               -2.49578240                0.10990012                9.53536984               -0.10653393
               6.59056977               10.05496546                7.76684615                0.42152758                0.94476070                0.89584576               -3.09159477                0.20643364                8.63929001               -0.40796413
               7.60059245               10.05526351                7.71722658                0.50952942                1.09684315                1.08209589               -3.68487372                0.27122001                7.14751822               -0.65840903
               8.61250663               10.05611960                7.65218714                0.69271081                1.31248221                1.25791386               -4.34208431                0.27901599                5.15602246               -0.85752567
               9.62684210               10.05627828                7.56667344                1.00000000                1.56286215                1.46647743               -5.11961596                0.23384633                2.75012408               -0.99741326
              10.64376387               10.05524702                7.45627641                0.98711796                1.69217781                1.77617127               -6.06078319                0.21928541                1.40555815               -1.14624480
               0.49975700                0.15817004                9.26078993                1.00000000               -0.59997245               -0.70855512                2.42675029               -0.16205840               -0.24867355                0.37582513
               1.49375727                0.12376165                9.14838953                1.00000000               -0.46969962               -0.41937381                1.51633391               -0.11846237               -0.30087915                0.08875729
               2.49036301                0.08866611                9.03421723                0.98464066               -0.17715833               -0.10333021                0.57024240               -0.13944375               -0.28687122               -0.02254350
               3.49021411                0.05293385                8.92213012                0.58955569                1.79959149                0.14269325               -0.33947096                0.33348911                0.55789823               -0.57981200
               4.52635483                0.02911087                8.82518971                0.62939800                3.09100110               -0.76136795                0.33717244               -2.64602236                5.40850637               -4.87749152
               5.55203413                0.01091011                8.80316544                0.68682127                2.01646560               -1.99537706                1.85147355               -4.58736725               10.43349392               -2.16669147
               6.56668415               -0.00238873                8.82659956                0.69023903                1.75079623               -2.38153849                2.98841352               -4.37312830               16.95240400               -4.17427106
               7.58705005                0.02351958                8.93346127                0.81437431               -0.45141610               -7.29414114                1.46976223               -4.06967024               20.94447775              -15.07302491
               8.55765582                0.05704553                9.03655893                1.00000000               -1.39355379               -0.00308121                0.01617121                3.39830851               11.05089106                0.38672900
               9.55917898                0.01907328                8.91260619                1.00000000                0.30594053                0.32151515               -1.02451427               -0.16181682               -0.29110707                0.00564136
              10.56377464               -0.01919104                8.78851666                1.00000000                0.45956581                0.64584010               -2.06488276               -0.14781161               -0.30666926               -0.33012317
               0.53254481                1.15108449                9.23676252                1.00000000               -0.52201943               -0.68560364                2.20353432               -0.00654028                0.00932425                0.58088511
               1.52732462                1.11956791                9.12409447                1.00000000               -0.40811727               -0.39660101                1.29786570                0.05240690                0.03704106                0.15798655
               2.52438246                1.08763281                9.01130733                0.69664344               -0.19989990               -0.07926626                0.39309787                0.03823627               -0.08420275               -0.11786880
               3.52332662                1.05436078                8.89596583                0.03813684               -0.17379901                0.21236406               -0.63910079               -0.00987912               -1.14577895               -0.61080455
               4.52090648                1.02149719                8.76258063                0.14257606               -0.07081818               -0.34056703                0.00781391               -1.78819025               -0.63758084               -2.29718398
               5.52191025                0.99095633                8.74152813                0.20410901               -0.21291801               -1.00266790                2.05278924               -2.36474407                7.19264826               -0.44703112
               6.51664812                0.97379589                8.72760311                0.13981670               -0.26370156               -1.19146920                3.41461795               -3.35768608                8.51241459               -1.34158109
               7.51663622                0.95057817                8.71117645                0.33076104                3.86069700               -3.64979854                7.15908461                1.80302652               25.56683570               -4.87786608
               8.59386206                1.05701472                9.02990109                1.00000000                3.95214355                0.00962564               -0.07543720                7.04339001               22.17249046                0.39078088
               9.59567909                1.02228843                8.90559014                1.00000000                0.33493863                0.33502552               -1.11620910                0.00012680                0.05451353                0.08527487
              10.60056084                0.98726736                8.78159726                1.00000000                0.48817430                0.65967597               -2.15652082                0.01407783                0.06240116               -0.40376602
               0.56265936                2.14445797                9.21590999                1.00000000               -0.44022640               -0.64149820                1.97049270               -0.00646493                0.09020091                0.79264656
               1.55825709                2.11582962                9.10095363                1.00000000               -0.31622524               -0.34583685                1.08357939                0.06027363                0.17168818                0.19135427
               2.55633485                2.08708078                8.98705832                0.31741333               -0.10524764               -0.04524565                0.22426370                0.05746455                0.12070141               -0.28831267
               3.55615214                2.05718113                8.87081711                0.00010000               -0.11696872                0.34070143               -0.64108066               -0.18828110               -0.37960510               -0.55755212
               4.55399548                2.02229953                8.74711695                0.00010000               -0.18557965                0.31696638               -0.20343961                1.01760489                0.39769585                3.62119550
               5.55244055                1.99085675                8.72834899                0.00010000               -0.70434462                0.42131774                2.13699737                2.59676378                7.04643106                4.50605193
               6.53990859                1.97378189                8.71215377                0.00010000               -0.62743967                0.32466065                3.22657220                3.75946587                8.44709446                6.16522627
               7.53989176                1.95052361                8.69569411                0.00010000                4.34523921                1.12926101                6.01903971                9.99839349               25.97605706               10.78657241
               8.62681337                2.05723804                9.02270161                0.40853982                4.45185573               -2.03887937               -0.16784282                5.77433206               23.05670632               -6.22630417
               9.62892887                2.02577379                8.90008693                1.00000000                0.36424786                0.35350087               -1.20715653               -0.00528070                0.40429386                0.41149917
              10.63409833                1.99400248                8.77367043                1.00000000                0.51694582                0.69019616               -2.24909837                0.00792964                0.20671595               -0.42932556
               0.58967220                3.13825453                9.19541257                1.00000000               -0.37649257               -0.59264229                1.74136017               -0.02626599                0.09761141                0.80900083
               1.58590727                3.11265117                9.07728236                1.00000000               -0.27459756               -0.26812809                0.85955826                0.00746129                0.23262558                0.12101709
               2.58418025                3.08672789                8.96173636                0.13605370               -0.07825111                0.02675165                0.06151825                0.02568779                0.47635735               -0.53775859
               3.58434225                3.06117481                8.84886312                0.00010000                1.17013597                0.37853513               -0.57525958               -0.47723661                3.94582906               -0.37766412
               4.60758297                3.02783652                8.80220235                0.00010000                1.90104590                0.35350753               -0.21761669                0.76420229                8.58542935                5.27638272
               5.62236317                2.99938269                8.78850507                0.00010000                1.22938040                0.80921373               -0.10759365                2.29212994               10.65687278                5.56268189
               6.63217058                2.98028910                8.79798051                0.00010000                0.53923856                1.00411254                0.29326262                4.42489257               13.93140249                6.85231111
               7.63314794                2.97316339                8.84902058                0.00010000                0.09639788                2.29671482               -0.45599439                7.80522203               16.01442276                8.24075046
               8.63409853                3.01623713                8.88306435                0.26426523                1.28305513               -2.20499343               -0.72774666                5.10769871               14.93900526               -6.74716116
               9.65880904                3.02935844                8.89951306                1.00000000                1.50817570                0.37121680               -1.29420090                2.05571864                7.45106776                0.58715486
              10.66426205                3.00107128                8.76669912                1.00000000                0.54530039                0.72021810               -2.34081795                0.01287654               -0.01886930               -0.38046074
               0.61334075                4.13260512                9.17416646                1.00000000               -0.34077984               -0.54269094                1.50718655               -0.03061706                0.11530353                0.71763694
               1.60993295                4.11046706                9.05258373                1.00000000               -0.25078921               -0.16231581                0.63971690                0.00677958                0.19799490               -0.00719498
               2.60832497                4.08761582                8.93290327                0.05109115               -0.22170830                0.11058549               -0.39257426                0.08528817                1.00782162               -0.64439043
               3.60549879                4.06475184                8.82830042                0.00010000                1.13733406                0.31578484               -2.11295876               -0.30595804                6.02682599               -1.85988756
               4.63107165                4.02936968                8.80951710                0.00010000                2.01658885                0.42706850               -1.12080850               -0.64464306               11.48399739                2.89154882
               5.64583056                4.00704102                8.81378051                0.00010000                1.17770432                0.92749862               -1.14493405                0.35612971               12.79424143                2.99897825
               6.65462573                3.99386414                8.82280439                0.00010000                0.71088022                1.38626676               -1.23290491                1.54264537               13.58665519                2.05901971
               7.66004817                3.99645791                8.84101612                0.00010000                0.90732797                1.70456399               -1.41411921                3.40626716               14.88610032               -0.63204798
               8.67277229                4.01313817                8.86979575                0.26836225                1.25804604               -0.11552351               -1.53898917                4.77730391               15.93353098               -2.10682108
               9.68520909                4.03319812                8.89741979                1.00000000                0.90789449                0.39705080               -1.38220326                2.22813634                8.23079727                0.44827607
              10.69093018                4.00840684                8.76020073                1.00000000                0.57210947                0.74713623               -2.43247119                0.01345259               -0.01735494               -0.35431356
               0.63333598                5.12740071                9.15089282                1.00000000               -0.23038063               -0.51563618                1.27170244               -0.05638333                0.21163165                0.61455607
               1.63103217                5.10940485                9.02606857                0.87452952               -0.08673692               -0.01269447                0.36465778               -0.09695277                0.37860916               -0.37736398
               2.63160124                5.08893960                8.90474593                0.01354987                0.27185285                0.25170945               -0.49035610                0.09015328               -0.09173038                1.36126234
               3.63646923                5.06749051                8.77108207                0.00010000                1.03998400                0.22797149               -1.13089929                0.21693003                8.23874897                4.18638537
               4.65240092                5.03637789                8.82169687                0.00010000                1.42610372                0.86169713               -1.86108158               -0.38994932               14.97788668                2.49518336
               5.66499130                5.01793266                8.82058795                0.00010000                1.06028376                1.14522937               -1.77643958                0.38569013               12.62603843                1.35128280
               6.67360659                5.00801444                8.81983226                0.00010000                0.85039741                1.32009686               -1.86118866                1.22854476               12.91021988               -0.20792732
               7.68199925                5.00725467                8.82169221                0.00010000                0.96489022                1.01636331               -1.98172692                2.17103849               13.50702044               -2.22944800
               8.69290440                5.01392666                8.82859997                0.28196108                1.30519257                0.30105548               -2.02375616                3.15844547               17.06290609               -4.73695665
               9.70810310                5.03729946                8.89393354                1.00000000                1.06046326               -0.50797208               -1.47251160                1.77656012               10.45969397               -8.47867557
              10.71411366                5.01601401                8.75418394                1.00000000                0.60105619                0.26276456               -2.52478527                0.17856252                0.20029798               -6.96623646
               0.64820479                6.12229240                9.12656939                1.00000000               -0.17497903               -0.48384786                1.05948476               -0.07096940               -0.08947090                0.41343531
               1.64645500                6.11021317                8.99386611                0.73623884                0.19187928                0.13849013                0.08092119               -0.27881957                2.67259350               -0.55539132
               2.65204238                6.09265001                8.91637804                0.00647071                0.79720514                0.29876708               -0.94842658               -0.44348637                6.51431711                3.20717962
               3.66239910                6.06931126                8.86231225                0.00010000                1.03940660                0.33271091               -1.68378201               -0.33376360                8.79404464                7.23303584
               4.67283051                6.04660362                8.83015571                0.00010000                0.97543566                0.96307653               -1.96385386               -0.24462146               10.97090566                2.36588402
               5.68190782                6.02994561                8.81864024                0.00010000                0.85220547                1.15031527               -2.06322509                0.21304826               11.86059430                0.48626673
               6.68987462                6.02026608                8.80393644                0.00010000                0.78244490                1.16918230               -2.19023013                0.82258057               11.60376284               -1.23217267
               7.69755672                6.01678518                8.78670656                0.00010000                0.80108987                0.97940229               -2.39172201                1.39344123               11.42401615               -3.29898810
               8.70589642                6.01915928                8.76696388                0.29881465                1.05481137                0.58024392               -2.57431663                1.68623568                9.70490215               -6.22511831
               9.71865294                6.02303868                8.71312782                0.94222908                1.55879627               -0.69865583               -2.95671198                0.96985401                5.94752436              -13.14755781
              10.73707234                6.01366213                8.61586279                1.00000000                1.84193987               -0.05025219               -3.69076383                0.78733710                3.84087512              -11.59789715
               0.65607504                7.11772375                9.09801798                1.00000000               -0.09768672               -0.35334048                0.83582727               -0.18640584                0.39080578                0.08786559
               1.65509817                7.11217466                8.96443274                0.65987377                0.37791899                0.20880327               -0.15831043               -0.67112644                5.05487514               -0.28938247
               2.66363342                7.09491495                8.92470121                0.01847603                1.03710835               -0.10147127               -0.71269867               -0.92776866                9.39839028                3.22078796
               3.67584034                7.07414473                8.88060092                0.00010000                1.16203625                0.36448965               -1.56151557               -0.74228701                9.41543064                2.93732496
               4.68687415                7.05563942                8.84271021                0.00010000                0.98747360                0.76901913               -1.88564404               -0.43103476               10.12436449                1.90142872
               5.69558981                7.04093897                8.81220740                0.00010000                0.81722466                0.99479871               -2.13361027               -0.00241284               10.52525575                0.08696772
               6.70321864                7.03139808                8.78310867                0.00010000                0.76925289                1.06066867               -2.42365511                0.50172770               10.23400094               -1.50243671
               7.71097487                7.02684272                8.74797412                0.00010000                0.85784847                1.00385263               -2.76127957                0.95172048                9.13331937               -3.25209345
               8.72037561                7.02553154                8.69786022                0.31876877                1.10112316                0.75888003               -3.17926881                1.15306665                7.06954677               -5.53350264
               9.73299733                7.02332634                8.62234518                0.90198296                1.41189488                0.40648527               -3.75286912                0.78861490                3.87741967               -7.15959726
              10.74861351                7.01500896                8.50930110                1.00000000                1.56161723                0.51855063               -4.60481844                0.33832483                1.94778307               -8.00604149
               0.65557486                8.11522559                9.06627711                1.00000000                0.02664152               -0.19131424                2.96292538                1.55271067                2.53769117                5.35509409
               1.65584128                8.11438924                8.93861187                0.63885015                0.79710353               -0.72450915                3.05448772                0.32267556                8.09076345                5.11986286
               2.67151693                8.09062058                8.93755264                0.03970077                1.54938072               -0.32698329               -0.70064472               -0.55187316               11.22668011                2.87235271
               3.68682889                8.07660106                8.88672317                0.00010000                1.29493207                0.16798340               -1.32077893               -0.31629416                9.17474248                1.93929639
               4.69741557                8.06198400                8.84315684                0.00010000                0.96360020                0.55365069               -1.74936648               -0.34815740                9.66731789                0.94483763
               5.70610090                8.04984158                8.80334940                0.00010000                0.82949232                0.81098933               -2.15691472               -0.08476776                9.76738517               -0.12763344
               6.71400542                8.04147945                8.76281111                0.00010000                0.81783870                0.96301253               -2.60229671                0.29954470                9.21789283               -1.27603408
               7.72245767                8.03686223                8.71439705                0.00738249                0.92343516                1.01400849               -3.07192176                0.63488252                7.91613225               -2.45170344
               8.73247412                8.03433688                8.65031492                0.34160104                1.12450721                0.98693162               -3.61616326                0.74740258                5.84513999               -3.55091835
               9.74494781                8.03116839                8.56275172                0.89807102                1.39997379                0.98110474               -4.29636093                0.51474993                3.10469991               -4.38663151
              10.76047360                8.02403314                8.44591184                0.97820027                1.55257855                1.15742267               -5.17237113                0.30737769                1.55810964               -4.68237273
               0.68880196                9.11389747                9.14340358                1.00000000               -0.26452611               -0.36228102                1.99937268                0.69547489                3.00579870                6.10861945
               1.68615669                9.09768447                9.02546169                0.66241635                0.07910916               -0.85840124                0.61108967                0.94075184                4.56837236                6.05059630
               2.69038414                9.08837528                8.94104013                0.05082878                0.59971697               -0.13074763               -0.39323719                0.54299446                7.45121776                1.88543935
               3.69815103                9.07750440                8.88605166                0.00010000                0.81431669                0.16055195               -1.19041774                0.00493534                9.06173024                0.98225613
               4.70667047                9.06671243                8.83714128                0.00010000                0.81239888                0.46377055               -1.68417622               -0.13986710                9.52461801                0.40269081
               5.71439901                9.05715875                8.79275142                0.00010000                0.77592074                0.72446241               -2.22127364               -0.06260647                9.53753710               -0.16899820
               6.72218889                9.05065833                8.74659328                0.00010000                0.82080385                0.91985548               -2.75783994                0.15916219                8.83585276               -0.74074003
               7.73081509                9.04712289                8.69169574                0.01496485                0.94143077                1.05555682               -3.30483029                0.34641174                7.44452433               -1.29603333
               8.74101750                9.04527017                8.62115365                0.36497276                1.13904913                1.16040151               -3.91691287                0.40005440                5.41887580               -1.76785678
               9.75359607                9.04294844                8.52876591                0.94281111                1.40070210                1.28534717               -4.64364710                0.27438354                2.86705636               -2.08801954
              10.76903155                9.03815742                8.40968395                0.96204607                1.54354738                1.53955994               -5.52621009                0.16802961                1.42745078               -2.28665964
               0.70191034               10.10797997                9.14690647                1.00000000               -0.17318436               -0.59174960                1.31788711                0.23496333                2.40652506                2.61455907
               1.70017850               10.09722121                9.02169319                0.85987879                0.03232780               -0.04632590                0.19948342                0.40346348                4.46228131                1.67927940
               2.70255690               10.08800563                8.93750069                0.53385652                0.42059735               -0.03696518               -0.82098363                0.34682023                7.42829937                1.40449440
               3.70859045               10.07981210                8.87525512                0.35631052                0.62034870                0.23077015               -1.24654445                0.20663068                9.05178067                0.49421393
               4.71496387               10.07125941                8.82663518                0.35283220                0.61562091                0.45469839               -1.76281042                0.05527684                9.93669994                0.19749403
               5.72090287               10.06433083                8.78281449                0.37557490                0.61303278                0.71720778               -2.35317196                0.08124259                9.88483725               -0.10493691
               6.72722453               10.05987656                8.73684573                0.42178438                0.69356013                0.92182272               -2.91034369                0.18569088                9.06430585               -0.40029921
               7.73477407               10.05797337                8.68136715                0.51060536                0.87125663                1.08504765               -3.47971736                0.27931558                7.55171158               -0.68086925
               8.74464966               10.05754491                8.60988843                0.69284857                1.13870848                1.22747433               -4.10915365                0.30831410                5.47052281               -0.90742297
               9.75754824               10.05687533                8.51678563                1.00000000                1.43832872                1.39268905               -4.84789421                0.25918812                2.92223960               -1.06422730
              10.77341624               10.05482434                8.39723058                0.98745429                1.58679989                1.66669257               -5.73106941                0.23337043                1.49066016               -1.21155988
               0.61422425                0.18699995               10.28417947                1.00000000               -0.56023971               -0.66171736                2.25873691               -0.14200589               -0.25440243                0.36954602
               1.60862185                0.14999373               10.16324846                1.00000000               -0.44995181               -0.40810444                1.45789937               -0.09075430               -0.32697200                0.08607469
               2.60522521                0.11261547               10.04014716                0.99620148               -0.20757864               -0.16325460                0.64476454               -0.06456548               -0.34030797                0.00846368
               3.60447028                0.07426034                9.91917264                0.59946895                2.27611200                0.10308627               -0.26570091                0.92173201                0.99248489               -0.55579806
               4.65074745                0.05480283                9.82485386                0.64705559                3.38429208               -1.58537711               -2.23148620               -1.40165027                4.71432010               -5.03282280
               5.67215612                0.05937462                9.81682566                0.70824507                1.79957709               -1.51662858                1.32299778                1.68156791               13.50152602                0.40444953
               6.68673899                0.07050149                9.85012164                0.70575401                0.86391875               -2.44873983                2.11091151                3.04390461               18.22038283               -0.51011575
               7.68943449                0.09228314                9.92429072                0.82263137               -0.14759609               -1.70441842                0.08204842                1.84197793               21.34120817               -3.08793184
               8.68378707                0.06803726               10.03621821                1.00000000               -0.19758865                0.02820467               -0.08475205                0.69616843               11.98936146                0.38822757
               9.68548272                0.02660238                9.90229521                1.00000000                0.31010672                0.32559615               -1.03757179               -0.14833195               -0.29267895                0.00557335
              10.68998920               -0.01512784                9.76823950                1.00000000                0.45064843                0.62257247               -1.99013871               -0.13373559               -0.30834121               -0.33219027
               0.64981041                1.18038278               10.25801935                1.00000000               -0.49038596               -0.64148984                2.05132147               -0.00859417                0.00613945                0.57161811
               1.64490655                1.14591269               10.13688658                1.00000000               -0.36820799               -0.38676500                1.25688523                0.04183359                0.02565182                0.15508752
               2.64244625                1.11098292               10.01552256                0.71985450               -0.11563174               -0.14295058                0.45033447                0.06759294               -0.07600842               -0.09706303
               3.64259392                1.07529121                9.89183878                0.05622881                0.08637793                0.09641392               -0.28170594                0.07491487               -0.46097252               -0.48822643
               4.64417381                1.03894906                9.76237255                0.16969658                1.92642747               -0.76544165               -0.23886102               -0.05064840                6.88689231               -2.31739124
               5.68112246                1.04420833                9.78303024                0.23521290                2.82749851               -1.88534782                2.97892031                2.09163086               15.77309182                1.32646493
               6.70072378                1.04601410                9.79576318                0.16264652                1.39819619               -2.96222142                5.74924333                3.46430268               19.32748916                1.39421406
               7.70908639                1.07523895                9.85423814                0.34462084                1.14326779               -3.96823137               10.12932333                3.26426163               28.18563882                1.27715004
               8.72358913                1.06831931               10.02863238                1.00000000                0.82477805                0.04172496               -0.17848060                1.56230366               15.45521544                0.39251017
               9.72558195                1.02985834                9.89435216                1.00000000                0.33964639                0.33924261               -1.13145625                0.00009105                0.05510184                0.08570343
              10.73038206                0.99109789                9.76039304                1.00000000                0.48001129                0.63669252               -2.08401359                0.01443180                0.06287687               -0.40619358
               0.68299255                2.17417016               10.23497182                1.00000000               -0.41341680               -0.60069416                1.84007635               -0.01718409                0.09940778                0.79328900
               1.67885838                2.14225843               10.11168167                1.00000000               -0.28969990               -0.33410183                1.05150179                0.02287689                0.18353820                0.18948447
               2.67719855                2.10975645                9.98954116                0.33484388               -0.04279723               -0.09201564                0.27614190                0.00657877                0.21886241               -0.27637297
               3.67800244                2.07618862                9.86666200                0.00010000                0.18094009                0.12255352               -0.36074581               -0.15642606                0.25264739               -0.48816289
               4.68081735                2.03949400                9.74448701                0.00010000                1.44606306                0.34541920               -0.47351105                1.48870590                7.93850726                3.73088045
               5.70692370                2.02166766                9.77078804                0.00010000                2.20885363               -1.45078786                3.10303672                1.53698153               15.88653062                3.15080366
               6.72499443                2.01125707                9.77662220                0.00010000                1.27454076               -2.35086033                5.45522674                2.02278380               18.22900832                4.03351762
               7.73241451                2.01291851                9.81609602                0.00010000                1.77096663               -3.85036483                9.14479149                5.25875531               28.98955875                4.56483345
               8.76041376                2.06887176               10.02049819                0.41299765                1.51457239               -1.69139508               -0.27270136                3.46179551               17.42948593               -6.31576711
               9.76270596                2.03338723                9.88792931                1.00000000                0.36924919                0.35858023               -1.22455268               -0.00570862                0.40720189                0.41437557
              10.76779874                1.99760601                9.75153271                1.00000000                0.50927810                0.66769168               -2.17838944                0.00865657                0.20801789               -0.43149664
               0.71329018                3.16836890               10.21236121                1.00000000               -0.35123883               -0.54771744                1.63338111               -0.03186961                0.11150164                0.81590845
               1.70977779                3.13923065               10.08579263                1.00000000               -0.23212713               -0.26042939                0.83241637               -0.03017221                0.29127493                0.12764143
               2.70864764                3.10914261                9.96231238                0.14842087               -0.00249687                0.01814152                0.06691198               -0.09244574                0.61379738               -0.69420772
               3.70972785                3.07774228                9.84160817                0.00010000                0.99106237                0.37023862               -0.66462630               -0.10197938                4.81210365               -2.01642662
               4.72846888                3.04585744                9.80143022                0.00010000                1.51855863                0.45812618               -0.12167308                0.76747773                9.95308855                4.88657960
               5.74009903                3.01519258                9.78755016                0.00010000                1.07298619                0.06076771                0.23085370                0.93412753               12.62446042                3.80242464
               6.74992861                2.99899689                9.80150143                0.00010000                0.82738868               -0.15515149                0.80582109                2.03990183               15.54129312                4.39918155
               7.75664680                2.99823166                9.84044037                0.00010000                1.12138591               -0.20287113                0.14499182                4.78478442               17.35889886                3.81182294
               8.77235633                3.03449141                9.87808763                0.26041728                2.00433620               -2.26339704               -0.27778364                4.40338408               16.69844600               -6.38521434
               9.79673352                3.03702994                9.88646891                1.00000000                1.48806497                0.37769949               -1.31468546                1.74090085                7.54856616                0.59200547
              10.80211762                3.00445172                9.74363331                1.00000000                0.53841017                0.69834133               -2.27243086                0.01339716               -0.01924977               -0.38216939
               0.74063165                4.16321581               10.18886218                1.00000000               -0.31504233               -0.49153781                1.42021192               -0.03649117                0.16979367                0.72079523
               1.73748123                4.13704984               10.05908396                1.00000000               -0.18968191               -0.16519080                0.62182395               -0.01326307                0.15233050               -0.04133072
               2.73683801                4.11011929                9.92834011                0.06111953                0.08833942                0.11959046               -0.33149113                0.02265416               -0.32248191               -0.73511209
               3.73924801                4.08359339                9.78847164                0.00010000                1.09392971                0.56408663               -2.48788027               -0.36083460                7.10224536               -1.81953718
               4.75871661                4.04865652                9.80316668                0.00010000                1.66093931                0.35751442               -0.73666288               -0.28670662               13.82136663                2.06192024
               5.77246680                4.02288302                9.80441245                0.00010000                1.20183879                0.79984732               -0.77540442                0.82985855               13.60452066                2.65643663
               6.78275338                4.00815404                9.81270382                0.00010000                1.00744412                0.96937240               -0.82982263                2.15784254               14.57357592                1.84904806
               7.79261568                4.00886109                9.82915676                0.00010000                1.34648859                0.85811421               -1.02743637                3.83243290               15.92664533               -0.23893575
               8.80968315                4.02360382                9.85488222                0.26278258                1.74739893               -0.70243849               -1.30605068                4.63677739               17.00892359               -2.12167200
               9.82756366                4.04094122                9.88347625                1.00000000                1.17699876                0.40491233               -1.40609031                2.32055210                8.78182578                0.45220666
              10.83322313                4.01157284                9.73620476                1.00000000                0.56594662                0.72605314               -2.36675163                0.01387169               -0.01770287               -0.35620656
               0.76489228                5.15853814               10.16339110                1.00000000               -0.22832316               -0.44166199                1.20106746               -0.05954198                0.21401256                0.61164142
               1.76260905                5.13592684               10.02974850                0.86139502               -0.11675571               -0.04346281                0.37919294               -0.07771419                0.44660469               -0.45369098
               2.76255717                5.11153442                9.90058496                0.02123739                0.06824371                0.26761033               -0.38414676                0.20909017                0.45808662                1.24473196
               3.76397393                5.08902401                9.76769201                0.00010000                1.04439782                0.24704003               -0.70918153                0.04951655                8.59073300                4.70929929
               4.78344513                5.05300773                9.80375998                0.00010000                1.66123767                0.63400683               -1.62923877               -0.34981021               15.43680608                2.10366209
               5.79719868                5.03118952                9.80453838                0.00010000                1.18311306                0.90418886               -1.43850236                0.59015491               13.59967981                1.21656465
               6.80710739                5.01838434                9.80268935                0.00010000                1.03234963                1.01015957               -1.53368840                1.40807739               13.72152389               -0.19333404
               7.81784567                5.01539394                9.80288114                0.00010000                1.29521770                0.68717603               -1.71305288                2.24008005               14.39207300               -2.20002640
               8.83301174                5.02044264                9.80895455                0.27611069                1.86649357                0.00815314               -1.85804588                3.25361929               18.32071436               -4.79032536
               9.85517554                5.04512819                9.87907256                1.00000000                1.40600375               -0.63727953               -1.49902192                1.49976324               11.20397490               -9.12557122
              10.86113182                5.01897278                9.72925354                1.00000000                0.59562724                0.45853941               -2.46130114               -0.38104473                0.20162318               -7.46980275
               0.78466342                6.15438257               10.13668770                1.00000000               -0.17327557               -0.35870224                0.97703008               -0.03924283               -0.08233374                0.52184323
               1.78293067                6.13618059                9.99493310                0.72513311                0.16296096                0.02352131                0.14499553               -0.11449912                2.60392783               -0.63963682
               2.78792264                6.11547149                9.90686735                0.01170450                0.79171828                0.26357654               -1.17296315               -0.21478378                6.25763674                3.24786585
               3.79876503                6.08853419                9.84575248                0.00010000                1.08161222                0.20812211               -2.24924897               -0.08363709                9.37951666                6.89781191
               4.80955489                6.06133666                9.81117887                0.00010000                1.00641300                0.85208327               -1.90994447               -0.17784428               11.99006418                2.58861552
               5.81889329                6.04096680                9.79896077                0.00010000                0.85778124                0.98989764               -1.77542292                0.26321890               12.69500674                0.61151413
               6.82671051                6.02835723                9.78320537                0.00010000                0.82328460                1.00239482               -1.94183638                0.85049413               12.35347004               -1.15642834
               7.83535898                6.02260461                9.76376014                0.00010000                0.91553897                0.81960467               -2.16972627                1.37118449               12.17470868               -3.31523684
               8.84502129                6.02376688                9.74199647                0.29302561                1.18348972                0.45726666               -2.39761732                1.57714143               10.42537241               -6.48933636
               9.85902878                6.02819563                9.68435300                0.92968659                1.64458771               -0.86894783               -2.79235678                0.64920887                6.42388945              -14.05476887
              10.87791304                6.02074363                9.57996757                1.00000000                1.88842657                0.08743757               -3.48581150                0.51073676                4.11764437              -12.45216468
               0.80051139                7.15136410               10.10793641                1.00000000               -0.12812418               -0.25420858                0.86546014                0.90246887                0.31145647                2.82104074
               1.79923015                7.13639726                9.96293805                0.65001706                0.26982497               -0.34356574               -0.06453840               -0.00888426                5.36202885                2.91820466
               2.80590789                7.11680595                9.91902785                0.02038945                0.86029366               -0.08395839               -0.55670952               -0.65698704                9.78306578                3.40942167
               3.81643602                7.09318645                9.86472723                0.00010000                1.07738755                0.32194589               -1.62555364               -0.72610350                9.76655382                3.65905539
               4.82745564                7.07004940                9.82409687                0.00010000                0.95032334                0.72117406               -1.80654321               -0.55547372               10.81868551                2.28245232
               5.83544249                7.05098748                9.79167107                0.00010000                0.75119085                0.92859947               -1.94412785               -0.10246008               11.19312526                0.30771100
               6.84247946                7.03843223                9.75985055                0.00010000                0.72086097                0.98732232               -2.20650745                0.47248998               10.83116045               -1.43786123
               7.84985971                7.03178603                9.72138385                0.00010000                0.82420466                0.94426873               -2.54433473                0.92561025                9.69449691               -3.32685418
               8.85896355                7.02958797                9.66712517                0.31326682                1.06616343                0.71468992               -2.95974831                1.13114583                7.55046285               -5.81684490
               9.87118298                7.02774923                9.58601018                0.89486875                1.36435013                0.33443198               -3.51122545                0.76377674                4.16784752               -7.62804388
              10.88625055                7.02072154                9.46474955                1.00000000                1.50675772                0.35494638               -4.30090453                0.29460590                2.10429987               -8.54754737
               0.83264647                8.14929840               10.12526700                1.00000000               -1.53353403               -0.74322920                4.44092136                0.02155220                3.82715298                6.04736791
               1.81731113                8.12930927               10.00133054                0.62910740               -0.73263794               -0.75942307                4.29435682                0.16504474                6.20487862                5.62499028
               2.81799371                8.11379232                9.92816942                0.03691618                0.68441923               -0.35877684               -0.39171539               -0.02379500                9.00827920                3.45740042
               3.83099952                8.09497311                9.87479621                0.00010000                1.13253371                0.09078258               -1.08460601               -0.43482195                9.78226511                2.43630518
               4.84064439                8.07576014                9.82589871                0.00010000                0.87308692                0.50052410               -1.62941544               -0.49366351               10.13869728                1.31306967
               5.84846125                8.05953878                9.78235666                0.00010000                0.73586829                0.78874661               -2.01402567               -0.18068797               10.24144658                0.04753337
               6.85536175                8.04810367                9.73775063                0.00010000                0.71270998                0.93626751               -2.40414906                0.26197162                9.67500997               -1.22477334
               7.86271545                8.04148998                9.68477026                0.00633513                0.81596283                0.98828753               -2.84965792                0.64423684                8.34001683               -2.51647696
               8.87168101                8.03806068                9.61537063                0.33703026                1.02276473                0.95109243               -3.37079632                0.79809671                6.18800638               -3.72798758
               9.88317075                8.03488427                9.52119834                0.89797596                1.30897746                0.90349882               -4.01277846                0.57385387                3.30154885               -4.65309854
              10.89786056                8.02784256                9.39591583                1.00000000                1.46898100                0.98559206               -4.82170532                0.34593660                1.66282231               -4.95647109
               0.84092068                9.13649951               10.16077743                1.00000000               -0.28835653               -0.78066737                1.88499333               -0.33953198                2.51422693                4.72278834
               1.83803712                9.12120880               10.02915020                0.65187847               -0.05762653               -0.42676279                0.74691703                0.48656167                4.61641616                4.02955593
               2.83976815                9.10963041                9.94040115                0.04256969                0.38673263               -0.24894797               -0.05346384                0.55231342                7.70842946                2.45407997
               3.84577177                9.09500210                9.87457810                0.00010000                0.66242733                0.10350748               -1.04308028               -0.04477680                9.24587033                1.29002589
               4.85301670                9.08005988                9.82053481                0.00010000                0.68567119                0.44954926               -1.59105539               -0.20872945                9.89631657                0.58965794
               5.85948519                9.06676241                9.77115835                0.00010000                0.63754966                0.72604021               -2.08216230               -0.10900580                9.89798669               -0.06639000
               6.86576769                9.05715758                9.71997229                0.00010000                0.66511219                0.91754485               -2.56705034                0.13654280                9.20645772               -0.71372553
               7.87278744                9.05155179                9.65975825                0.01555400                0.78817544                1.04066613               -3.08189666                0.36603859                7.79074986               -1.32399401
               8.88153120                9.04860982                9.58324985                0.36258392                1.00453709                1.12204539               -3.66261148                0.45425134                5.69135974               -1.84818346
               9.89287818                9.04581921                9.48380327                0.94067499                1.28607554                1.20350202               -4.34571022                0.32987748                3.01848462               -2.20301641
              10.90725271                9.04043338                9.35622315                0.96383799                1.43745321                1.40400037               -5.15900862                0.20274757                1.50599001               -2.39723191
               0.85643726               10.13368505               10.15852239                1.00000000               -0.25257912               -0.28144624                1.05996780                0.26055429                2.49154425                2.83985406
               1.85391147               10.12077402               10.02449797                0.85508902               -0.05952892               -0.04347821                0.25168665                0.34385067                4.47940275                2.27040004
               2.85524668               10.10881336                9.93031211                0.52877968                0.28815236               -0.08170465               -0.56567829                0.36131494                7.69424170                1.33257568
               3.85967451               10.09704326                9.86270528                0.35712565                0.47314062                0.20411594               -1.16644692                0.18716229                9.52909875                0.68835895
               4.86470949               10.08475112                9.80889020                0.35316905                0.47544595                0.46912449               -1.70995743                0.02009570               10.29212367                0.28629724
               5.86918343               10.07405959                9.75996938                0.37568364                0.42968703                0.72971801               -2.21033809                0.05499632               10.23332732               -0.05953250
               6.87330323               10.06645457                9.70863927                0.42191088                0.47002792                0.92969869               -2.72409788                0.16573995                9.41217023               -0.39079245
               7.87858399               10.06230331                9.64763224                0.51156826                0.65976899                1.07515206               -3.26194649                0.28200631                7.87821985               -0.69599052
               8.88649861               10.06050159                9.57000407                0.69284885                0.96803743                1.18917703               -3.86070936                0.32929134                5.72446890               -0.94689022
               9.89794474               10.05895431                9.46971556                1.00000000                1.30942817                1.31350992               -4.55673320                0.27770482                3.05925833               -1.11915753
              10.91268717               10.05592256                9.34165502                1.00000000                1.47424358                1.54891864               -5.37094002                0.24027190                1.55628490               -1.26134406
               0.73653098                0.21788120               11.30596467                1.00000000               -0.52808370               -0.61566959                2.10771296               -0.12721489               -0.27356718                0.37220388
               1.73125014                0.17820689               11.17754752                1.00000000               -0.44491608               -0.39704482                1.40864715               -0.08139947               -0.34502228                0.08538261
               2.72763266                0.13808460               11.04711252                1.00000000               -0.29465179               -0.17870522                0.71880796               -0.05831920               -0.43105109               -0.04365325
               3.72535711                0.09648562               10.91681610                0.60713190               -0.23222176                0.06212772               -0.10696965               -0.04337245               -0.74236591               -0.28483781
               4.72298822                0.05341702               10.78055998                0.66090541                3.57198802                0.20991888               -2.21915660                3.95167958                5.93457376               -1.15496041
               5.79679687                0.08658993               10.82962539                0.72563082                5.03192592               -2.30666776                0.72126292                2.85390197               16.85839415               -0.59605496
               6.82362674                0.09612587               10.86881779                0.71869762                1.54903905               -2.09462671                1.83101936                1.60013554               18.77164529               -0.60006421
               7.82777765                0.10186610               10.93510224                0.82972216               -0.20940903               -1.75502340                1.44732383                1.16300928               22.21925647               -1.19915229
               8.81943856                0.07998175               11.03486389                1.00000000               -0.32367725                0.06031874               -0.18656342                1.00161735               11.83438364                0.38998684
               9.82130410                0.03507086               10.89185476                1.00000000                0.31403336                0.32975397               -1.05062307               -0.13454655               -0.29366856                0.00567926
              10.82571923               -0.01014192               10.74871389                1.00000000                0.44151250                0.59921996               -1.91464683               -0.11953906               -0.30943332               -0.33352134
               0.77493314                1.21172450               11.27778895                1.00000000               -0.45986921               -0.59496529                1.90914650               -0.01396491               -0.00273696                0.57083479
               1.77033445                1.17423644               11.14923217                1.00000000               -0.35115212               -0.37468105                1.21342714                0.03407062                0.00669436                0.15081485
               2.76791010                1.13629754               11.02031402                0.73994971               -0.15386406               -0.16605496                0.51057849                0.04847878               -0.06407955               -0.10905056
               3.76725717                1.09710690               10.89033172                0.07201231               -0.02286166                0.05814283               -0.07951484                0.00604022               -0.28395096               -0.36423625
               4.76745287                1.05551621               10.75780341                0.19308180                1.83621465                0.22212254               -0.39944363                2.60338550                8.33149850               -0.20307817
               5.80398146                1.06352325               10.80110654                0.26222385                3.22685709               -1.86185122                1.35742858                3.04512486               16.92882019               -0.00083441
               6.83199001                1.07517961               10.84258797                0.18279502                2.17491720               -2.37059398                3.51581295                2.81733254               18.98074687               -0.02451745
               7.84747981                1.08431587               10.91376292                0.35772628                1.54311751               -2.31240242                4.05700532                2.67173070               23.31842448               -1.62081555
               8.86285236                1.08058493               11.02633148                1.00000000                0.87703313                0.07428498               -0.28246505                1.90918824               12.81841191                0.39459154
               9.86502047                1.03836840               10.88296102                1.00000000                0.34421255                0.34368431               -1.14683047               -0.00001784                0.05550756                0.08634131
              10.86973661                0.99585028               10.73991699                1.00000000                0.47161412                0.61370954               -2.01086374                0.01482218                0.06338605               -0.40782627
               0.81122781                2.20598189               11.25271152                1.00000000               -0.38692933               -0.55210842                1.70942711               -0.02155014                0.09298223                0.79508589
               1.80735852                2.17071327               11.12198367                1.00000000               -0.27480165               -0.32173628                1.01262013                0.01143754                0.18041026                0.17944082
               2.80573178                2.13476350               10.99258116                0.35170451               -0.05496362               -0.11263753                0.32921355               -0.01671195                0.25992086               -0.25777775
               3.80625924                2.09764848               10.86360219                0.00010000                0.14539038                0.09648704               -0.26295061               -0.13473501                0.39103425               -0.47463801
               4.80863958                2.05785948               10.73764673                0.00010000                1.58883635                0.56861125               -0.75661845                2.24771551                9.43005323                4.09272652
               5.83803597                2.04935290               10.79040973                0.00010000                2.52705942               -1.08582392                1.49858330                3.08271118               17.47535752                2.17133419
               6.85918077                2.04871400               10.82125831                0.00010000                1.88854837               -2.14942470                3.37625061                3.21906874               18.07837318                1.69723598
               7.87580694                2.05561806               10.87858994                0.00010000                2.21945144               -2.39883800                4.21006426                4.45066807               24.37404785                0.14956448
               8.90356980                2.08146745               11.01724758                0.41873747                1.51157291               -1.32180579               -0.37860429                2.27565190               14.59863920               -6.13267074
               9.90603840                2.04194454               10.87559588                1.00000000                0.37410478                0.36416074               -1.24223306               -0.00604753                0.40917241                0.41701370
              10.91105190                2.00213228               10.73010265                1.00000000                0.50135005                0.64527808               -2.10738881                0.00935570                0.20915360               -0.43328051
               0.84503939                3.20068234               11.22808019                1.00000000               -0.32577941               -0.49953777                1.50932923               -0.03479892                0.10522885                0.82437353
               1.84178160                3.16780172               11.09393068                1.00000000               -0.21993709               -0.25143442                0.80412053               -0.02472121                0.28799695                0.11077642
               2.84064065                3.13404479               10.96307460                0.16119556               -0.01575533               -0.00612514                0.11193635               -0.10046023                0.61076963               -0.72054649
               3.84146649                3.09903664               10.83557059                0.00010000                1.00310514                0.23143867               -0.54677053               -0.03492381                5.33516109               -2.01164748
               4.86070275                3.06688844               10.79976889                0.00010000                1.66573372                0.52094225               -0.17218798                1.28443581               11.40466742                5.04717811
               5.87478117                3.04180677               10.79312215                0.00010000                1.47017386               -0.30856863                0.46994233                1.78252722               14.43960448                2.96678987
               6.89010623                3.03219111               10.81409693                0.00010000                1.44792758               -0.95284072                1.13245487                2.83522543               17.16202496                2.28063071
               7.90373972                3.03633911               10.85192042                0.00010000                1.59663402               -1.31898155                1.02578473                4.12767206               18.06379498                0.29569068
               8.92203891                3.05414882               10.87750868                0.25779747                2.02474854               -2.08148158               -0.14256503                3.21869874               16.30996313               -6.85154642
               9.94423469                3.04565161               10.87321935                1.00000000                1.37546741                0.38470326               -1.33525129                1.40458505                7.37156350                0.59586276
              10.94954826                3.00875585               10.72125050                1.00000000                0.53135706                0.67651016               -2.20394661                0.01378495               -0.01954108               -0.38413329
               0.87629307                4.19599114               11.20257070                1.00000000               -0.27914382               -0.44371587                1.30858707               -0.03755407                0.16291619                0.71959893
               1.87350163                4.16568458               11.06502021                1.00000000               -0.19027127               -0.16599133                0.59732237               -0.01806711                0.12730120               -0.04833804
               2.87248765                4.13464099               10.92627345                0.07178342               -0.03922553                0.06311047               -0.12978522               -0.06142606               -0.40701371               -0.74714172
               3.87271712                4.10227725               10.77854281                0.00010000                0.95352613                0.26795058               -0.72157312               -0.13601467                7.22738069               -1.89300717
               4.89155817                4.06827832               10.79478384                0.00010000                1.78333580                0.17752497               -0.69870912                0.22460979               14.75757506                1.55131685
               5.90838384                4.04318153               10.79827242                0.00010000                1.48973861                0.29544323               -0.50588150                1.23266130               14.56788118                2.08683393
               6.92135294                4.02965718               10.80620794                0.00010000                1.40094183                0.07275443               -0.46473445                2.28224920               15.43514635                0.99122189
               7.93640268                4.02923843               10.82046739                0.00010000                1.86391671               -0.38441694               -0.65826348                3.50082137               16.71091122               -1.12254951
               8.95863127                4.03983781               10.84367473                0.25812473                2.15601965               -1.15714606               -1.00845787                4.07442691               17.76761158               -2.66666681
               9.97952307                4.04963861               10.86929799                1.00000000                1.32439252                0.41298407               -1.42942955                2.17367939                9.09122986                0.45513021
              10.98511913                4.01566248               10.71286570                1.00000000                0.55960573                0.70496450               -2.30093008                0.01418264               -0.01793246               -0.35844029
               0.90490143                5.19180802               11.17491417                1.00000000               -0.21310289               -0.39035928                1.10179054               -0.04390120                0.22977222                0.59943079
               1.90277040                5.16448189               11.03365243                0.84915257               -0.10409862               -0.07268454                0.39887889               -0.08243711                0.47954160               -0.45681785
               2.90281946                5.13530700               10.89706300                0.02968244                0.11692362                0.22617207               -0.27263466               -0.30990755                0.53789842                0.82097823
               3.90510887                5.10439565               10.75689844                0.00010000                1.07356072                0.39775159               -0.91678119                0.40463632                8.99534691                3.78022933
               4.92429067                5.07043894               10.78911209                0.00010000                1.64733293                0.48803596               -1.38714787                0.55926602               16.09266793                1.73907821
               5.93805553                5.04771564               10.79181790                0.00010000                1.27018243                0.59308385               -1.12131972                0.93024394               14.42013368                1.02779026
               6.94969432                5.03364620               10.78915849                0.00010000                1.27599905                0.51595626               -1.21226599                1.58634240               14.42653059               -0.40411568
               7.96357551                5.02865077               10.78743115                0.00010000                1.67164733                0.13696515               -1.41106219                2.16084027               15.11007523               -2.41205503
               8.98312727                5.03100590               10.79143906                0.27088641                2.41540495               -0.43179439               -1.64640267                3.02201244               19.27873391               -5.07906811
              10.01188361                5.05391129               10.86395310                0.99324705                1.73284523               -0.73164651               -1.52475091                1.07429028               11.78401284               -9.67380017
              11.01778417                5.02285514               10.70495791                1.00000000                0.59005595                0.67301725               -2.39781579               -0.95176779                0.20297929               -7.90054057
               0.93006731                6.18818395               11.14610999                1.00000000               -0.17134008               -0.31213796                0.89224524               -0.02533315               -0.05726201                0.48884656
               1.92835391                6.16423089               10.99676602                0.71490849               -0.18457877               -0.01702865                0.21481164               -0.02713037                2.22259519               -0.60802775
               2.92637573                6.13916444               10.89291878                0.01767926                0.86620043                0.32471500               -1.58563577                0.03437449                6.14961684                3.32896935
               3.94567791                6.11023228               10.81732727                0.00010000                1.65238867                0.69432274               -5.69791591               -0.00659368                9.65846009                6.53263018
               4.95942350                6.07803904               10.79195682                0.00010000                0.90517689                0.80648456               -1.35309189               -0.15878635               13.21683360                2.63265062
               5.96378145                6.05504321               10.78313179                0.00010000                0.63605740                0.79908316               -1.51483295                0.37901874               13.44867184                0.58432233
               6.97214465                6.03997631               10.76509972                0.00010000                0.92391672                0.72246958               -1.66588893                0.86846351               12.91551767               -1.22770217
               7.98225979                6.03197773               10.74331203                0.00010000                1.08331751                0.53223714               -1.92304762                1.26201462               12.78700882               -3.46274508
               8.99381100                6.03120193               10.71901154                0.28778654                1.34499236                0.24072935               -2.19895477                1.33296072               11.00100317               -6.79693063
              10.00915963                6.03500568               10.65728069                0.91626203                1.71925399               -0.99955856               -2.62411791                0.23835982                6.80049495              -14.84125064
              11.02819608                6.02912282               10.54614656                1.00000000                1.90364488                0.26273107               -3.27961229                0.18354452                4.33895085              -13.18117087
               0.95230089                7.18556526               11.11532718                1.00000000               -0.10535849               -0.24260116                0.68759009                0.35378304                0.25716248                3.95366715
               1.95124731                7.16414132               10.96314197                0.64114692                0.26023280               -0.17769987                0.04743474                0.24592830                5.40088561                4.27612662
               2.95750555                7.14180130               10.91356702                0.02329719                0.74275429               -0.03845730               -0.55033691                0.29909508                9.59651104                4.29479589
               3.96610240                7.11828211               10.84808985                0.00010000                0.93992348                0.26220063               -1.11409135               -0.80828386                9.96572166                4.64413624
               4.97630402                7.08656863               10.80657935                0.00010000                0.87981216                0.68842081               -1.77836625               -1.06896202               11.41819649                2.58295891
               5.98369864                7.06369730               10.77332484                0.00010000                0.69125240                0.81308786               -1.69834991               -0.15882936               11.74514572                0.33959070
               6.99012907                7.04809559               10.73897852                0.00010000                0.69457730                0.84429707               -1.97614842                0.42727919               11.31155238               -1.45270254
               7.99759018                7.03929551               10.69708743                0.00010000                0.83147312                0.80902795               -2.31559177                0.85515572               10.14606967               -3.44384475
               9.00675853                7.03582048               10.63866526                0.30837346                1.05698625                0.62252646               -2.73347518                1.03098849                7.93886944               -6.09183527
              10.01872991                7.03392012               10.55212067                0.88049210                1.32311193                0.26538225               -3.26869465                0.67816154                4.40087921               -8.04382039
              11.03322077                7.02810976               10.42328301                1.00000000                1.44908597                0.21536497               -3.99358697                0.22391311                2.22873298               -9.01576027
               0.97999086                8.18333193               11.15509553                1.00000000               -0.29544268               -0.52337065                2.28402369                0.23649881                2.34182073                6.82514183
               1.97703643                8.16067689               11.02449900                0.62073971               -0.08870066               -0.45165790                1.57055776                0.13386730                4.81140372                7.00124402
               2.97821684                8.13839529               10.92971833                0.03588841                0.38542418               -0.32435540                0.09371388               -0.17906572                8.16474615                3.84787648
               3.98474491                8.11547630               10.86503105                0.00010000                0.72061151               -0.14431317               -0.91333816               -0.48777271                9.75996580                2.91556427
               4.99262907                8.09180746               10.81056854                0.00010000                0.71664940                0.44727339               -1.42024277               -0.62294025               10.43919658                1.56885341
               5.99907790                8.07130496               10.76306889                0.00010000                0.62314744                0.72604688               -1.83684170               -0.28612870               10.61809351                0.13280102
               7.00509202                8.05686225               10.71472813                0.00010000                0.62800562                0.86997953               -2.19828023                0.22212001               10.05372619               -1.22704133
               8.01163801                8.04815829               10.65740389                0.00571466                0.73570726                0.92427572               -2.62586365                0.62762720                8.68375727               -2.59658155
               9.01980617                8.04365245               10.58289899                0.33306551                0.93977893                0.89262900               -3.12562639                0.80980890                6.46325037               -3.89440665
              10.03043359                8.04031332               10.48249615                0.88920304                1.22444535                0.82253878               -3.72940456                0.60201124                3.45781012               -4.88957589
              11.04429507                8.03343012               10.34947773                1.00000000                1.38614825                0.81819130               -4.46655223                0.36622149                1.74581614               -5.19539519
               1.00234095                9.17509785               11.18110345                1.00000000               -0.34796519               -0.70224026                1.76436281               -0.00900837                2.25939851                4.57162136
               1.99886130                9.15510816               11.04040003                0.64307737               -0.16080584               -0.43716096                0.97909310                0.05783780                4.30565264                3.50525271
               2.99912483                9.13531420               10.93997085                0.03689856                0.20367401               -0.17800347               -0.03772442                0.01526335                7.51237872                2.48518103
               4.00293478                9.11539584               10.86519005                0.00010000                0.44458582                0.09243050               -0.85028450               -0.19753400                9.34612654                1.43837789
               5.00801655                9.09551410               10.80532017                0.00010000                0.49932483                0.42335649               -1.44029050               -0.31322129               10.16644901                0.69911164
               6.01292127                9.07821824               10.75110818                0.00010000                0.48507992                0.71065864               -1.91691090               -0.16382357               10.20707244               -0.00982541
               7.01771815                9.06549518               10.69525227                0.00010000                0.52156244                0.89322457               -2.37493210                0.11379220                9.51458579               -0.70738107
               8.02335252                9.05778103               10.63005781                0.01620087                0.65407638                1.00736466               -2.85963853                0.37567687                8.06990546               -1.35975966
               9.03079967                9.05367306               10.54790142                0.36038227                0.88199726                1.07231114               -3.40805089                0.49197109                5.90595272               -1.92368579
              10.04099247                9.05037090               10.44185171                0.93839961                1.17559628                1.11771458               -4.04440624                0.37246874                3.13547444               -2.30550540
              11.05431160                9.04447358               10.30650377                0.96581457                1.33191323                1.26517925               -4.78390246                0.22866495                1.56661243               -2.49307539
               1.01979007               10.16928712               11.16810582                1.00000000               -0.18132293               -0.58107217                1.06109168                0.00956651                2.63403714                2.54813205
               2.01797684               10.15193367               11.02672693                0.85119471               -0.07778208               -0.31744855                0.36379123                0.18895880                4.68575946                1.93785189
               3.01823442               10.13483522               10.92618712                0.52513532                0.13087474               -0.04789747               -0.31756077                0.18052099                7.94289157                1.32290736
               4.02059433               10.11732491               10.85192618                0.35798693                0.26539148                0.19290633               -0.98687437                0.03792371                9.80015823                0.78421265
               5.02354225               10.10027459               10.79243603                0.35348824                0.26130049                0.47604887               -1.55168112               -0.03776788               10.59946757                0.33171725
               6.02582034               10.08551814               10.73860773                0.37571231                0.21314098                0.72999007               -2.04492679                0.01251448               10.53410514               -0.03506647
               7.02780507               10.07472674               10.68236377                0.42190901                0.25766654                0.92315544               -2.52706037                0.14806484                9.69866863               -0.38786794
               8.03097367               10.06830558               10.61612822                0.51240010                0.46253239                1.05245513               -3.03625877                0.28071192                8.13420084               -0.71526139
               9.03705572               10.06509868               10.53267424                0.69265662                0.80543872                1.14256147               -3.60204265                0.34370641                5.91806802               -0.98417603
              10.04708245               10.06266761               10.42565096                1.00000000                1.18036395                1.22967175               -4.25104959                0.29074942                3.15969798               -1.16785111
              11.06066300               10.05873371               10.28981178                1.00000000                1.35805539                1.42601247               -4.99183441                0.24174942                1.60281011               -1.30218399
               0.86558721                0.25079548               12.32633373                1.00000000               -0.50136544               -0.57428531                1.97743324               -0.11814016               -0.29032485                0.37704823
               1.86057356                0.20833207               12.19142140                1.00000000               -0.41258016               -0.38392401                1.36546118               -0.07862309               -0.36356601                0.08189818
               2.85733561                0.16533940               12.05452332                1.00000000               -0.21990327               -0.20061323                0.74699918               -0.06703534               -0.46433773               -0.05631086
               3.85617549                0.12153235               11.91703325                0.61280228               -0.03529906               -0.03119616                0.11408177               -0.08113069               -0.40579015               -0.09977814
               4.85662963                0.07721676               11.78047073                0.67167594                3.24453538                0.05839889               -0.10399835                3.48787727                9.12286020               -0.23000399
               5.92106620                0.10449124               11.83125092                0.73976270                5.00327132               -2.10839206                0.40103800                3.07196440               18.42875087               -0.10801718
               6.95669505                0.11095984               11.88674203                0.72958058                2.33536603               -1.78766097                1.47423586                1.42310281               19.78105944               -0.39044544
               7.96777352                0.11097873               11.95323720                0.83607691                0.35135843               -1.16437916                1.40304965                1.49088498               21.66495398               -0.50224803
               8.96372222                0.09290182               12.03248694                1.00000000               -0.10070843                0.09256197               -0.28933360                1.37994112               11.21751128                0.39159601
               9.96575935                0.04450345               11.88128275                1.00000000                0.31800311                0.33406008               -1.06395688               -0.12059109               -0.29450881                0.00590041
              10.97008228               -0.00420447               11.72994657                1.00000000                0.43229331                0.57570723               -1.83861464               -0.10523607               -0.31032151               -0.33452487
               0.90686922                1.24505263               12.29620228                1.00000000               -0.43538524               -0.55074223                1.78380070               -0.01994536               -0.01430407                0.57020887
               1.90251537                1.20449283               12.16115512                1.00000000               -0.34020510               -0.35916661                1.17273120                0.01520159               -0.01152354                0.14719569
               2.90006512                1.16333327               12.02573413                0.75696939               -0.15449318               -0.17495409                0.55929494                0.00851978               -0.03644646               -0.11225186
               3.89942550                1.12122039               11.89024848                0.08570041               -0.00180799               -0.00376824                0.02391313               -0.04752250               -0.07016090               -0.26101363
               4.90002896                1.07780075               11.75438368                0.21330770                1.77444027                0.10831432               -0.37673640                2.40840908                9.51066014               -0.23247780
               5.93491431                1.08340731               11.81017881                0.28588177                3.38266887               -1.57062488                0.71314503                3.35177698               19.11712245                0.55884844
               6.96768233                1.09308323               11.86607944                0.20081435                2.83985338               -1.86335045                1.71040689                2.88071216               20.25366016               -0.24908185
               7.99171138                1.09933494               11.93537825                0.37027023                2.15384706               -1.66132151                1.48526447                2.84384453               22.59717736               -1.04085946
               9.01075928                1.09382744               12.02298307                1.00000000                1.06976058                0.10696592               -0.38761107                2.00837473               11.98010983                0.39630799
              10.01310659                1.04784405               11.87141555                1.00000000                0.34892822                0.34828622               -1.16241048                0.00000775                0.05584778                0.08709153
              11.01773784                1.00155260               11.72017576                1.00000000                0.46312527                0.59056798               -1.93709163                0.01515515                0.06372290               -0.40910296
               0.94630790                2.23978064               12.26916036                1.00000000               -0.37109474               -0.50277183                1.58986360               -0.02196226                0.08132587                0.79144985
               1.94259695                2.20114874               12.13193408                1.00000000               -0.27647235               -0.30415972                0.97984169                0.00438168                0.16526218                0.17561634
               2.94077845                2.16184032               11.99612544                0.36773364               -0.09196961               -0.11469380                0.37375327               -0.02668766                0.27407926               -0.25092621
               3.94075756                2.12145698               11.86140299                0.00010000                0.09162164                0.06741574               -0.18407200               -0.10729909                0.42009727               -0.48218106
               4.94261088                2.07938305               11.72935464                0.00010000                1.60308554                0.59315656               -0.74845620                2.53017371               10.67279707                4.46053203
               5.97281927                2.07307874               11.80075971                0.00010000                2.78853957               -0.83708194                0.74589563                3.69792694               19.60460296                1.67733807
               6.99838167                2.07369283               11.84414721                0.00010000                2.55434631               -1.67116771                1.61507962                3.56810316               19.32304706                0.24445178
               8.02390619                2.07775230               11.90029731                0.00010000                2.84994677               -1.85334596                1.42467389                4.20739460               23.56976719               -1.65168987
               9.05538061                2.09504114               12.01292611                0.42499842                1.70640771               -1.13970581               -0.48608760                2.01071271               13.70863482               -5.97988201
              10.05803435                2.05146917               11.86308465                1.00000000                0.37938342                0.37005196               -1.26013783               -0.00589348                0.41087843                0.41943421
              11.06296828                2.00760689               11.70938493                1.00000000                0.49339294                0.62266996               -2.03588086                0.01010486                0.21000907               -0.43497149
               0.98369377                3.23499719               12.24254779                1.00000000               -0.31504488               -0.45034146                1.39446982               -0.02460278                0.09196038                0.81798133
               1.98054332                3.19840964               12.10187504                1.00000000               -0.22353234               -0.23937019                0.78709929               -0.01151210                0.26830188                0.11094792
               2.97922312                3.16103939               11.96455111                0.17404489               -0.04032645               -0.03261315                0.17677066               -0.07221239                0.59043416               -0.71999323
               3.97973679                3.12256870               11.83067276                0.00010000                0.98937791                0.14742097               -0.43480749                0.15760837                5.78984909               -1.90173860
               4.99901068                3.08966389               11.79798646                0.00010000                1.74131418                0.54782996               -0.17708825                1.78122947               12.48081249                5.33167647
               6.01456307                3.06666568               11.79694901                0.00010000                1.76800787               -0.35773967                0.25243177                2.47885257               15.64514875                2.10097056
               7.03437083                3.05965987               11.82415053                0.00010000                1.99739401               -1.03879548                0.70772945                3.32410053               17.98012174                0.48321357
               8.05451095                3.06226802               11.86095606                0.00010000                2.14429119               -1.34264665                0.54128088                3.84171873               17.94940384               -1.90233837
               9.07725666                3.07103333               11.87523633                0.25602836                2.29560090               -1.93505187               -0.38108093                2.69006248               15.77006579               -7.27585350
              10.10042297                3.05524509               11.85976388                1.00000000                1.42039200                0.39204497               -1.35586297                1.25678112                7.22434712                0.59930848
              11.10566450                3.01400600               11.69955437                1.00000000                0.52415287                0.65448662               -2.13500692                0.01413067               -0.01979068               -0.38642594
               1.01899095                4.23077381               12.21503392                1.00000000               -0.26664422               -0.40048628                1.19744621               -0.02537512                0.15984395                0.71205834
               2.01632450                4.19636134               12.07103040                1.00000000               -0.19079053               -0.16824819                0.60200835               -0.00390050                0.10842616               -0.04452646
               3.01517514                4.16118806               11.92574441                0.08264311               -0.05196371                0.01346290                0.00260549               -0.05549607               -0.28706301               -0.71401401
               4.01528523                4.12440540               11.77404018                0.00010000                0.94816802                0.16377192               -0.38206920                0.06232876                7.72607488               -1.72045032
               5.03413850                4.09033965               11.78919250                0.00010000                1.85575505                0.04762149               -0.48150643                0.64434443               15.60141325                1.19642218
               6.05240033                4.06592394               11.79429482                0.00010000                1.75614215                0.01101463               -0.36657956                1.67845776               15.45525471                1.53247789
               7.06926134                4.05291692               11.80340913                0.00010000                1.84833902               -0.41248142               -0.28512062                2.53146689               16.21152894               -0.04524110
               8.08936711                4.05089937               11.81599149                0.00010000                2.34717255               -0.89799072               -0.46251310                3.33394223               17.19535553               -2.27008360
               9.11620479                4.05634011               11.83471306                0.25423848                2.54150914               -1.37544289               -0.90695439                3.66092564               18.05927034               -3.35116173
              10.14019729                4.05931007               11.85488766                1.00000000                1.47621341                0.42122015               -1.45270693                2.06352459                9.23217065                0.45777130
              11.14572906                4.02069662               11.69018615                1.00000000                0.55317641                0.68375541               -2.23471671                0.01451932               -0.01810277               -0.36102379
               1.05201121                5.22698746               12.18542691                1.00000000               -0.19601470               -0.35136583                1.00413824               -0.03351999                0.22663829                0.57896456
               2.05005106                5.19504467               12.03772608                0.83783485               -0.09710376               -0.09154216                0.41673395               -0.07147670                0.49628786               -0.43652179
               3.05006913                5.16130865               11.89513227                0.03848734                0.08903549                0.21793988               -0.12507708                0.29890291                0.58548263                0.18144863
               4.05183177                5.12584414               11.74935639                0.00010000                1.01549475                0.17949935               -0.63671571                0.34593112                8.99306086                0.17760402
               5.07037902                5.09061631               11.77601702                0.00010000                1.68615960                0.30913821               -1.13030545                0.74951871               16.50108459                1.90700583
               6.08555496                5.06688597               11.78211199                0.00010000                1.48228623                0.26111771               -0.89802392                1.15587167               15.17024333                0.70117250
               7.10002475                5.05141024               11.77844403                0.00010000                1.61058241                0.05331169               -0.98262749                1.65007587               15.00238287               -0.86535446
               8.11776661                5.04430821               11.77465989                0.00010000                2.10198593               -0.36029700               -1.19455035                1.99672274               15.65832607               -2.94725879
               9.14206447                5.04352447               11.77602649                0.26629449                2.97851679               -0.78690183               -1.48417075                2.71145961               19.96315687               -5.55848133
              10.17733694                5.06366949               11.84857754                0.97899586                2.05586561               -0.80535092               -1.55060806                0.59315007               12.20156739              -10.12497780
              11.18318178                5.02768111               11.68129722                1.00000000                0.58448363                0.90492484               -2.33421919               -1.53727533                0.20446057               -8.25960079
               1.08220613                6.22374649               12.15453260                1.00000000               -0.16323449               -0.27677836                0.80021505               -0.02090728               -0.05012907                0.45025940
               2.08057379                6.19453049               11.99922934                0.70553528                0.40737987               -0.04289328                0.26379704                0.03786613                1.51927213               -0.55844129
               3.09035373                6.16554685               11.87515463                0.02409564                0.61612014                0.22968289               -0.96981014               -0.18569990                2.48426228                3.22894449
               4.09289619                6.12799539               11.73179416                0.00010000                0.88666574                0.62606276               -4.82759833                0.09409614               10.40859435                6.69466476
               5.10808704                6.09652241               11.78411703                0.00010000                1.09138239                0.62402737               -1.22059436                0.16782284               16.74619394                2.51909066
               6.11472384                6.07114630               11.76866411                0.00010000                0.83767889                0.54781095               -1.28655179                0.49260027               13.65269817                0.46465089
               7.12484062                6.05398315               11.74988759                0.00010000                1.12317521                0.41697619               -1.43908763                0.87351484               13.42253065               -1.44133719
               8.13718734                6.04369343               11.72529918                0.00010000                1.31160391                0.22545370               -1.70605730                1.09733360               13.25005182               -3.74779405
               9.15107270                6.04060207               11.69801738                0.28311254                1.53581575                0.01696693               -2.01956983                1.00764297               11.42189156               -7.18205349
              10.16790366                6.04320305               11.63187064                0.90224636                1.79438060               -1.10060644               -2.46682425               -0.22805404                7.06632801              -15.52245667
              11.18696031                6.03879512               11.51437533                1.00000000                1.90566551                0.46970253               -3.07969390               -0.17485552                4.50287391              -13.79123719
               1.11002505                7.22145190               12.12168821                1.00000000               -0.10170368               -0.18607630                0.60284797                0.19698171                0.22975795                4.48513549
               2.10900802                7.19418681               11.96388674                0.63312589                0.14325899               -0.12271965                0.09510915                0.13965141                5.33032906                4.79066115
               3.11289023                7.16590231               11.90802111                0.02686966                0.68650557               -0.06004139               -0.57960200               -0.27092751                9.84227746                5.17576322
               4.12273813                7.13836540               11.84244540                0.00010000                0.88471696                0.40944000               -1.00487051               -0.51765016                9.87302162                8.03023747
               5.13058457                7.10309686               11.78852955                0.00010000                0.76040502                0.59369817               -1.54957247               -0.86098855               11.44625805                2.37105862
               6.13794623                7.07784219               11.75770407                0.00010000                0.71816720                0.66325872               -1.50166082               -0.07037019               12.28409710                0.31143250
               7.14494792                7.05974977               11.72032758                0.00010000                0.75740665                0.66529714               -1.76551707                0.41178725               11.66797606               -1.56962284
               8.15309436                7.04881728               11.67507201                0.00010000                0.88798926                0.64472751               -2.10323005                0.75732187               10.49895005               -3.63044307
               9.16270770                7.04386381               11.61245567                0.30403704                1.07442250                0.51671574               -2.51899475                0.88105698                8.22960150               -6.38649827
              10.17458281                7.04165736               11.52063629                0.86605001                1.28964161                0.20793287               -3.03577096                0.55279556                4.56926106               -8.42412015
              11.18850053                7.03707516               11.38487781                1.00000000                1.39177226                0.09593820               -3.69458560                0.13445047                2.31668125               -9.42301555
               1.14067594                8.22002496               12.17094748                1.00000000               -0.17595411               -0.32651243                1.28742756                0.07963576                2.51968009                7.43457195
               2.13891640                8.19207610               12.03274169                0.61340886                0.00403226               -0.25504376                0.62451770                0.02979061                4.40292461                7.43287505
               3.14075659                8.16434603               11.93004370                0.03606100                0.32161136               -0.15185323               -0.06687328               -0.17782230                7.65506049                4.19088355
               4.14534863                8.13618419               11.85652945                0.00010000                0.53169446               -0.07454353               -0.75685544               -0.56714004                9.68703404                2.84635902
               5.15139048                8.10839638               11.79749385                0.00010000                0.56574481                0.45388761               -1.25947424               -0.59648676               10.60542400                1.83522611
               6.15666353                8.08441147               11.74561982                0.00010000                0.53553971                0.65924345               -1.65076004               -0.26794857               10.87880307                0.12391467
               7.16210127                8.06728909               11.69378503                0.00010000                0.57781049                0.78122761               -2.00155563                0.21691817               10.35430088               -1.28464721
               8.16821974                8.05658798               11.63225298                0.00535297                0.68762415                0.84074925               -2.41223427                0.60446618                8.95025580               -2.71159576
               9.17585376                8.05093638               11.55285810                0.32958754                0.87642385                0.82485245               -2.88948119                0.79611901                6.67156242               -4.06937436
              10.18574821                8.04736171               11.44661025                0.87437353                1.14799816                0.74484651               -3.45356222                0.60900012                3.57212310               -5.11024838
              11.19881372                8.04071388               11.30658478                1.00000000                1.30655058                0.65813313               -4.11858751                0.37423198                1.80624017               -5.41304077
               1.16751550                9.21492165               12.19606468                1.00000000               -0.22327299               -0.46910113                1.27727731               -0.02357904                2.07546536                4.39672705
               2.16528277                9.18908593               12.04873206                0.63551864               -0.11449004               -0.25994214                0.66912181               -0.07137271                4.07242618                3.33516525
               3.16522570                9.16286524               11.93964666                0.03298701                0.10311035               -0.07535305               -0.06937987               -0.20313734                7.30624627                2.46146056
               4.16734498                9.13687452               11.85757241                0.00010000                0.26009292                0.15355316               -0.73631293               -0.33052455                9.32721725                1.50220260
               5.17042756                9.11217461               11.79172900                0.00010000                0.31747836                0.43786868               -1.28452800               -0.36103263               10.31125639                0.72646724
               6.17369454                9.09102706               11.73282014                0.00010000                0.33411102                0.69738369               -1.74636133               -0.17630151               10.43143286                0.00791079
               7.17710978                9.07537432               11.67247364                0.00010000                0.39209267                0.85925568               -2.18345447                0.11300257                9.75476114               -0.73111345
               8.18153640                9.06563226               11.60256548                0.01683348                0.53732873                0.96346372               -2.64326654                0.38621717                8.28617612               -1.41266809
               9.18785635                9.06036086               11.51508883                0.35833729                0.77244594                1.01680248               -3.15862066                0.52027496                6.06743536               -2.00433467
              10.19698531                9.05655429               11.40291515                0.93057184                1.07122377                1.03185355               -3.74653852                0.40649570                3.22065854               -2.40368907
              11.20928083                9.05023782               11.26054510                0.96779602                1.22955115                1.12744976               -4.41277826                0.24875459                1.61098688               -2.58386301
               1.19187580               10.21064294               12.17974422                1.00000000               -0.23304419               -0.42787078                1.08860918                0.05946143                2.63573411                2.46269507
               2.18954536               10.18687726               12.03177380                0.84793043               -0.14852732               -0.22086757                0.48699905                0.03605985                4.63336740                1.78278159
               3.18890525               10.16283896               11.92396089                0.52245280               -0.00582932               -0.00262789               -0.19618835               -0.01314482                7.91034682                1.25756931
               4.18942877               10.13925525               11.84296779                0.35883916                0.05560219                0.23807289               -0.83292701               -0.07588127                9.87741142                0.77292014
               5.19001729               10.11715375               11.77785658                0.35378845                0.02545112                0.49791376               -1.38252378               -0.08583146               10.76422713                0.34943225
               6.18993779               10.09835915               11.71907084                0.37568034               -0.01305889                0.73320902               -1.86626582               -0.00965237               10.74461096               -0.03368364
               7.18975612               10.08447421               11.65809806                0.42179188                0.05098755                0.90998876               -2.32909052                0.13953933                9.91433168               -0.39882965
               8.19095754               10.07585725               11.58690706                0.51312357                0.27905559                1.02249877               -2.81101293                0.28202593                8.32687133               -0.74178031
               9.19533723               10.07127243               11.49796321                0.69234599                0.65218095                1.09115758               -3.34197250                0.35516422                6.05869680               -1.02353614
              10.20400116               10.06799878               11.38469456                1.00000000                1.05422585                1.14444896               -3.94094316                0.30110693                3.22903245               -1.21400928
              11.21642175               10.06326288               11.24181834                1.00000000                1.24205845                1.30250551               -4.60876720                0.24050177                1.63438784               -1.33996801
               1.00054915                0.28568506               13.34551334                1.00000000               -0.47599138               -0.53830109                1.86788658               -0.11154262               -0.30423891                0.37898681
               1.99578923                0.24037740               13.20485674                1.00000000               -0.39075471               -0.37097248                1.32262599               -0.07912396               -0.38924293                0.08219343
               2.99273405                0.19453677               13.06205250                1.00000000               -0.22476673               -0.20863786                0.76933958               -0.08051404               -0.49547893               -0.04043056
               3.99129390                0.14805960               12.91909773                0.61676612               -0.07531450               -0.05427093                0.25133791               -0.08623712               -0.40940372               -0.08415563
               4.99122776                0.10099104               12.77848002                0.67997621                3.39033429                0.09917059               -0.19789657                3.57650692                9.66259613               -0.35112571
               6.05910058                0.12657379               12.83764615                0.75121947                5.30169440               -2.13823615                0.54478405                2.98531184               20.07068169                0.12355123
               7.09726165                0.12964214               12.89830250                0.73870594                2.81156158               -1.68493554                0.92680153                1.50847536               20.73346355               -0.08562701
               8.11533182                0.12753904               12.96316323                0.84181059                0.92407907               -1.11004718                0.69856111                1.57775326               21.61552811               -0.15106056
               9.11574323                0.10682140               13.02907722                1.00000000                0.13112425                0.12505267               -0.39307645                1.43661414               10.91458731                0.39314278
              10.11795430                0.05492327               12.87057562                1.00000000                0.32209672                0.33850525               -1.07766066               -0.10656661               -0.29533716                0.00608143
              11.12218517                0.00270920               12.71194159                1.00000000                0.42308655                0.55206659               -1.76224273               -0.09086112               -0.31117964               -0.33545270
               1.04474138                1.28030205               13.31346496                1.00000000               -0.41692407               -0.51098395                1.67887865               -0.02554955               -0.02597395                0.56688949
               2.04057214                1.23666768               13.17268680                1.00000000               -0.33267823               -0.34358613                1.13521425                0.00288986               -0.02973275                0.14834815
               3.03808781                1.19245039               13.03149992                0.77110570               -0.16838714               -0.18043917                0.58910253               -0.00701958               -0.02913358               -0.09163973
               4.03720439                1.14751689               12.89080998                0.09752518               -0.01760384               -0.02395119                0.08111296               -0.01647837               -0.01776728               -0.23388468
               5.03773574                1.10198274               12.75026868                0.23088078                1.87118781                0.12381519               -0.40042432                2.45927899               10.25884875               -0.30776253
               6.07462815                1.10519143               12.81536944                0.30675843                3.70640203               -1.52221584                0.37728821                3.35224572               20.61508093                0.68449932
               7.11186378                1.11279278               12.87679611                0.21707467                3.39457844               -1.70550968                0.77122429                3.00448019               21.18460019               -0.14426149
               8.14251972                1.11643857               12.94346821                0.38229046                2.72767394               -1.52662986                0.50456101                2.91853550               22.51037471               -0.98109968
               9.16641726                1.10807192               13.01857925                1.00000000                1.32125080                0.13975771               -0.49350130                2.05408398               11.72058665                0.39796987
              10.16894474                1.05830833               12.85971281                1.00000000                0.35366888                0.35308070               -1.17821616                0.00003893                0.05619029                0.08777354
              11.17349063                1.00822986               12.70117516                1.00000000                0.45458984                0.56725192               -1.86280710                0.01547098                0.06402367               -0.41029406
               1.08730690                2.27546538               13.28450879                1.00000000               -0.36082129               -0.45668232                1.48995415               -0.02183372                0.06938454                0.78238125
               2.08369869                2.23350568               13.14158050                1.00000000               -0.27812253               -0.28716665                0.95037094                0.00173938                0.14953319                0.17747705
               3.08174445                2.19092799               13.00005623                0.38282571               -0.11333524               -0.12122173                0.40483559               -0.01806550                0.27887087               -0.23899552
               4.08143198                2.14758058               12.85992075                0.00010000                0.04971781                0.04238942               -0.11763865               -0.04184584                0.46873368               -0.48858529
               5.08273881                2.10346734               12.72267760                0.00010000                1.69517374                0.58506837               -0.61915269                2.74279594               11.56364715                4.76912533
               6.11533546                2.09612947               12.80532764                0.00010000                3.16826534               -0.74501798                0.28360091                3.94782630               21.13901271                1.48004837
               7.14610411                2.09553195               12.85355990                0.00010000                3.15439648               -1.50996581                0.61242683                3.73574015               20.20786688               -0.24362974
               8.17842339                2.09700644               12.90708342                0.00010000                3.44255210               -1.69202065                0.35472165                4.16034383               23.46703329               -2.12114910
               9.21495515                2.10961655               13.00752583                0.43153872                1.96868780               -1.06135649               -0.59417811                1.85967957               13.46609663               -5.92597200
              10.21779714                2.06198489               12.85039312                1.00000000                0.38481817                0.37632202               -1.27823197               -0.00517352                0.41253124                0.42170588
              11.22265152                2.01405423               12.68938503                1.00000000                0.48543751                0.59981213               -1.96391592                0.01097604                0.21076804               -0.43665534
               1.12822411                3.27116840               13.25596958                1.00000000               -0.30797884               -0.40560959                1.29989996               -0.01490156                0.08069882                0.80193303
               2.12514432                3.23092435               13.10967267                1.00000000               -0.22862491               -0.22813332                0.77204193                0.00592707                0.24867577                0.11571857
               3.12365161                3.19002596               12.96661001                0.18678320               -0.06580961               -0.05742174                0.22766116               -0.02837517                0.56275593               -0.69224797
               4.12382813                3.14836468               12.82687444                0.00010000                1.01955755                0.08020221               -0.33572280                0.30083480                6.15356304               -1.77117618
               5.14404276                3.11368411               12.79622712                0.00010000                1.88459725                0.53544285               -0.17846510                2.12596863               13.37399789                5.58853339
               6.16152007                3.09029107               12.79817078                0.00010000                2.08294244               -0.37306835                0.02091432                2.84231014               16.62990780                1.63086093
               7.18570161                3.08259347               12.82825152                0.00010000                2.50609599               -1.05365450                0.19966499                3.50449119               18.69583947               -0.43010790
               8.21164199                3.08259816               12.86274604                0.00010000                2.64653975               -1.34367610               -0.03463969                3.74168971               18.10095846               -2.83039579
               9.23863240                3.08684479               12.86988706                0.25484090                2.63807963               -1.87960692               -0.64634681                2.46009846               15.60896996               -7.51221939
              10.26440358                3.06583477               12.84610209                1.00000000                1.54695306                0.39977452               -1.37663482                1.21387779                7.17579813                0.60262554
              11.26957146                3.02022610               12.67855036                1.00000000                0.51678811                0.63224615               -2.06551302                0.01456229               -0.02001894               -0.38875512
               1.16749699                4.26735319               13.22651962                1.00000000               -0.25373125               -0.36398874                1.10773375               -0.01042997                0.15330286                0.69005421
               2.16495967                4.22894301               13.07706038                1.00000000               -0.18801863               -0.16859117                0.60214515                0.01364202                0.10138708               -0.03684935
               3.16373661                4.18977955               12.92632556                0.09343183               -0.05845730               -0.02501060                0.10094036               -0.02556040               -0.20330986               -0.64943329
               4.16379053                4.14918462               12.77090143                0.00010000                0.97975882                0.09145332               -0.26398973                0.23269273                8.03210287               -1.58180781
               5.18333179                4.11417620               12.78515372                0.00010000                1.97408873               -0.00147958               -0.36521525                0.84987437               16.19951605                0.94828652
               6.20327230                4.08866811               12.79094083                0.00010000                2.02775291               -0.14606358               -0.34141409                1.88979894               16.17015890                1.05273630
               7.22388685                4.07445886               12.80050553                0.00010000                2.28667767               -0.63664091               -0.35217920                2.64786405               16.79527578               -0.83872957
               8.24900585                4.07013292               12.81121713                0.00010000                2.85168327               -1.11001256               -0.55686260                3.25415667               17.52577812               -3.09793659
               9.28092051                4.07202441               12.82553565                0.25094775                2.98437671               -1.51564209               -0.96644418                3.48439051               18.24334794               -3.84888566
              10.30869339                4.06998038               12.84024385                1.00000000                1.66197889                0.42969962               -1.47634460                2.04576955                9.32740108                0.46034728
              11.31416009                4.02669916               12.66817136                1.00000000                0.54667012                0.66239221               -2.16777294                0.01500551               -0.01821275               -0.36359826
               1.20483586                5.26388863               13.19499693                1.00000000               -0.18450648               -0.32126756                0.91779005               -0.02489696                0.21595823                0.54769578
               2.20299080                5.22755252               13.04198711                0.82735725               -0.09685326               -0.10208085                0.43184734               -0.06026186                0.50701673               -0.40910457
               3.20289879                5.18952575               12.89456145                0.04739321                0.05472711                0.05374651               -0.01501048                0.12003792                0.62910123                0.27931442
               4.20408534                5.15019375               12.74416413                0.00010000                0.93289837                0.09259716               -0.45387576                0.26128230                9.07341526                0.01561644
               5.22155676                5.11365452               12.76650598                0.00010000                1.74740271                0.08660649               -0.79552801                0.56608494               16.93790573                1.45545695
               6.23903339                5.08736980               12.77385742                0.00010000                1.78186551                0.00380197               -0.77627261                1.19993439               15.81603636                0.39034947
               7.25719407                5.06986065               12.76950594                0.00010000                2.00630880               -0.25964246               -0.86629004                1.65507275               15.50880990               -1.36677225
               8.27915957                5.06039791               12.76354014                0.00010000                2.56393423               -0.67615971               -1.09247343                1.83982429               16.06557213               -3.50407525
               9.30847276                5.05653195               12.76175564                0.26227517                3.57423320               -1.04463680               -1.41186201                2.43938605               20.43647853               -6.03583853
              10.35064423                5.07442876               12.83294094                0.96370698                2.39806311               -0.87412925               -1.57732340                0.11884266               12.50415831              -10.48746625
              11.35643402                5.03347395               12.65827353                1.00000000                0.57897880                1.15091664               -2.27014276               -2.14127616                0.20603740               -8.55178041
               1.23967126                6.26092784               13.16211429                1.00000000               -0.15539427               -0.25177672                0.72523507               -0.01948762               -0.04474962                0.41217196
               2.23811732                6.22690140               13.00204196                0.69693125                0.19124439               -0.05551699                0.28986891               -0.07715803                1.54014182               -0.51441270
               3.24349615                6.19085448               12.87352257                0.03076541                0.33850421                0.04508760               -0.13598068               -0.14855966                1.62111182                3.09528667
               4.24488740                6.15103656               12.72077530                0.00010000                0.69906445                0.19789138               -0.89769985                0.20114493               10.32166667                6.64815770
               5.25747744                6.11590833               12.76754494                0.00010000                1.30887280                0.34792326               -1.31350761                0.30606676               17.37501788                2.49382539
               6.27106486                6.08874414               12.75740075                0.00010000                1.32413781                0.28002200               -1.10720640                0.59534163               14.36015382                0.28135118
               7.28396019                6.06926601               12.73631796                0.00010000                1.40330905                0.14725248               -1.28346509                0.83960790               13.80533969               -1.72773093
               8.29913104                6.05660973               12.70919088                0.00010000                1.58585931               -0.03325260               -1.55110492                0.90735997               13.61955714               -4.10448630
               9.31567738                6.05113168               12.67862014                0.27898624                1.74986044               -0.16410792               -1.88251248                0.66007961               11.71611645               -7.58611861
              10.33412825                6.05249779               12.60794420                0.88778447                1.87834058               -1.18653268               -2.32975343               -0.71827137                7.24349746              -16.10015395
              11.35324419                6.04971749               12.48455268                1.00000000                1.91159435                0.69830192               -2.89143734               -0.54616374                4.61930031              -14.29247478
               1.27249899                7.25885309               13.12738414                1.00000000               -0.09780019               -0.16404713                0.54326948                0.11514716                0.20549263                4.74925416
               2.27152099                7.22644218               12.96504415                0.62583917                0.16467221               -0.12061626                0.12939942               -0.02721086                5.17295512                5.07096663
               3.27579244                7.19042750               12.90197498                0.03090686                0.57667016               -0.01335359               -0.45778586               -0.41282309                9.60059461                5.41454191
               4.28305439                7.15415157               12.82799244                0.00010000                0.70890404                0.31199560               -1.11279335               -0.18332365                9.96948493                8.46181129
               5.28997052                7.12061298               12.77558790                0.00010000                0.72640759                0.47020966               -1.18704627               -0.15057989               11.98158221                2.73207664
               6.29758254                7.09297024               12.74329163                0.00010000                0.80750653                0.49615237               -1.35214300                0.07453208               12.67501784                0.22160580
               7.30612065                7.07280570               12.70366818                0.00010000                0.89292761                0.48786172               -1.59212941                0.41736517               11.99892956               -1.72472427
               8.31544110                7.05973285               12.65502283                0.00010000                0.98328182                0.49115883               -1.92397787                0.64415567               10.77017765               -3.86031443
               9.32578628                7.05324979               12.58828536                0.30020944                1.11259478                0.42500643               -2.33001329                0.70840106                8.43836749               -6.68670486
              10.33769299                7.05069811               12.49140525                0.85161546                1.26425349                0.16658504               -2.82060678                0.41056570                4.68180597               -8.76722834
              11.35107135                7.04743999               12.34939129                1.00000000                1.33783611               -0.01077354               -3.41305938                0.03551904                2.37391816               -9.77434227
               1.30679603                8.25764690               13.18084408                1.00000000               -0.07973321               -0.23087263                0.85759910               -0.01495721                2.45453749                7.79145349
               2.30599870                8.22448907               13.03698936                0.60689424                0.03671340               -0.18314115                0.34892344               -0.09263160                4.28655180                7.75115957
               3.30753030                8.19058741               12.92838087                0.03707526                0.25183741                0.00993583               -0.19859898               -0.32978108                7.53631983                4.54754107
               4.31103544                8.15727648               12.84989394                0.00010000                0.40584400                0.24249885               -0.69221511               -0.54662534                9.65648547                3.30461262
               5.31564718                8.12531252               12.78537905                0.00010000                0.46636695                0.45338655               -1.13635473               -0.47929269               10.70802141                1.98495137
               6.32036278                8.09866719               12.73005369                0.00010000                0.49488517                0.59776007               -1.47730347               -0.15332674               11.11653457                0.13276647
               7.32554488                8.07902324               12.67469702                0.00010000                0.56036372                0.68770906               -1.82469689                0.23565454               10.59375108               -1.36983842
               8.33157006                8.06643290               12.60915920                0.00515906                0.66676343                0.75703685               -2.21752812                0.58141614                9.15627988               -2.84916455
               9.33888015                8.05963181               12.52510937                0.32650046                0.82896560                0.76157319               -2.66978347                0.77045084                6.82269074               -4.24958481
              10.34814937                8.05582949               12.41342491                0.85952032                1.07953318                0.67573481               -3.19206080                0.60632960                3.65040005               -5.31640665
              11.36047081                8.04950202               12.26710598                1.00000000                1.23214418                0.50613927               -3.78745167                0.37725668                1.84730348               -5.61345241
               1.33851550                9.25423564               13.20664900                1.00000000               -0.17876549               -0.32324758                0.92754102               -0.06314954                2.04051036                4.39437205
               2.33672784                9.22277936               13.05378246                0.62887976               -0.10530429               -0.14916181                0.42080240               -0.15903042                3.96324767                3.36803240
               3.33640941                9.19062622               12.93858325                0.03029814                0.03344679                0.03853636               -0.13402861               -0.30303719                7.17884997                2.50880309
               4.33739678                9.15900155               12.85046379                0.00010000                0.12922677                0.23580299               -0.67649027               -0.38670352                9.30093136                1.53615833
               5.33899395                9.12968071               12.77962961                0.00010000                0.17042556                0.48477797               -1.15556044               -0.34997691               10.40479911                0.77960328
               6.34080529                9.10492544               12.71618095                0.00010000                0.20370394                0.68379321               -1.58732221               -0.15062716               10.59033781                0.01329054
               7.34306802                9.08655988               12.65158318                0.00010000                0.28277831                0.82390318               -2.00185535                0.13293794                9.93705580               -0.76638228
               8.34646085                9.07487359               12.57719247                0.01744200                0.43653427                0.91769526               -2.43815104                0.39986347                8.44838202               -1.47687532
               9.35179871                9.06848126               12.48472901                0.35641492                0.67442583                0.96236945               -2.92004291                0.54506089                6.18450394               -2.08916753
              10.35994937                9.06421280               12.36692094                0.91567212                0.97363642                0.94995518               -3.45914588                0.43700577                3.27981610               -2.49883783
              11.37127144                9.05756277               12.21824821                0.96979229                1.13220673                0.99429270               -4.05578108                0.26661709                1.64224855               -2.67289891
               1.36844560               10.25118195               13.18987801                1.00000000               -0.20180885               -0.30536967                0.89652814                0.02539959                2.52631055                2.36355534
               2.36642751               10.22150584               13.03646691                0.84512699               -0.15991203               -0.12735234                0.39091682               -0.02122311                4.52096926                1.73758160
               3.36524736               10.19135814               12.92226336                0.52043244               -0.10903196                0.07319240               -0.18903832               -0.09186999                7.79886403                1.24690250
               4.36424687               10.16199254               12.83526764                0.35965255               -0.12618057                0.29909853               -0.74712233               -0.13249332                9.85142079                0.79886550
               5.36272375               10.13500808               12.76478556                0.35406947               -0.18879006                0.53273654               -1.24991918               -0.10949357               10.83530421                0.35572095
               6.36047107               10.11234306               12.70128242                0.37560406               -0.22341326                0.74176188               -1.70439474               -0.00876031               10.88145803               -0.03288453
               7.35825548               10.09550131               12.63578196                0.42157627               -0.14125618                0.89414240               -2.14226848                0.14093365               10.07103794               -0.41614965
               8.35764595               10.08478681               12.55990796                0.51377563                0.10933343                0.99132194               -2.59582631                0.28740397                8.46826175               -0.77297804
               9.36044215               10.07887920               12.46583479                0.69200332                0.50810108                1.03979370               -3.08984950                0.36643372                6.15837166               -1.06417838
              10.36780797               10.07482860               12.34683210                0.99380055                0.93305304                1.06157960               -3.63743002                0.31129386                3.27547856               -1.25844368
              11.37910321               10.06938787               12.19763643                1.00000000                1.12952429                1.18251011               -4.23572864                0.23910499                1.65608672               -1.37753283
               1.14081562                0.32247197               14.36369146                1.00000000               -0.45660915               -0.50770059                1.77407983               -0.10656965               -0.31179926                0.37788488
               2.13624953                0.27431583               14.21787392                1.00000000               -0.38152933               -0.35797954                1.28306948               -0.07817822               -0.40075148                0.08443461
               3.13318504                0.22563596               14.06991011                1.00000000               -0.23448159               -0.21392075                0.79450228               -0.07713155               -0.50062496               -0.03544096
               4.13155990                0.17642474               13.92206001                0.61927522               -0.09259556               -0.07050685                0.32014710               -0.07680318               -0.39228936               -0.08857891
               5.13133313                0.12661692               13.77651280                0.68628967                3.55487230                0.08310024               -0.15980811                3.68588194               10.26430002               -0.35538518
               6.20265735                0.15151569               13.84214660                0.76046249                5.72570604               -2.20998764                0.35086651                3.08527344               21.08435769                0.18375114
               7.24584725                0.15226008               13.90527806                0.74629820                3.33260107               -1.73194801                0.51378487                1.53442547               21.39348382                0.01955633
               8.26930937                0.14734756               13.96720842                0.84693862                1.43771654               -1.15548081                0.22882385                1.55766193               21.64300924               -0.07398522
               9.27460158                0.12176060               14.02462541                1.00000000                0.38394314                0.15776216               -0.49755454                1.38264009               10.80849966                0.39446867
              10.27698823                0.06635070               13.85972954                1.00000000                0.32625851                0.34313163               -1.09162130               -0.09243678               -0.29621089                0.00606662
              11.28112675                0.01061935               13.69470171                1.00000000                0.41385170                0.52839359               -1.68548800               -0.07644859               -0.31217829               -0.33668968
               1.18790607                1.31739496               14.32977986                1.00000000               -0.40203124               -0.47741638                1.59107112               -0.02906591               -0.03404024                0.56110374
               2.18388576                1.27073603               14.18385941                1.00000000               -0.32734018               -0.33017086                1.10067538               -0.00537816               -0.04063332                0.15158148
               3.18135926                1.22349675               14.03751618                0.78261800               -0.17921827               -0.18428228                0.60996907               -0.00928872               -0.02879353               -0.08624344
               4.18030139                1.17571968               13.89187074                0.10769173               -0.03563962               -0.04019652                0.13196470               -0.00489393                0.00103303               -0.23771520
               5.18064647                1.12744792               13.74637519                0.24620875                2.01935551                0.10951015               -0.35123128                2.54199749               10.83313693               -0.34010710
               6.22068850                1.12941582               13.81772458                0.32529127                4.13145476               -1.58186665                0.14103530                3.47762783               21.63907973                0.73503836
               7.26327557                1.13494060               13.88150393                0.23183483                3.97236130               -1.74476290                0.29914555                3.06564600               21.81960203               -0.12998182
               8.30013573                1.13579276               13.94546947                0.39379235                3.28254214               -1.56480373                0.03625932                2.91845912               22.63174021               -0.97753081
               9.32892641                1.12333823               14.01311305                1.00000000                1.57493823                0.17266461               -0.60002831                2.03902630               11.66731938                0.39932006
              10.33163449                1.06978202               13.84785122                1.00000000                0.35836030                0.35816513               -1.19416993                0.00013018                0.05659711                0.08816050
              11.33609362                1.01590329               13.68291962                1.00000000                0.44591249                0.54396126               -1.78811843                0.01578026                0.06430677               -0.41183763
               1.23355216                2.31292364               14.29895945                1.00000000               -0.35119844               -0.41849696                1.40780151               -0.02134762                0.06059874                0.76860313
               2.23004018                2.26771241               14.15094150                1.00000000               -0.27682724               -0.27459492                0.92282051                0.00086606                0.13550945                0.18318056
               3.22801562                2.22195031               14.00422215                0.39701260               -0.12646633               -0.12858240                0.42316553               -0.00871986                0.27346915               -0.22885269
               4.22751085                2.17562081               13.85905022                0.00010000                0.02306579                0.02224114               -0.06622133               -0.01268210                0.48887735               -0.50952885
               5.22847694                2.12880712               13.71697159                0.00010000                1.86031848                0.57552593               -0.53071035                2.94026849               12.18856564                5.02433324
               6.26471722                2.11987836               13.80643173                0.00010000                3.61531465               -0.78730587                0.01946297                4.15030159               22.19364553                1.41604010
               7.30078323                2.11736482               13.85639575                0.00010000                3.72818514               -1.54142566                0.11918505                3.83049661               20.80801995               -0.43969680
               8.33928093                2.11605149               13.90739174                0.00010000                4.03048062               -1.71331821               -0.12799597                4.13039644               23.60056557               -2.31792545
               9.38139284                2.12521390               14.00104255                0.43825406                2.25724246               -1.02795506               -0.70273780                1.73080558               13.44796358               -5.92863823
              10.38442578                2.07351401               13.83752001                1.00000000                0.39034898                0.38324238               -1.29662425               -0.00370917                0.41407224                0.42357298
              11.38919982                2.02149858               13.67010661                1.00000000                0.47740456                0.57706383               -1.89187612                0.01215480                0.21144674               -0.43827038
               1.27790157                3.30902502               14.26854579                1.00000000               -0.30251703               -0.36880486                1.22205825               -0.00692247                0.07382088                0.77681582
               2.27487640                3.26524413               14.11731588                1.00000000               -0.23125550               -0.22012511                0.75800392                0.02031076                0.23171214                0.12491800
               3.27327646                3.22092510               13.96910433                0.19933910               -0.08427314               -0.08511815                0.26401524                0.00863169                0.52511156               -0.63957162
               4.27319094                3.17616450               13.82395831                0.00010000                1.09589160               -0.00706244               -0.27683635                0.38108050                6.44372856               -1.63919704
               5.29519430                3.13895844               13.79441715                0.00010000                2.09729447                0.51096994               -0.18443169                2.35588397               14.06123044                5.84247341
               6.31513683                3.11366970               13.79736729                0.00010000                2.42590373               -0.42931644               -0.13876892                3.04440628               17.33360027                1.41865176
               7.34371237                3.10411209               13.82814382                0.00010000                2.98788758               -1.12384572               -0.12831500                3.59820105               19.23400622               -0.84835980
               8.37489458                3.10152639               13.86026327                0.00010000                3.11838177               -1.39524802               -0.36709827                3.71193325               18.31288626               -3.23367051
               9.40608001                3.10277913               13.86230939                0.25404482                3.01905237               -1.88600434               -0.82806524                2.32863328               15.62163749               -7.65681978
              10.43527563                3.07744687               13.83223119                1.00000000                1.71437836                0.40820791               -1.39797930                1.21746302                7.18307782                0.60573366
              11.44036757                3.02744456               13.65824411                1.00000000                0.50919439                0.61014574               -1.99564196                0.01526723               -0.02009637               -0.39013930
               1.32097549                4.30554754               14.23718860                1.00000000               -0.24291771               -0.33391547                1.03203098               -0.00134117                0.14933696                0.65607045
               2.31854631                4.26330991               14.08307331                1.00000000               -0.18538014               -0.16815650                0.59666086                0.02254385                0.10465446               -0.02513890
               3.31726789                4.22024795               13.92776321                0.10399901               -0.07235932               -0.06135915                0.18890869               -0.03163335               -0.14249940               -0.57716982
               4.31709913                4.17547956               13.76876038                0.00010000                1.04107627                0.00590492               -0.12869448                0.34715865                8.23882981               -1.46605245
               5.33808941                4.13902652               13.78188819                0.00010000                2.16762859               -0.08121029               -0.29667285                1.00310074               16.65807674                0.82561387
               6.36045170                4.11129203               13.78746654                0.00010000                2.34005715               -0.27183286               -0.35648501                1.98001467               16.72000144                0.74297018
               7.38489056                4.09488791               13.79636555                0.00010000                2.72004269               -0.79248644               -0.46162812                2.68301769               17.25416639               -1.31861403
               8.41485255                4.08814653               13.80485424                0.00010000                3.35772373               -1.26367218               -0.69466562                3.22698336               17.81546129               -3.58107526
               9.45204503                4.08749381               13.81538418                0.24810068                3.46285221               -1.65279609               -1.05668178                3.44224352               18.42180199               -4.16255124
              10.48410960                4.08167816               13.82536077                1.00000000                1.87323713                0.43864732               -1.50088898                2.09171370                9.41399687                0.46269519
              11.48950977                4.03370149               13.64683069                1.00000000                0.54001766                0.64098101               -2.09949041                0.01582158               -0.01816935               -0.36487925
               1.36235002                5.30234671               14.20378271                1.00000000               -0.17231453               -0.29724085                0.84714519               -0.02255516                0.20492113                0.51076756
               2.36062687                5.26188100               14.04636302                0.81756659               -0.09379393               -0.10623569                0.43370542               -0.06133833                0.51234701               -0.38220430
               3.36047414                5.21969792               13.89483206                0.05623808                0.03643355               -0.01044451                0.04468474                0.05881628                0.66660256                0.33822853
               4.36135554                5.17628260               13.74027887                0.00010000                0.94848521                0.08253341               -0.36379753                0.29221725                9.22650644               -0.06822015
               5.37944384                5.13733423               13.76010646                0.00010000                1.87600953               -0.08547549               -0.54287747                0.64114925               17.36197824                1.22394990
               6.39887573                5.10823304               13.76658654                0.00010000                2.05371912               -0.19764573               -0.67629097                1.18151553               16.31812251                0.06691521
               7.42051823                5.08826236               13.76111823                0.00010000                2.39763064               -0.48108085               -0.82884283                1.61433144               15.92601935               -1.76401138
               8.44682835                5.07625295               13.75281042                0.00010000                3.04375075               -0.90127570               -1.07392292                1.69422987               16.38014882               -3.94175479
               9.48139324                5.06972320               13.74778925                0.25873819                4.20369375               -1.25719175               -1.39597136                2.22817722               20.78708498               -6.41449949
              10.53090222                5.08621981               13.81703107                0.94762054                2.76220553               -0.94712487               -1.60570861               -0.33637773               12.73188106              -10.77188326
              11.53663735                5.04026418               13.63589436                1.00000000                0.57351295                1.40631848               -2.20457566               -2.76458422                0.20738045               -8.78298688
               1.40145581                6.29960272               14.16903730                1.00000000               -0.14874655               -0.23197613                0.66726091               -0.01851020               -0.04263315                0.37786700
               2.39996834                6.26118519               14.00502671                0.68897956                0.12934074               -0.06111309                0.30150860               -0.11571303                1.53402380               -0.47717695
               3.40404262                6.22003906               13.87243502                0.03755718                0.26694098               -0.01815341               -0.13098061               -0.12876278                1.73146489                3.24282477
               4.40530716                6.17713023               13.71384017                0.00010000                0.74596664                0.11001933               -0.59386740                0.22186594               10.53023327                6.71109697
               5.41896195                6.13731701               13.75784688                0.00010000                1.39233623                0.12850240               -0.81938644                0.28410342               18.02286678                2.45829479
               6.43315388                6.10733912               13.74651998                0.00010000                1.50976632                0.06941617               -0.99034288                0.62199268               14.84012961                0.10928632
               7.44915728                6.08526629               13.72421829                0.00010000                1.70612109               -0.06930658               -1.16909453                0.77294895               14.18403052               -2.00376956
               8.46727631                6.07012102               13.69427709                0.00010000                1.87422154               -0.23051396               -1.44981373                0.70680341               13.89808325               -4.43711973
               9.48664171                6.06234998               13.66036713                0.27535143                1.97823783               -0.30413604               -1.78491246                0.31570228               11.92281942               -7.94487079
              10.50684106                6.06273567               13.58527557                0.87297269                1.97438201               -1.26938626               -2.21227462               -1.21556677                7.36053135              -16.57123760
              11.52612935                6.06182786               13.45654658                1.00000000                1.92882880                0.93854174               -2.71577199               -0.92230793                4.70179949              -14.69643025
               1.43881487                7.29770719               14.13255360                1.00000000               -0.09385979               -0.15067738                0.49758312                0.09617236                0.18520119                4.90870727
               2.43787628                7.26065874               13.96647473                0.61918205                0.15694847               -0.14121052                0.14818143               -0.06150115                5.11307719                5.24689016
               3.44195384                7.21933485               13.89886539                0.03527422                0.53193174               -0.06752415               -0.22898643               -0.38199870                9.49164050                5.68868314
               4.44851491                7.17848298               13.82018954                0.00010000                0.64815916                0.13374257               -0.64807894               -0.16287854               10.08638030                8.97610813
               5.45491703                7.13990428               13.76478862                0.00010000                0.74256968                0.33683399               -0.95583292               -0.12162051               12.30261855                2.88971239
               6.46336631                7.10962137               13.73066121                0.00010000                0.91391393                0.34191818               -1.18222308                0.17471557               13.03878656                0.20397114
               7.47319531                7.08687623               13.68848499                0.00010000                1.02572127                0.33555144               -1.45098152                0.38674005               12.27758009               -1.89043372
               8.48388073                7.07164267               13.63659245                0.00010000                1.09486641                0.36570130               -1.77741421                0.52104664               10.98325489               -4.08673760
               9.49509263                7.06364048               13.56585541                0.29682505                1.16161350                0.35755330               -2.16861899                0.52947896                8.58408658               -6.96314407
              10.50711300                7.06083209               13.46422415                0.83719576                1.24570857                0.13911097               -2.62541647                0.26565389                4.75392998               -9.06304088
              11.52000681                7.05903502               13.31661662                1.00000000                1.28938049               -0.11199702               -3.15203464               -0.06629263                2.40960867              -10.07115899
               1.47747615                8.29658918               14.18809946                1.00000000               -0.03654934               -0.19660108                0.66717267               -0.06062450                2.42053691                8.07554139
               2.47711065                8.25836098               14.03972016                0.60105861                0.05511280               -0.18448545                0.25201794               -0.15817064                4.19479790                8.00229160
               3.47857840                8.21868858               13.92607172                0.03870050                0.21847521               -0.00880165               -0.19862627               -0.41941897                7.44971631                4.82413342
               4.48148016                8.17980508               13.84268515                0.00010000                0.34063781                0.18705021               -0.63639075               -0.54162790                9.69892717                3.58055156
               5.48539116                8.14405369               13.77476676                0.00010000                0.40980451                0.42279467               -0.98731067               -0.38691235               10.88660706                2.15778929
               6.48967625                8.11417748               13.71607376                0.00010000                0.47398083                0.52213866               -1.32204906               -0.09474725               11.31734361                0.14291621
               7.49487078                8.09197732               13.65729109                0.00010000                0.56283671                0.60427510               -1.66511065                0.24508105               10.78775147               -1.44966443
               8.50093298                8.07743504               13.58790242                0.00508724                0.65855466                0.68516668               -2.04360238                0.55006006                9.31182027               -2.98681016
               9.50804187                8.06950104               13.49946243                0.32369601                0.79133106                0.71058026               -2.46941412                0.74040886                6.92878299               -4.41972231
              10.51675960                8.06551789               13.38276904                0.84470919                1.01778844                0.61691267               -2.94843091                0.60181574                3.70127160               -5.50176442
              11.52839764                8.05958792               13.23083575                1.00000000                1.16380345                0.36071876               -3.47794534                0.38022581                1.87398424               -5.79445001
               1.51405877                9.29377517               14.21461550                1.00000000               -0.14453071               -0.25665766                0.72368419               -0.09321039                2.01060025                4.49060872
               2.51261346                9.25696903               14.05714811                0.62296289               -0.09687040               -0.10504914                0.29227135               -0.20738063                3.90345745                3.47284354
               3.51212136                9.21915882               13.93696609                0.02849038               -0.01481120                0.08641149               -0.16795488               -0.36208275                7.11787455                2.62934933
               4.51231724                9.18222399               13.84404260                0.00010000                0.03425102                0.29098907               -0.61858145               -0.41719091                9.29297615                1.66433984
               5.51280638                9.14836017               13.76861779                0.00010000                0.06152442                0.49512986               -1.04477727               -0.34212006               10.46955061                0.84943228
               6.51354773                9.12006414               13.70107369                0.00010000                0.10164910                0.66605213               -1.44094919               -0.12520754               10.71419377                0.02714102
               7.51483937                9.09896173               13.63243654                0.00010000                0.19052407                0.78881659               -1.83461527                0.14812089               10.07200432               -0.80070653
               8.51735821                9.08534600               13.55380246                0.01804493                0.34893001                0.87658395               -2.24761324                0.41136637                8.56632107               -1.54108190
               9.52181797                9.07785209               13.45668797                0.35445560                0.58521130                0.91381314               -2.69607053                0.56814964                6.26631610               -2.17106756
              10.52906244                9.07317034               13.33373223                0.89994148                0.88266441                0.87448498               -3.18726091                0.46733954                3.31923250               -2.58752973
              11.53947125                9.06624939               13.17942948                0.97172149                1.04088179                0.86739273               -3.71925314                0.28476372                1.66373510               -2.75867880
               1.54922421               10.29145602               14.19767479                1.00000000               -0.16448194               -0.23191437                0.68844154               -0.00305843                2.47198137                2.37284623
               2.54757939               10.25626000               14.03959213                0.84267785               -0.15712086               -0.07090316                0.24929578               -0.05536824                4.43732526                1.76497037
               3.54608179               10.22041681               13.92018013                0.51888375               -0.18222033                0.12579876               -0.22809243               -0.13571376                7.70595238                1.28143645
               4.54393498               10.18562487               13.82802535                0.36041521               -0.26865931                0.34008782               -0.70230548               -0.16125157                9.81681811                0.82516824
               5.54070861               10.15395629               13.75285819                0.35433384               -0.36822208                0.55961121               -1.14578334               -0.11609481               10.87794819                0.38494473
               6.53657054               10.12749852               13.68498294                0.37549631               -0.40786383                0.74343840               -1.56309873               -0.00785031               10.97724738               -0.02868146
               7.53255133               10.10775365               13.61525269                0.42127830               -0.31502957                0.87919227               -1.97190254                0.14460633               10.18733856               -0.43190950
               8.53026995               10.09496672               13.53499054                0.51439310               -0.04854036                0.96207174               -2.39595873                0.29235675                8.57151686               -0.80379914
               9.53158052               10.08777730               13.43616622                0.69157758                0.37195687                0.99252164               -2.85227333                0.37829902                6.22866884               -1.10291643
              10.53770909               10.08300759               13.31194596                0.98583898                0.81771435                0.98372440               -3.34887251                0.32258879                3.30687031               -1.29974342
              11.54793481               10.07693577               13.15710376                1.00000000                1.02257213                1.06863810               -3.88248739                0.23917445                1.67208395               -1.41496081
               1.28594825                0.36106597               15.38099493                1.00000000               -0.43926951               -0.48098299                1.68858051               -0.10176376               -0.30876425                0.37469089
               2.28155555                0.31009512               15.23051813                1.00000000               -0.37063925               -0.34633830                1.24401507               -0.07574735               -0.39537224                0.08620248
               3.27853546                0.25861583               15.07794255                1.00000000               -0.23550625               -0.22023369                0.80485314               -0.07491294               -0.48793768               -0.03203279
               4.27684543                0.20666656               14.92550067                0.62051845               -0.10541441               -0.08941786                0.36644669               -0.07080381               -0.37573994               -0.08360314
               5.27642718                0.15415854               14.77528386                0.69103508                3.75885234                0.05632733               -0.08093253                3.83306082               10.69684188               -0.34975976
               6.35202248                0.17909285               14.84466349                0.76792519                6.18211652               -2.34857840                0.19012721                3.19700358               21.84390313                0.22518730
               7.40006951                0.17758153               14.90857820                0.75258205                3.84110864               -1.85060742                0.21308676                1.56636171               21.81673597                0.06256209
               8.42884465                0.16953724               14.96773971                0.85147444                1.96613000               -1.28326077               -0.06035952                1.47777369               21.71176706               -0.04335239
               9.43939211                0.13773550               15.01912613                1.00000000                0.65545669                0.19056936               -0.60204844                1.26217827               10.78035545                0.39518359
              10.44195378                0.07880124               14.84874320                1.00000000                0.33025728                0.34798265               -1.10518623               -0.07816321               -0.29740504                0.00543920
              11.44599725                0.01953959               14.67823183                1.00000000                0.40434694                0.50486239               -1.60777562               -0.06189300               -0.31378925               -0.33918278
               1.33590147                1.35625614               15.34528638                1.00000000               -0.38783154               -0.44972313                1.51290629               -0.03211456               -0.03615906                0.55485604
               2.33202315                1.30663173               15.19470031                1.00000000               -0.32004275               -0.31911458                1.06709863               -0.01260150               -0.04176717                0.15533108
               3.32950061                1.25641349               15.04369930                0.79175162               -0.18285577               -0.19265248                0.62416614               -0.01448516               -0.02249547               -0.08315229
               4.32836604                1.20577238               14.89344927                0.11635468               -0.04779871               -0.06820637                0.18074032               -0.00385112                0.00996481               -0.24041468
               5.32854464                1.15472181               14.74324406                0.25962802                2.19574885                0.08767554               -0.26822110                2.62680586               11.25261088               -0.33363854
               6.37228101                1.15560707               14.81819014                0.34186181                4.59831452               -1.71426453               -0.00490441                3.60576884               22.37851864                0.76732562
               7.42051093                1.15907546               14.88277902                0.24533804                4.56321942               -1.87417092                0.02566098                3.11662773               22.27045155               -0.13063779
               8.46354540                1.15670463               14.94419340                0.40480638                3.84354803               -1.68415519               -0.22844153                2.87544936               22.77608736               -0.99703752
               9.49738189                1.13964119               15.00657869                1.00000000                1.83623517                0.20559737               -0.70704198                1.99852412               11.67917655                0.39999190
              10.50027011                1.08228106               14.83582941                1.00000000                0.36290421                0.36375729               -1.21026776                0.00038792                0.05703260                0.08762394
              11.50463997                1.02458821               14.66541279                1.00000000                0.43698677                0.52123740               -1.71322671                0.01621449                0.06452970               -0.41479830
               1.38455478                2.35207151               15.31266482                1.00000000               -0.34086019               -0.38902864                1.33721790               -0.02292426                0.05678005                0.75290363
               2.38114617                2.30371282               15.16003691                1.00000000               -0.27248322               -0.26704198                0.89706932               -0.00559314                0.12305186                0.19593741
               3.37910511                2.25476278               15.00851954                0.41046286               -0.13430433               -0.13600150                0.43896633               -0.01997971                0.25542283               -0.21474163
               4.37846009                2.20530243               14.85859632                0.00010000                0.00117476                0.00490945               -0.00111545                0.00865538                0.49535618               -0.53784974
               5.37912861                2.15591205               14.71206339                0.00010000                2.06620582                0.54475817               -0.45483198                3.14094363               12.64609884                5.27419531
               6.41978420                2.14480756               14.80571690                0.00010000                4.10879441               -0.89888890               -0.11388801                4.31852290               22.94535748                1.42601165
               7.46130450                2.14009811               14.85594360                0.00010000                4.30018486               -1.67094898               -0.12848831                3.90107018               21.24350792               -0.52198431
               8.50578790                2.13585413               14.90452350                0.00010000                4.62408298               -1.81211931               -0.37156531                4.09690395               23.77292510               -2.40713417
               9.55378616                2.14184744               14.99347108                0.44508934                2.56133100               -1.01372111               -0.81201400                1.59687963               13.48848799               -5.94689623
              10.55701452                2.08607638               14.82446063                1.00000000                0.39605476                0.39138083               -1.31595871               -0.00113995                0.41535794                0.42442978
              11.56170725                2.02996433               14.65154751                1.00000000                0.46927289                0.55555131               -1.82088817                0.01398061                0.21215303               -0.43990432
               1.43216035                3.34847557               15.28041075                1.00000000               -0.29403327               -0.34169137                1.15774192               -0.01049132                0.07630431                0.74438295
               2.42922002                3.30129089               15.12483275                1.00000000               -0.23244716               -0.21598661                0.74245400                0.02749315                0.21741879                0.14517331
               3.42751141                3.25369346               14.97189032                0.21174323               -0.09150722               -0.11271739                0.29185351                0.03370568                0.46871387               -0.56750932
               4.42738988                3.20587057               14.82133772                0.00010000                1.21734866               -0.08797138               -0.33086720                0.39527824                6.70140380               -1.53148408
               5.45185838                3.16561697               14.79253849                0.00010000                2.35377647                0.45435605               -0.15772931                2.52086386               14.59700905                6.12953810
               6.47446541                3.13762929               14.79539540                0.00010000                2.78136869               -0.52496477               -0.22560922                3.17251386               17.83573567                1.34994423
               7.50748576                3.12565648               14.82568522                0.00010000                3.46343720               -1.24929692               -0.30046930                3.65554666               19.63221798               -1.04620526
               8.54373415                3.12046224               14.85540407                0.00010000                3.58057382               -1.49449370               -0.54292111                3.71094191               18.51300878               -3.43673385
               9.57909723                3.11936677               14.85332575                0.25351039                3.41981341               -1.92769583               -0.93620228                2.23551517               15.68350409               -7.75107578
              10.61213042                3.09010868               14.81814250                1.00000000                1.90232259                0.41790085               -1.42077415                1.24223773                7.20454528                0.60817974
              11.61714369                3.03569924               14.63863752                1.00000000                0.50132677                0.58934939               -1.92623734                0.01653581               -0.01967126               -0.38826942
               1.47871430                4.34523768               15.24716024                1.00000000               -0.22361571               -0.31101482                0.97454303               -0.00379390                0.14535422                0.61635492
               2.47647815                4.29939309               15.08899360                1.00000000               -0.17573771               -0.16679316                0.57582195                0.01195558                0.12508695               -0.01117435
               3.47519955                4.25250843               14.93010373                0.11428303               -0.10180022               -0.10374756                0.28320647               -0.05232518               -0.03689586               -0.49679581
               4.47444214                4.20354300               14.76832754                0.00010000                1.12938087               -0.10605063                0.10973425                0.42209627                8.43761235               -1.24170794
               5.49778717                4.16499917               14.77922026                0.00010000                2.43764179               -0.17210721               -0.25687400                1.06977703               16.95257771                0.84380716
               6.52319498                4.13430826               14.78381113                0.00010000                2.68976531               -0.39873157               -0.36568914                2.00158388               17.11763357                0.58499801
               7.55158247                4.11511217               14.79127296                0.00010000                3.15507358               -0.94643995               -0.53163818                2.68304056               17.59749763               -1.59834984
               8.58629645                4.10596426               14.79732382                0.00010000                3.86337753               -1.41611396               -0.77933404                3.22693606               18.04944611               -3.87029727
               9.62885002                4.10329353               14.80440201                0.24557813                3.96151801               -1.80538779               -1.12016406                3.46833576               18.57050075               -4.36524978
              10.66552681                4.09443440               14.81022607                1.00000000                2.10034168                0.44838073               -1.52725194                2.17520581                9.48313941                0.46403002
              11.67085686                4.04175132               14.62618156                1.00000000                0.53300476                0.61995459               -2.02871887                0.01725986               -0.01760097               -0.36143038
               1.52377366                5.34225527               15.21193984                1.00000000               -0.15852722               -0.27616970                0.79584069               -0.02375060                0.18400883                0.47799125
               2.52218838                5.29795503               15.05066122                0.80826786               -0.07293312               -0.10734705                0.42227137               -0.08574164                0.49172100               -0.35315714
               3.52231499                5.25161851               14.89545515                0.06492176                0.05763403               -0.04153924                0.02615329               -0.00465151                0.63266667                0.36649482
               4.52334106                5.20374956               14.73688817                0.00010000                1.00868351                0.09024172               -0.33766461                0.30971910                9.32321760               -0.00666406
               5.54248866                5.16217483               14.75564843                0.00010000                2.05215060               -0.23035518               -0.37204509                0.66864446               17.66775610                1.16443501
               6.56438408                5.12965466               14.76033160                0.00010000                2.35009540               -0.37265331               -0.59482999                1.14269561               16.65229316               -0.13742103
               7.58949057                5.10672768               14.75292908                0.00010000                2.78537205               -0.66441630               -0.80765662                1.53932683               16.23480994               -2.05128896
               8.62009152                5.09213997               14.74206169                0.00010000                3.52516190               -1.09394788               -1.07144860                1.55893755               16.61764536               -4.25247575
               9.65999381                5.08325901               14.73383621                0.25558897                4.85426115               -1.45627092               -1.39318010                2.06107943               21.04119386               -6.69442911
              10.71717674                5.09907629               14.80082677                0.93097515                3.14306153               -1.02772205               -1.63666537               -0.77640352               12.89539483              -10.98606544
              11.72285504                5.04809833               14.61418202                1.00000000                0.56783000                1.66576531               -2.13491098               -3.40373132                0.20738910               -8.95779430
               1.56683978                6.33971429               15.17545951                1.00000000               -0.14397010               -0.21450942                0.62648996               -0.01745878               -0.04136971                0.35423995
               2.56540008                6.29724615               15.00807213                0.68154144                0.12361069               -0.06342459                0.30119182               -0.13771439                1.47528865               -0.44353169
               3.56931199                6.25167765               14.87090296                0.04437146                0.23400643               -0.05270251               -0.11199904               -0.11514345                1.69757284                3.41302231
               4.57008021                6.20534784               14.70889795                0.00010000                0.79714824                0.05395999               -0.39497256                0.21160626               10.62126530                6.88421544
               5.58525496                6.16039206               14.75115721                0.00010000                1.57079175               -0.03437357               -0.59349655                0.22849553               18.27765287                2.41370962
               6.60149604                6.12685520               14.73759389                0.00010000                1.73143721               -0.10793849               -0.83334866                0.58548049               15.16274759               -0.03772063
               7.61988370                6.10182385               14.71293607                0.00010000                1.97239129               -0.24017266               -1.08717669                0.67402684               14.45175244               -2.22652449
               8.64094387                6.08408530               14.68019461                0.00010000                2.16257911               -0.38835999               -1.37707408                0.49942631               14.10755345               -4.70552093
               9.66313528                6.07416811               14.64292189                0.27213430                2.21077792               -0.41837012               -1.71076210               -0.01814194               12.06204361               -8.23109211
              10.68515942                6.07387996               14.56369871                0.85789290                2.08014418               -1.35662353               -2.10796970               -1.71339240                7.43542126              -16.93568839
              11.70473817                6.07506663               14.43023724                1.00000000                1.95787421                1.18146534               -2.54974135               -1.30015575                4.75740615              -15.01430700
               1.60836076                7.33796508               15.13733580                1.00000000               -0.08900170               -0.13092335                0.46548526                0.12842459                0.16957065                5.03265218
               2.60747074                7.29668654               14.96800778                0.61306643                0.17748406               -0.16923135                0.15049448               -0.04391560                5.10968586                5.38635975
               3.61191044                7.25056446               14.89739525                0.03986738                0.56940164               -0.13541292               -0.09244833               -0.38050680                9.52553637                5.89617053
               4.61885877                7.20482876               14.81503086                0.00010000                0.68203893               -0.01566979               -0.42394019               -0.14191775               10.19900866                9.13660529
               5.62555122                7.16148736               14.75647124                0.00010000                0.79015653                0.21235347               -0.74424347               -0.12985597               12.52100648                2.95454242
               6.63466190                7.12749589               14.71964717                0.00010000                1.00948941                0.21289182               -1.03131800                0.15630734               13.27836831                0.14904099
               7.64574100                7.10192422               14.67464855                0.00010000                1.15369404                0.21272811               -1.32626666                0.32322098               12.48633990               -2.02545916
               8.65773578                7.08437277               14.61947455                0.00010000                1.20476560                0.27006973               -1.65562304                0.38293211               11.13646866               -4.28033515
               9.66983632                7.07489161               14.54491298                0.29381342                1.21372959                0.31183409               -2.02917222                0.35124848                8.68110401               -7.19229874
              10.68201037                7.07194382               14.43889692                0.82276495                1.23211369                0.12030847               -2.44774912                0.12390407                4.79770285               -9.30402175
              11.69447859                7.07172763               14.28635060                1.00000000                1.24682147               -0.21332315               -2.90937945               -0.16767410                2.43116591              -10.31584671
               1.65196536                8.33709582               15.19418754                1.00000000               -0.00429725               -0.17462974                0.58002737               -0.05835315                2.40750123                8.32534167
               2.65192239                8.29386152               15.04202972                0.59580061                0.07971371               -0.21611396                0.22721740               -0.15753836                4.16557253                8.21084693
               3.65355964                8.24896939               14.92440834                0.04077627                0.21982816               -0.07298306               -0.13255202               -0.44325540                7.43849935                5.00184596
               4.65631895                8.20503444               14.83716613                0.00010000                0.32155353                0.10596940               -0.49162109               -0.57922160                9.74743791                3.75837473
               5.65999071                8.16463913               14.76563284                0.00010000                0.39331832                0.35452830               -0.84301843               -0.40593782               11.00259871                2.25316345
               6.66418532                8.13111303               14.70361271                0.00010000                0.47402671                0.45315907               -1.17883403               -0.09761019               11.46770030                0.14701175
               7.66947124                8.10607841               14.64139481                0.00010000                0.57249018                0.53299618               -1.52163644                0.22060018               10.92682034               -1.52032852
               8.67563512                8.08948670               14.56828716                0.00512021                0.65589762                0.62955370               -1.88789690                0.50632180                9.42089919               -3.10492521
               9.68258919                8.08040479               14.47572109                0.32108114                0.75831794                0.67322533               -2.28739501                0.70791868                6.99849397               -4.56490788
              10.69080148                8.07628613               14.35445629                0.82982458                0.96139356                0.56707276               -2.72288686                0.59887586                3.73230141               -5.65908554
              11.70181707                8.07080016               14.19754707                1.00000000                1.10155833                0.21967751               -3.19054422                0.38505664                1.89069645               -5.95335816
               1.69366229                9.33447249               15.22112268                1.00000000               -0.12158822               -0.22877589                0.61058956               -0.10656437                1.99964813                4.62049040
               2.69244641                9.29236426               15.05962789                0.61765904               -0.08949391               -0.09721628                0.22877462               -0.23107020                3.87300374                3.58463259
               3.69187241                9.24910480               14.93522415                0.02733945               -0.04209060                0.07947014               -0.16300831               -0.40212785                7.08557399                2.73754245
               4.69160459                9.20694815               14.83809217                0.00010000               -0.02592710                0.27479823               -0.55553171               -0.44703299                9.30100866                1.75842664
               5.69135387                9.16857792               14.75873407                0.00010000               -0.01670862                0.47935205               -0.93417500               -0.35273341               10.52756635                0.91084892
               6.69127042                9.13655907               14.68736196                0.00010000                0.02127382                0.64189428               -1.30640719               -0.12787868               10.80090144                0.03912791
               7.69177934                9.11258415               14.61489088                0.00010000                0.11327086                0.75761947               -1.68146208                0.14640976               10.16586409               -0.82895855
               8.69353584                9.09696384               14.53224021                0.01867775                0.27079573                0.84239879               -2.07214405                0.41498019                8.64612005               -1.59673352
               9.69719526                9.08835612               14.43080760                0.35230637                0.50283401                0.87297899               -2.48793243                0.58961735                6.32005531               -2.24205970
              10.70359252                9.08328528               14.30317572                0.88319819                0.79781959                0.80600685               -2.93317715                0.49857113                3.34399776               -2.66522448
              11.71315165                9.07612118               14.14386315                0.97344559                0.95591319                0.74699602               -3.40577233                0.30420200                1.67812335               -2.83835174
               1.73405054               10.33252030               15.20364684                1.00000000               -0.13818592               -0.19521861                0.54405914               -0.02148569                2.45795094                2.42587409
               2.73266868               10.29191720               15.04145282                0.84050972               -0.15586716               -0.04470608                0.15358287               -0.07584852                4.39831991                1.81295758
               3.73093319               10.25055879               14.91770151                0.51768553               -0.23817544                0.14539918               -0.25001905               -0.16326117                7.65939378                1.32982828
               4.72790517               10.21053041               14.82122153                0.36112359               -0.38040388                0.35822626               -0.65509802               -0.18657331                9.80018263                0.87429626
               5.72332512               10.17422617               14.74186989                0.35458366               -0.51418242                0.56482515               -1.05038911               -0.13184959               10.90968146                0.41194709
               6.71762152               10.14395092               14.67002044                0.37536665               -0.56652252                0.73918518               -1.43339060               -0.01465883               11.04853602               -0.02209310
               7.71199467               10.12123080               14.59634391                0.42091313               -0.47293808                0.86466515               -1.81620377                0.14071979               10.27093187               -0.44506940
               8.70816276               10.10633467               14.51198879                0.51501695               -0.19672822                0.93708340               -2.21225328                0.29437057                8.64471837               -0.82995118
               9.70806010               10.09786437               14.40878932                0.69095347                0.24225390                0.95082544               -2.63187232                0.39006381                6.27759177               -1.13630678
              10.71300784               10.09240627               14.27985465                0.97676541                0.70845974                0.91209860               -3.07955574                0.33531749                3.32882826               -1.33585603
              11.72222930               10.08574008               14.11998668                0.98754627                0.92214589                0.96189005               -3.55378085                0.24114643                1.68510545               -1.45110924
               1.43559395                0.40138288               16.39746307                1.00000000               -0.41994707               -0.45606915                1.60274395               -0.09462558               -0.29948856                0.37101940
               2.43139447                0.34767553               16.24275422                1.00000000               -0.35751021               -0.33516579                1.19990290               -0.07075188               -0.38146112                0.08893733
               3.42844374                0.29348180               16.08600718                1.00000000               -0.23453399               -0.22250828                0.80321135               -0.06933743               -0.47002939               -0.02275032
               4.42670380                0.23885549               15.92938894                0.62066356               -0.11682934               -0.10397528                0.40539547               -0.06381100               -0.36287064               -0.07624603
               5.42610715                0.18370132               15.77489415                0.69467819                3.97686351                0.02942946               -0.00056537                3.99059815               11.00413127               -0.33483316
               6.50624107                0.20896612               15.84594914                0.77407121                6.64992949               -2.52572049                0.09456031                3.31870277               22.36588195                0.26049437
               7.55910574                0.20510968               15.90953979                0.75778669                4.33778601               -2.01472350                0.02347795                1.58791141               22.11103684                0.09972084
               8.59299679                0.19357314               15.96600123                0.85544654                2.50497285               -1.45049297               -0.25111553                1.36857575               21.76356235               -0.02222015
               9.60920520                0.15475915               16.01258444                1.00000000                0.94688192                0.22339625               -0.70435849                1.10256860               10.76772651                0.39464792
              10.61193442                0.09228706               15.83762581                1.00000000                0.33342440                0.35299982               -1.11649980               -0.06360629               -0.29961811                0.00336879
              11.61587369                0.02947379               15.66254620                1.00000000                0.39392651                0.48178616               -1.52750911               -0.04695115               -0.31700856               -0.34458640
               1.48835504                1.39682219               16.36003798                1.00000000               -0.37175473               -0.42627679                1.43631216               -0.03235020               -0.03410090                0.55029261
               2.48463750                1.34432387               16.20520138                1.00000000               -0.30973284               -0.30884055                1.03193993               -0.01567217               -0.03511317                0.16336890
               3.48216039                1.29125672               16.04999950                0.79868604               -0.18407854               -0.20086694                0.63105807               -0.01936053               -0.01497866               -0.07030935
               4.48095593                1.23781573               15.89548555                0.12359328               -0.06012850               -0.09400550                0.22652177               -0.00453909                0.01258333               -0.21439901
               5.48095782                1.18399561               15.74101077                0.27149451                2.38839919                0.06476405               -0.18019388                2.70321837               11.54819893               -0.32242356
               6.52872391                1.18370892               15.81762649                0.35691145                5.08617647               -1.88863941               -0.07851339                3.72349686               22.90930243                0.81345515
               7.58268135                1.18496245               15.88201715                0.25786848                5.15669485               -2.05453713               -0.13357315                3.15501687               22.59553653               -0.10916399
               8.63185781                1.17906821               15.94090064                0.41539078                4.40962903               -1.84375066               -0.39310513                2.81229176               22.88652469               -0.99058359
               9.67087393                1.15699311               15.99897221                1.00000000                2.10416182                0.23848768               -0.81454430                1.93845561               11.69247545                0.39908853
              10.67394104                1.09581706               15.82364587                1.00000000                0.36717623                0.37012227               -1.22651716                0.00103067                0.05715101                0.08501348
              11.67821745                1.03429165               15.64865509                1.00000000                0.42764088                0.50009833               -1.63887834                0.01723137                0.06454977               -0.42125125
               1.53994358                2.39285735               16.32570380                1.00000000               -0.32970786               -0.37024650                1.27107241               -0.02443207                0.05733591                0.74061210
               2.53664651                2.34149872               16.16888288                1.00000000               -0.26894585               -0.25664762                0.86988050               -0.01425869                0.12035814                0.21415853
               3.53456467                2.28946446               16.01300147                0.42350577               -0.13861933               -0.16329969                0.45723047               -0.02689785                0.26673340               -0.17268784
               4.53387412                2.23697538               15.85902791                0.00010000               -0.01431647               -0.10060664                0.06282407                0.05735280                0.49062323               -0.61072929
               5.53427834                2.18499660               15.70787495                0.00010000                2.29350240                0.51983628               -0.36723750                3.31684638               12.98127686                5.51047743
               6.57974417                2.17119333               15.80415397                0.00010000                4.62842232               -1.05672838               -0.17009348                4.45016213               23.51560965                1.47780495
               7.62684678                2.16401894               15.85382598                0.00010000                4.87338925               -1.85519132               -0.24265244                3.95857557               21.57109200               -0.53153694
               8.67721195                2.15669813               15.89996043                0.00010000                5.21893414               -1.95384085               -0.48986782                4.05831907               23.90647300               -2.42725768
               9.73122547                2.15952891               15.98480227                0.45199665                2.87222758               -1.00832197               -0.92288257                1.45645519               13.51244687               -5.94769113
              10.73465650                2.09968951               15.81120084                1.00000000                0.40218363                0.40139838               -1.33755717                0.00302842                0.41636013                0.42322000
              11.73926914                2.03947575               15.63368885                1.00000000                0.46126360                0.53767382               -1.75329989                0.01695732                0.21315904               -0.44183379
               1.59058366                3.38941726               16.29170063                1.00000000               -0.28384540               -0.32558975                1.10252471               -0.00902022                0.08047392                0.71899415
               2.58774521                3.33919092               16.13216496                1.00000000               -0.22189460               -0.21203833                0.72519911                0.00157616                0.21134254                0.15568851
               3.58614577                3.28799072               15.97494140                0.22417632               -0.05871817               -0.13586290                0.29376310               -0.03779785                0.31781816               -0.39974116
               4.58657085                3.23580360               15.81734096                0.00010000                1.34655080               -0.09402139               -0.31649394                0.46311699                6.86114339               -1.10218415
               5.61307679                3.19439234               15.79126257                0.00010000                2.60669827                0.38980597               -0.13453739                2.70748931               15.07363481                6.38841516
               6.63870481                3.16257435               15.79285511                0.00010000                3.16356372               -0.65687695               -0.25559981                3.22368916               18.19853032                1.35373657
               7.67634806                3.14785862               15.82213444                0.00010000                3.94047051               -1.41709438               -0.36257724                3.69490436               19.94677567               -1.13979344
               8.71751422                3.13999140               15.84940485                0.00010000                4.03317966               -1.63075796               -0.59755568                3.72342656               18.68353359               -3.53925340
               9.75701166                3.13682667               15.84358535                0.25314522                3.82702715               -1.99252751               -0.96766498                2.15904795               15.71385225               -7.80066068
              10.79405476                3.10384503               15.80381571                1.00000000                2.09862258                0.42924965               -1.44710424                1.27773925                7.20675498                0.60852628
              11.79898411                3.04504512               15.61971937                1.00000000                0.49293418                0.57263190               -1.85942129                0.01889183               -0.01718124               -0.37855251
               1.64021587                4.38634555               16.25667946                1.00000000               -0.21113007               -0.29049958                0.93446419               -0.00857170                0.12184313                0.58460659
               2.63810457                4.33725795               16.09458975                0.99234386               -0.15099201               -0.17257952                0.55959825               -0.01987889                0.17183224               -0.00208497
               3.63719603                4.28674720               15.93342734                0.12433726               -0.06848608               -0.08810700                0.29416506               -0.07041290                0.15625865               -0.38333300
               4.63673485                4.23509495               15.77095507                0.00010000                1.22306738               -0.01123489                0.22548980                0.35506385                8.49607058               -0.71880007
               5.66165738                4.19279272               15.77675071                0.00010000                2.70084107               -0.28531762               -0.22233581                0.96197984               17.04570443                0.91003433
               6.69075167                4.15805579               15.78015276                0.00010000                3.08352243               -0.54362424               -0.36742272                1.94102368               17.43388653                0.50654049
               7.72332782                4.13567705               15.78573278                0.00010000                3.59803805               -1.11425758               -0.54902243                2.65817281               17.86516155               -1.77376933
               8.76271243                4.12408297               15.78926756                0.00010000                4.36124861               -1.58293762               -0.79278455                3.23806016               18.22576102               -4.06727572
               9.81055280                4.11967836               15.79298090                0.24328502                4.46402058               -1.97559679               -1.13448278                3.53159537               18.65611186               -4.51517600
              10.85199284                4.10827450               15.79481573                1.00000000                2.33469931                0.45904201               -1.55700526                2.28297932                9.51239006                0.46208339
              11.85724678                4.05092839               15.60625632                1.00000000                0.52539426                0.60037431               -1.95347055                0.01991568               -0.01565881               -0.34584267
               1.68858743                5.38360727               16.21969952                1.00000000               -0.16414523               -0.25269956                0.76698264               -0.02742908                0.15973934                0.45191607
               2.68694598                5.33573933               16.05480845                0.79923951               -0.08434587               -0.11449773                0.41877442               -0.07262961                0.41431265               -0.31125736
               3.68690052                5.28622858               15.89535513                0.07337275                0.03403143               -0.01939006               -0.03070146               -0.00940994                0.47954779                0.47420329
               4.68762661                5.23557890               15.73352558                0.00010000                1.12275110                0.07884556               -0.24394651                0.16003878                9.29000719                0.25627105
               5.70935554                5.18868598               15.75266556                0.00010000                2.35071707               -0.40121595               -0.26681571                0.51423301               17.92722310                1.11874175
               6.73464095                5.15170186               15.75468994                0.00010000                2.70644019               -0.53933264               -0.54890851                1.03828933               16.86829159               -0.26579191
               7.76348434                5.12557347               15.74496509                0.00010000                3.18165847               -0.83303580               -0.78138284                1.44472838               16.45656679               -2.24949085
               8.79827412                5.10833264               15.73138145                0.00010000                3.99838461               -1.27426170               -1.05396676                1.42352001               16.78004885               -4.48560331
               9.84345203                5.09731474               15.71992565                0.25273872                5.50950977               -1.65134954               -1.37995004                1.92594553               21.19035427               -6.90847586
              10.90846432                5.11302587               15.78429776                0.91398238                3.53113021               -1.11613746               -1.67063108               -1.20104158               12.98539238              -11.13607008
              11.91407464                5.05705261               15.59319615                1.00000000                0.56103222                1.92223729               -2.05532190               -4.04964467                0.20341606               -9.07736264
               1.73540317                6.38129156               16.18156710                1.00000000               -0.13725101               -0.19875319                0.60298446               -0.01861199               -0.03959081                0.33911863
               2.73403066                6.33496800               16.01105055                0.67448992                0.08825410               -0.06554882                0.28730256               -0.09337987                1.45275387               -0.41113818
               3.73716825                6.28635940               15.87019504                0.05110830                0.17237794               -0.12378513                0.10283100                0.01224225                1.73732948                3.72328433
               4.73747822                6.23667186               15.70594072                0.00010000                0.93254100               -0.13159917               -0.11035958                0.21007426               10.81815939                7.03155110
               5.75581907                6.18476840               15.74597695                0.00010000                1.85758746               -0.20832420               -0.47087412                0.09812973               18.48487880                2.34904902
               6.77462997                6.14726914               15.72985301                0.00010000                1.98862689               -0.25592461               -0.73307534                0.51816746               15.35303807               -0.14575215
               7.79559161                6.11901633               15.70247476                0.00010000                2.24057938               -0.38325782               -1.01434899                0.54694891               14.62957607               -2.39023665
               8.81944156                6.09859774               15.66673560                0.00010000                2.43934362               -0.51946129               -1.31755859                0.28532892               14.24030978               -4.90756428
               9.84437848                6.08665136               15.62615189                0.26925397                2.43962899               -0.51597135               -1.64736855               -0.34028392               12.14148138               -8.44606416
              10.86823414                6.08595175               15.54311618                0.84262872                2.19109596               -1.45158964               -2.01040153               -2.20565517                7.47163923              -17.19578109
              11.88820040                6.08937314               15.40555175                1.00000000                1.99662661                1.41778218               -2.38831785               -1.67545536                4.78650517              -15.25909380
               1.78086232                7.37963221               16.14186330                1.00000000               -0.08517813               -0.09912141                0.44503512                0.20654669                0.15784083                5.14370818
               2.78001054                7.33442835               15.96948462                0.60740596                0.22895868               -0.20050897                0.14154905                0.01456564                5.15608398                5.51857522
               3.78544150                7.28375288               15.89701643                0.04459110                0.67042782               -0.27314038                0.01681436               -0.32188511                9.65070615                6.03853913
               4.79341910                7.23294692               15.81171073                0.00010000                0.76396764               -0.23802940               -0.26907111               -0.07535881               10.29579594                9.21574986
               5.80072085                7.18451950               15.74990375                0.00010000                0.86686321                0.10428657               -0.59167580               -0.15930330               12.63721780                2.96248472
               6.81075636                7.14658337               15.71003485                0.00010000                1.11869372                0.10668873               -0.90774277                0.10135640               13.42202786                0.10028951
               7.82309472                7.11790831               15.66195966                0.00010000                1.27946530                0.11560425               -1.21959423                0.22505840               12.61565466               -2.13058800
               8.83634567                7.09794342               15.60347999                0.00010000                1.30988087                0.19865680               -1.54982033                0.23350648               11.23104630               -4.42467306
               9.84929234                7.08699531               15.52527196                0.29110230                1.26418856                0.28284520               -1.90555903                0.17573960                8.73589035               -7.36354688
              10.86162944                7.08399407               15.41526917                0.80829321                1.22152085                0.10528119               -2.28347687               -0.01207739                4.81999869               -9.48802015
              11.87372276                7.08540825               15.25842903                1.00000000                1.20933185               -0.31824625               -2.68134303               -0.26710243                2.44277273              -10.51468325
               1.82994182                8.37930913               16.19970001                1.00000000                0.02594839               -0.14532650                0.53483831               -0.02618206                2.41818434                8.55349528
               2.83020130                8.33095782               16.04426451                0.59105903                0.11350836               -0.25948856                0.22520445               -0.12255082                4.18056025                8.39605275
               3.83221198                8.28089659               15.92342068                0.04317887                0.25015624               -0.15681882               -0.07387270               -0.45597376                7.46512540                5.09726922
               4.83520442                8.23191127               15.83285272                0.00010000                0.33922857                0.01950963               -0.38369427               -0.63170317                9.79489646                3.82046517
               5.83899655                8.18685413               15.75790639                0.00010000                0.40319307                0.29103003               -0.71648476               -0.45706460               11.07550555                2.29364951
               6.84326829                8.14940292               15.69249707                0.00010000                0.48680891                0.39277954               -1.05248652               -0.14365617               11.55585921                0.14053964
               7.84873273                8.12132842               15.62685836                0.00010000                0.58782000                0.47625699               -1.39291839                0.16758180               11.01155585               -1.57314873
               8.85502469                8.10257087               15.55014448                0.00525804                0.65549436                0.58831431               -1.74721028                0.44990356                9.48529570               -3.19293773
               9.86184262                8.09230827               15.45371453                0.31860178                0.72774806                0.64736734               -2.12053603                0.67388615                7.03772714               -4.67522320
              10.86957965                8.08805737               15.32831130                0.81481737                0.90936880                0.52367090               -2.51373502                0.59786738                3.74879141               -5.78426515
              11.88003000                8.08300821               15.16702487                1.00000000                1.04503483                0.08172470               -2.92372623                0.39188922                1.90061463               -6.09053130
               1.87704131                9.37672568               16.22682729                1.00000000               -0.10692504               -0.21919723                0.55033797               -0.10723727                2.00389089                4.74809516
               2.87597206                9.32923858               16.06172360                0.61288686               -0.08363739               -0.10442644                0.20650260               -0.24096754                3.86865789                3.68165210
               3.87536857                9.28061650               15.93370592                0.02668688               -0.05722821                0.05810357               -0.13316872               -0.43062467                7.08267521                2.81190685
               4.87482750                9.23333711               15.83293197                0.00010000               -0.06403271                0.24703919               -0.47869715               -0.48552857                9.31152406                1.81565543
               5.87408791                9.19034010               15.74993429                0.00010000               -0.07092758                0.45347290               -0.82872719               -0.38956862               10.56037219                0.94591135
               6.87340895                9.15443896               15.67494555                0.00010000               -0.04047546                0.61683969               -1.18192743               -0.15538477               10.85155291                0.04666816
               7.87327840                9.12743345               15.59880730                0.00010000                0.04774713                0.73088865               -1.54081727                0.12698168               10.22039424               -0.84924097
               8.87436389                9.10970970               15.51235958                0.01938388                0.20025797                0.81498364               -1.91023320                0.41017161                8.69252181               -1.63767134
               9.87728356                9.09994266               15.40692933                0.34995357                0.42614766                0.83897255               -2.29488082                0.60908326                6.35065733               -2.29649658
              10.88288684                9.09446749               15.27506869                0.86570405                0.71876528                0.74376172               -2.69695205                0.53043677                3.35764426               -2.72873497
              11.89165887                9.08704275               15.11131403                0.97498901                0.87720240                0.63291504               -3.11547678                0.32466809                1.68725613               -2.91024796
               1.92277126               10.37492519               16.20855597                1.00000000               -0.12801426               -0.18004880                0.46827075               -0.03259521                2.46499504                2.48663815
               2.92149112               10.32886929               16.04266379                0.83860180               -0.16351529               -0.03692920                0.11621277               -0.09142051                4.38862659                1.85794501
               3.91950096               10.28205867               15.91517975                0.51675557               -0.28604321                0.14421615               -0.23566860               -0.18762260                7.64201708                1.36599231
               4.91577026               10.23685205               15.81492339                0.36178023               -0.46988133                0.35149434               -0.59312815               -0.21247834                9.79625938                0.90165401
               5.91010333               10.19592359               15.73185041                0.35482199               -0.63515083                0.55834863               -0.95137038               -0.15407548               10.93195477                0.43052674
               6.90306724               10.16173971               15.65631513                0.37522098               -0.70508533                0.73007471               -1.30977963               -0.03304061               11.09211609               -0.01790137
               7.89600162               10.13594619               15.57892862                0.42049232               -0.61741646                0.85127413               -1.67170003                0.12886382               10.32282530               -0.45396998
               8.89071891               10.11887055               15.49074547                0.51568376               -0.33675635                0.91608408               -2.04283504                0.29257824                8.69099550               -0.84895373
               9.88926650               10.10908772               15.38352878                0.69013369                0.11846914                0.91450605               -2.42805502                0.40139655                6.30988501               -1.16173803
              10.89308829               10.10293261               15.25035485                0.96697929                0.60531746                0.84651164               -2.83011373                0.34908452                3.34474089               -1.36533584
              11.90137285               10.09566651               15.08602815                0.98739533                0.82845528                0.86237645               -3.25043406                0.24478812                1.69668035               -1.48500523
               1.58937618                0.44333654               17.41304981                1.00000000               -0.39939534               -0.43152785                1.51218724               -0.08405346               -0.29092952                0.36700294
               2.58538223                0.38697954               17.25451619                1.00000000               -0.34380142               -0.32090898                1.15042197               -0.06030393               -0.36874334                0.09122173
               3.58250015                0.33017618               17.09400677                1.00000000               -0.23405912               -0.21631698                0.79298314               -0.05988334               -0.45506348               -0.01715778
               4.58070105                0.27294843               16.93360858                0.62009081               -0.12752756               -0.11029935                0.43490101               -0.05683964               -0.35214056               -0.06834614
               5.57994960                0.21522862               16.77527255                0.69787519                4.19967098                0.00639171                0.07177225                4.14178765               11.21644885               -0.32205759
               6.66469447                0.24094804               16.84655469                0.77933453                7.11442768               -2.72766961                0.04056027                3.44625351               22.71968300                0.29915702
               7.72223816                0.23462124               16.90904776                0.76210418                4.81883903               -2.20152564               -0.09936907                1.60823441               22.29718370                0.14936989
               8.76107125                0.21929402               16.96271740                0.85887904                3.04419473               -1.63602655               -0.38636328                1.23654264               21.76916876                0.01363306
               9.78312205                0.17285292               17.00503896                1.00000000                1.24642078                0.25522146               -0.79839104                0.91313602               10.73532154                0.39096325
              10.78599966                0.10682850               16.82641320                1.00000000                0.33471279                0.35778050               -1.12149038               -0.04808333               -0.30490612               -0.00099640
              11.78981631                0.04043008               16.64768165                1.00000000                0.38166443                0.45904515               -1.44402856               -0.03021969               -0.32242881               -0.35318259
               1.64489265                1.43902126               17.37401263                1.00000000               -0.35332774               -0.40577194                1.35744102               -0.02672346               -0.03223534                0.54726117
               2.64135937                1.38377045               17.21533910                1.00000000               -0.29878877               -0.29735603                0.99440211               -0.00674090               -0.03094424                0.16875183
               3.63891687                1.32801301               17.05632046                0.80264390               -0.18764717               -0.19045294                0.63207012               -0.00652051               -0.01008623               -0.05967247
               4.63760643                1.27184544               16.89797971                0.12946080               -0.07746002               -0.08580008                0.26947971               -0.00112198                0.01304147               -0.19854185
               5.63736767                1.21529254               16.73964018                0.28241989                2.59271298                0.03205911               -0.09447673                2.77521950               11.75587584               -0.30944679
               6.68946069                1.21367135               16.81661988                0.37101137                5.58899189               -2.09065006               -0.10721301                3.83821735               23.28604333                0.87460160
               7.74914751                1.21260599               16.88010756                0.26972938                5.74300723               -2.26355807               -0.22034798                3.19720585               22.82245460               -0.04381627
               8.80432083                1.20293375               16.93633129                0.42560538                4.96693278               -2.02446228               -0.49580939                2.73344915               22.93051579               -0.92951920
               9.84848617                1.17540514               16.99028780                1.00000000                2.37047073                0.27137813               -0.92115953                1.85725985               11.66803128                0.39447174
              10.85173025                1.11040631               16.81129907                1.00000000                0.37131814                0.37712204               -1.24380082                0.00354394                0.05569581                0.07868522
              11.85591253                1.04502054               16.63263522                1.00000000                0.41822824                0.48166464               -1.56526416                0.02032766                0.06358935               -0.43223413
               1.69934334                2.43522110               17.33808627                1.00000000               -0.30876720               -0.35707324                1.20384101               -0.02144206                0.05402901                0.73466845
               2.69625567                2.38103242               17.17743452                1.00000000               -0.25242922               -0.25363261                0.84161370               -0.00036301                0.11707996                0.23112460
               3.69429476                2.32636712               17.01766415                0.43699231               -0.14282950               -0.13701186                0.46788882               -0.00125483                0.26573424               -0.16030521
               4.69339908                2.27123243               16.85985281                0.00010000               -0.03333352                0.00271433                0.10080305                0.00939163                0.48172199               -0.64785795
               5.69362809                2.21586980               16.70471864                0.00010000                2.53731418                0.46084874               -0.25932904                3.41759353               13.23270751                5.69043234
               6.74414536                2.19913504               16.80231503                0.00010000                5.16458904               -1.24830589               -0.18424265                4.57918667               23.96349154                1.55197341
               7.79691987                2.18935008               16.85109055                0.00010000                5.43978589               -2.08260883               -0.26651871                4.01968763               21.85338983               -0.47376883
               8.85294108                2.17880477               16.89472614                0.00010000                5.79374122               -2.12818514               -0.49012116                4.02817421               23.96553240               -2.34183589
               9.91279469                2.17828048               16.97501342                0.45891920                3.17570314               -1.01151060               -1.03738516                1.30217126               13.46586922               -5.88900045
              10.91645514                2.11437095               16.79770949                1.00000000                0.40998588                0.41290002               -1.36444065                0.00920701                0.41723252                0.41812449
              11.92099441                2.05006338               16.61648151                1.00000000                0.45392659                0.52700904               -1.69191989                0.02325342                0.21695453               -0.44522275
               1.75284118                3.43187980               17.30246124                1.00000000               -0.26350785               -0.31450911                1.05072505               -0.01883773                0.09176861                0.71057882
               2.75020610                3.37869780               17.13933673                1.00000000               -0.20747049               -0.21622595                0.70301831                0.01521041                0.18737222                0.17066734
               3.74869177                3.32527277               16.97776558                0.23743205               -0.09572598               -0.09695349                0.31237492                0.04332855                0.20898182               -0.30309247
               4.74829158                3.27189973               16.81500784                0.00010000                1.45625837                0.08749773               -0.14058318                0.34389219                6.97537503               -0.78812205
               5.77781693                3.22450951               16.78984774                0.00010000                2.96362808                0.29635310               -0.14115585                2.63404914               15.44784976                6.57733540
               6.80756414                3.18870523               16.79028341                0.00010000                3.60272990               -0.82653976               -0.26017634                3.25947886               18.53462716                1.37006582
               7.84987153                3.17095381               16.81843368                0.00010000                4.41948868               -1.62719745               -0.32156328                3.72579274               20.28546281               -1.16757014
               8.89595391                3.16037005               16.84345296                0.00010000                4.45459435               -1.80813161               -0.49212163                3.74217956               18.82872494               -3.58992647
               9.93896342                3.15517492               16.83397246                0.25287629                4.20887908               -2.08153911               -0.84678455                2.09618296               15.70605906               -7.77834297
              10.98013150                3.11866431               16.78920042                1.00000000                2.30146583                0.44115319               -1.48152459                1.32149194                7.14699935                0.60294070
              11.98499274                3.05556072               16.60144910                1.00000000                0.48612401                0.56471563               -1.79689996                0.02304578               -0.01155771               -0.35281867
               1.80533059                4.42893092               17.26584953                1.00000000               -0.21636815               -0.27369252                0.90086325               -0.02683147                0.12377455                0.57378854
               2.80316691                4.37670790               17.10018556                0.98089749               -0.16855937               -0.17143596                0.55374248                0.00550306                0.19937018                0.01996974
               3.80195940                4.32442805               16.93598703                0.13406936               -0.10633624               -0.04689457                0.25928947                0.03857669                0.31371752               -0.35320902
               4.80104018                4.27298239               16.77283734                0.00010000                1.37720826                0.09948026                0.15881985                0.04540049                8.62095666               -0.55178385
               5.82950357                4.22179686               16.77477354                0.00010000                3.09252288               -0.45930419               -0.16809149                0.58368481               17.24050656                0.93247186
               6.86289064                4.18260425               16.77646268                0.00010000                3.51336668               -0.70333311               -0.35840869                1.84477515               17.71300750                0.45372612
               7.89977090                4.15680613               16.78029251                0.00010000                4.03364584               -1.29789618               -0.52269360                2.60483773               18.11868354               -1.90006943
               8.94356356                4.14264214               16.78146813                0.00010000                4.83265951               -1.77050967               -0.71925352                3.23107967               18.37944427               -4.25886842
               9.99642409                4.13664970               16.78171235                0.24114192                4.94678168               -2.16282098               -1.05357329                3.62365168               18.62514975               -4.69639876
              11.04249919                4.12319401               16.77908596                1.00000000                2.56192110                0.46950693               -1.59387636                2.40952922                9.46524329                0.45208944
              12.04766251                4.06135769               16.58711215                1.00000000                0.51633219                0.58474620               -1.86986912                0.02306111               -0.01050992               -0.30506994
               1.85675059                5.42640595               17.22727949                1.00000000               -0.19315559               -0.22990213                0.74688823               -0.02616298                0.16702165                0.43373939
               2.85481903                5.37526908               17.05903671                0.79026400               -0.17808863               -0.11803415                0.42217676                0.02946202                0.36413740               -0.28240433
               3.85318882                5.32433488               16.89484112                0.08137143               -0.14941297                0.00269915               -0.04101357                0.29146325                0.60742360                0.64040737
               4.85183077                5.27388933               16.73200924                0.00010000                1.33399768               -0.25943382                0.36353256                0.03049242                9.82649003               -0.13573036
               5.87986877                5.21532343               16.75031212                0.00010000                2.88097996               -0.58310048               -0.25360697                0.11429541               18.20693018                1.11515342
               6.90945037                5.17463857               16.74935343                0.00010000                3.10308108               -0.70045015               -0.50467925                0.94204081               17.04247355               -0.34460532
               7.94193039                5.14499589               16.73730142                0.00010000                3.56407820               -0.98907920               -0.74639078                1.30715096               16.62202599               -2.39829545
               8.98073194                5.12495986               16.72098235                0.00010000                4.44770959               -1.44033320               -1.02577627                1.27159976               16.86894172               -4.68242449
              10.03088458                5.11191851               16.70623721                0.25010285                6.14410780               -1.83745934               -1.36068929                1.81274204               21.22339400               -7.10522107
              11.10361409                5.12805445               16.76741415                0.89679448                3.91210069               -1.21005399               -1.70396766               -1.59848553               12.97933327              -11.22799983
              12.10912660                5.06725564               16.57307558                1.00000000                0.55125044                2.16470868               -1.95645884               -4.68315032                0.19007851               -9.14362231
               1.90708107                6.42433288               17.18751920                1.00000000               -0.12538502               -0.18498019                0.58674265               -0.02234843               -0.04007454                0.31770322
               2.90582722                6.37434722               17.01381818                0.66773806                0.10436735               -0.07124976                0.26846573                0.03847067                1.61015258               -0.38849700
               3.90916841                6.32448203               16.87295958                0.05764852                0.24171322               -0.31126391                0.43533105                0.14780591                2.30159303                3.85147682
               4.91066148                6.26779371               16.70669076                0.00010000                1.09359119               -0.58287915                0.08724713                0.28547068               11.03797275                6.90626469
               5.93104024                6.21013485               16.74173973                0.00010000                2.06987568               -0.32579059               -0.35107514                0.04521092               18.54192756                2.30784669
               6.95205900                6.16859524               16.72293238                0.00010000                2.22761946               -0.38904764               -0.65979092                0.42429359               15.49159140               -0.20031281
               7.97559263                6.13702455               16.69264909                0.00010000                2.50069686               -0.50335138               -0.95154943                0.39593972               14.72738999               -2.50047882
               9.00207293                6.11383548               16.65384344                0.00010000                2.69958551               -0.62447155               -1.26231089                0.05942192               14.29833201               -5.05116545
              10.02958434                6.09990052               16.60997452                0.26663001                2.65597057               -0.59302391               -1.59554422               -0.64810930               12.15801491               -8.58923271
              11.05519234                6.09899293               16.52349068                0.82724525                2.30063921               -1.55330743               -1.91393119               -2.68047352                7.46865095              -17.35464197
              12.07559712                6.10465186               16.38247089                1.00000000                2.04047780                1.63526066               -2.22843766               -2.03972056                4.78587472              -15.45057146
               1.95627494                7.42270635               17.14623650                1.00000000               -0.08356483               -0.05655706                0.43100117                0.31972272                0.14763736                5.24427565
               2.95543930                7.37384408               16.97083876                0.60213558                0.32117503               -0.24018109                0.13012941                0.06944781                5.26520570                5.65740233
               3.96269844                7.31810960               16.89773154                0.04934625                0.82240352               -0.51283764                0.08323232               -0.32534113                9.81453668                5.97657287
               4.97188737                7.26223175               16.80964944                0.00010000                0.86365054               -0.37855974               -0.15601255               -0.11161454               10.37990728                9.12779804
               5.97997146                7.20880761               16.74463772                0.00010000                0.95795918                0.01733642               -0.48162868               -0.22789527               12.70412587                2.96812195
               6.99104655                7.16685761               16.70149231                0.00010000                1.23187486                0.02089437               -0.80603644                0.02063885               13.49241818                0.07268375
               8.00460895                7.13492886               16.65025666                0.00010000                1.39989295                0.03716266               -1.12523271                0.10375668               12.67849703               -2.19367997
               9.01904441                7.11247043               16.58847814                0.00010000                1.40779961                0.14564417               -1.45390726                0.07705523               11.26817391               -4.51436072
              10.03276495                7.10005803               16.50680180                0.28862810                1.31044338                0.26712233               -1.78997068                0.00552298                8.75285713               -7.47190135
              11.04525328                7.09698830               16.39322738                0.79377803                1.21246874                0.09041892               -2.12885986               -0.14112713                4.82599080               -9.61737611
              12.05701432                7.09996085               16.23272374                1.00000000                1.17610435               -0.42736607               -2.46572508               -0.36248970                2.44747047              -10.67849962
               2.01120004                8.42320174               17.20488430                1.00000000                0.06128745               -0.10639569                0.50809560                0.01781308                2.44523220                8.76017757
               3.01181292                8.36954360               17.04653381                0.58675414                0.15369423               -0.31230316                0.23145505               -0.07374099                4.21946760                8.57650567
               4.01427393                8.31422528               16.92293089                0.04579885                0.29591286               -0.22628638               -0.02779677               -0.48509893                7.51615980                5.13974349
               5.01773118                8.26022251               16.82949224                0.00010000                0.37912690               -0.05205779               -0.30160000               -0.70121806                9.83320506                3.84105811
               6.02185647                8.21048158               16.75130314                0.00010000                0.43096759                0.23722558               -0.61234407               -0.53165545               11.10977527                2.30795138
               7.02635053                8.16901313               16.68256298                0.00010000                0.50992409                0.34083804               -0.94061226               -0.21659255               11.59367978                0.13867903
               8.03205495                8.13776780               16.61353644                0.00010000                0.60671703                0.43001073               -1.27567192                0.09497380               11.04596525               -1.60229175
               9.03848487                8.11674836               16.53334295                0.00551202                0.65609867                0.55695012               -1.61705797                0.38474979                9.50978230               -3.24514799
              10.04517692                8.10524296               16.43331037                0.31622855                0.69910529                0.62769567               -1.96534129                0.63936486                7.05095503               -4.74627829
              11.05246697                8.10080131               16.30418159                0.79969291                0.86126493                0.48393645               -2.31857560                0.59845012                3.75416900               -5.87713371
              12.06240222                8.09610454               16.13907255                1.00000000                0.99352464               -0.05239539               -2.67611475                0.39991191                1.90598365               -6.20937780
               2.06394749                9.42057843               17.23212944                1.00000000               -0.10065536               -0.22030102                0.52438003               -0.10130351                2.01423420                4.86523748
               3.06294094                9.36759802               17.06375794                0.60860428               -0.08149706               -0.11739361                0.21361226               -0.24950231                3.87583396                3.76721151
               4.06231755                9.31358387               16.93256078                0.02641345               -0.06671170                0.03528548               -0.08941277               -0.45837107                7.08852187                2.86723297
               5.06160670                9.26119059               16.82851822                0.00010000               -0.08849089                0.21790675               -0.40221570               -0.53016164                9.31671504                1.84655426
               6.06054773                9.21355213               16.74215952                0.00010000               -0.10891119                0.42614461               -0.72851034               -0.44001100               10.56975443                0.96583647
               7.05942848                9.17367437               16.66372342                0.00010000               -0.08872660                0.59202963               -1.06573849               -0.19939729               10.86708204                0.05290690
               8.05877320                9.14352907               16.58407453                0.00010000               -0.00821172                0.70704754               -1.40979769                0.09504697               10.23902324               -0.85849054
               9.05926424                9.12360943               16.49403555                0.02021314                0.13630476                0.79177276               -1.75937511                0.39902551                8.70919456               -1.66091605
              10.06149929                9.11261194               16.38490998                0.34746388                0.35482278                0.80938739               -2.11484395                0.62645503                6.36196574               -2.33215659
              11.06636070                9.10666703               16.24923668                0.84768433                0.64533982                0.68629599               -2.47735075                0.56186576                3.36266616               -2.77727856
              12.07440609                9.09891295               16.08155361                0.97639314                0.80453909                0.52536036               -2.84746779                0.34529609                1.69238124               -2.97450729
               2.11513480               10.41879572               17.21301225                1.00000000               -0.13173638               -0.17827137                0.44740023               -0.04126880                2.47805843                2.54313801
               3.11381743               10.36719572               17.04377708                0.83692091               -0.18104292               -0.04022969                0.12957297               -0.10558693                4.38982826                1.89871309
               4.11151394               10.31493099               16.91298814                0.51603660               -0.33288711                0.13471154               -0.18666736               -0.21111490                7.63533392                1.39297063
               5.10715969               10.26458065               16.80935897                0.36238988               -0.54707362                0.33900575               -0.51236464               -0.24102696                9.78787384                0.92080381
               6.10057246               10.21900447               16.72284248                0.35504933               -0.73870273                0.54523473               -0.84776989               -0.18387294               10.93203947                0.44122554
               7.09238564               10.18085372               16.64382485                0.37506482               -0.82758152                0.71793485               -1.18950108               -0.05907038               11.10374338               -0.01419559
               8.08402083               10.15190875               16.56290991                0.42002507               -0.75015616                0.83796791               -1.53528843                0.11126820               10.34219355               -0.45771764
               9.07738251               10.13258381               16.47113208                0.51643147               -0.46862066                0.89743872               -1.88457787                0.28792467                8.71237461               -0.85940011
              10.07464842               10.12143071               16.36022822                0.68918142                0.00103864                0.88187697               -2.23841150                0.41208338                6.32844180               -1.17807759
              11.07740328               10.11452723               16.22325237                0.95676128                0.50839441                0.78601985               -2.59888884                0.36331043                3.35658765               -1.38780188
              12.08481631               10.10661175               16.05497800                0.98725333                0.74130250                0.76988029               -2.97111654                0.24947401                1.70766288               -1.51643630
               1.74684260                0.48679731               18.42770682                1.00000000               -0.37799569               -0.40663566                1.41940023               -0.07283975               -0.28690359                0.36322267
               2.74306265                0.42785413               18.26576266                1.00000000               -0.32962633               -0.30735613                1.09897355               -0.04948858               -0.36315575                0.09035855
               3.74025008                0.36851127               18.10186684                1.00000000               -0.23337178               -0.21053756                0.77944367               -0.04859252               -0.44739108               -0.01794097
               4.73839521                0.30874631               17.93808696                0.61980972               -0.13800262               -0.11456406                0.46046512               -0.04913622               -0.34533944               -0.06829085
               5.73749002                0.24852490               17.77632959                0.70111565                4.42321517               -0.01643189                0.13924132                4.29814303               11.34993481               -0.31653298
               6.82685951                0.27481889               17.84676035                0.78391309                7.56983438               -2.93782803                0.00321877                3.58441775               22.93646098                0.33661095
               7.88888671                0.26597748               17.90755241                0.76564271                5.27647255               -2.39341517               -0.19302314                1.64318731               22.38717350                0.21774122
               8.93238896                0.24661801               17.95827396                0.86179974                3.56645594               -1.81489318               -0.49690054                1.09505371               21.71498006                0.07002448
               9.96021583                0.19208072               17.99661662                1.00000000                1.54023209                0.28273562               -0.87159553                0.69896441               10.66393836                0.38872222
              10.96319361                0.12249540               17.81519601                1.00000000                0.33361901                0.35990702               -1.11855956               -0.02749303               -0.31566278               -0.00762443
              11.96688821                0.05250299               17.63366563                1.00000000                0.36946040                0.43441132               -1.36673428               -0.00636888               -0.32876277               -0.35570673
               1.80505739                1.48273095               18.38718680                1.00000000               -0.33466054               -0.38476059                1.27759117               -0.02078561               -0.03426574                0.54384018
               2.80171078                1.42478057               18.22508942                1.00000000               -0.28696629               -0.28652743                0.95635464                0.00112638               -0.03368858                0.16826888
               3.79931806                1.36640590               18.06264090                0.80269930               -0.19068722               -0.18490179                0.63316222                0.00155496               -0.01216337               -0.06719360
               4.79789704                1.30760067               17.90087514                0.13495075               -0.09414467               -0.08781139                0.31086460                0.00067662                0.01317633               -0.20649490
               5.79743517                1.24836058               17.73912124                0.29328582                2.80401823                0.00363932               -0.00878605                2.84100888               11.89861307               -0.30096265
               6.85397740                1.24544061               17.81548223                0.38465058                6.09919286               -2.31248110               -0.11559673                3.97326637               23.54166368                0.93975636
               7.91941902                1.24204333               17.87761019                0.28113535                6.31552401               -2.48800179               -0.26908644                3.28226126               22.96804786                0.07704114
               8.98028788                1.22846908               17.93098445                0.43546475                5.49238790               -2.19391340               -0.56122071                2.65377569               22.88258645               -0.76498678
              10.02926678                1.19490808               17.98054902                1.00000000                2.62098307                0.29917593               -1.01407017                1.74845317               11.58545908                0.37859963
              11.03270754                1.12609447               17.79876985                1.00000000                0.37750740                0.38276206               -1.25683343                0.01392454                0.04848299                0.06445763
              12.03681693                1.05684711               17.61734980                1.00000000                0.41093877                0.46272127               -1.49192005                0.03406293                0.05891495               -0.43822625
               1.86232766                2.47910210               18.34978062                1.00000000               -0.29174280               -0.34326861                1.13599911               -0.01731769                0.04893088                0.73441619
               2.85941023                2.42212358               18.18571516                1.00000000               -0.24332941               -0.24636719                0.81561361                0.00943371                0.10025176                0.23522792
               3.85746107                2.36481324               18.02235925                0.45424301               -0.14780858               -0.13999542                0.48327439                0.01013725                0.23848552               -0.16664942
               4.85645406                2.30699009               17.86104397                0.00010000               -0.04954034               -0.02720235                0.15612971               -0.00582003                0.47710600               -0.68293887
               5.85647026                2.24859768               17.70268837                0.00010000                2.80940154                0.37617833               -0.15317166                3.54511141               13.40801291                5.81709842
               6.91264209                2.22856927               17.80046911                0.00010000                5.75166002               -1.48062983               -0.18770453                4.72268906               24.31099920                1.61531275
               7.97150347                2.21621745               17.84849561                0.00010000                5.99788180               -2.33690378               -0.26504678                4.18196111               22.16781360               -0.31247764
               9.03259973                2.20273975               17.89015801                0.00010000                6.30280199               -2.35090998               -0.34010580                4.00544292               23.99592904               -2.05024289
              10.09755950                2.19806424               17.96405456                0.46578314                3.44666717               -1.01735979               -1.16195332                1.17647453               13.26052449               -5.66102306
              11.10153307                2.13015064               17.78391202                1.00000000                0.42523463                0.42164479               -1.41495062                0.02518720                0.41806713                0.39994884
              12.10606420                2.06175742               17.59985045                1.00000000                0.45311270                0.52555027               -1.62410005                0.03261094                0.22535450               -0.44216804
               1.91866806                3.47586558               18.31271513                1.00000000               -0.24797471               -0.30495120                0.99764884               -0.01665417                0.09183972                0.71574359
               2.91618832                3.41985323               18.14622532                1.00000000               -0.20068820               -0.20831078                0.68064956                0.01423205                0.17777316                0.18088644
               3.91465430                3.36360599               17.98118890                0.25093229               -0.10960653               -0.11028768                0.36145840                0.02804663                0.16780940               -0.29469180
               4.91399619                3.30705663               17.81452930                0.00010000                1.60519557                0.00338880                0.02360731                0.30957821                7.09608903               -0.76690401
               5.94675821                3.25588415               17.78843945                0.00010000                3.34076169                0.11900446               -0.12044200                2.75716432               15.72250887                6.73120712
               6.98081142                3.21582801               17.78765158                0.00010000                4.10647783               -1.02544883               -0.25049393                3.31359309               18.86317197                1.39776613
               8.02888777                3.19530525               17.81570317                0.00010000                4.88692601               -1.87047660               -0.33446866                3.74077244               20.70374682               -1.17671701
               9.07854994                3.18145088               17.83956241                0.00010000                4.82488036               -2.06817679               -0.03436622                3.77686885               19.45107299               -3.49220420
              10.12538538                3.17456088               17.82664965                0.25263766                4.54840840               -2.22893106               -0.03455639                2.04774670               15.34626048               -7.80635604
              11.16951811                3.13452737               17.77418521                1.00000000                2.44351091                0.44759585               -1.55324845                1.35810363                6.89739642                0.59013070
              12.17425559                3.06735811               17.58378137                1.00000000                0.47374851                0.57215458               -1.73207870                0.02907583                0.01582034               -0.30592085
               1.97401929                4.47300308               18.27469672                1.00000000               -0.20648215               -0.26265992                0.86115686               -0.01730234                0.12858749                0.57551891
               2.97195447                4.41795737               18.10566460                0.96845825               -0.16003428               -0.16973031                0.54341883                0.00415948                0.23744469                0.03986528
               3.97081860                4.36260748               17.93861313                0.14232403               -0.07935001               -0.07709051                0.26042520                0.02613227                0.46637627               -0.44927698
               4.97036747                4.30705786               17.77413147                0.00010000                1.60117804               -0.40228793                0.06461229                0.15297570                8.80795965               -0.16813871
               6.00284216                4.25097777               17.77338888                0.00010000                3.45626891               -0.59306384               -0.09627993                0.51970860               17.42038323                0.93243852
               7.03949285                4.20806029               17.77298458                0.00010000                3.89269407               -0.87439813               -0.33495655                1.77599186               17.92902526                0.44246894
               8.08069605                4.17880791               17.77527891                0.00010000                4.46943137               -1.50271375               -0.48211910                2.43620465               18.37817738               -2.05150308
               9.12888147                4.16137621               17.77488249                0.00010000                5.23709547               -1.95710188               -0.59383105                3.14224668               18.54725205               -4.45994316
              10.18543795                4.15348562               17.77190943                0.23907694                5.35082211               -2.38063670               -0.92197501                3.69145447               18.56007244               -5.10137731
              11.23589791                4.13910256               17.76293821                0.99006147                2.77731342                0.47668953               -1.63519912                2.57046985                9.26268874                0.44122948
              12.24098422                4.07320051               17.56885894                1.00000000                0.50863082                0.57316549               -1.77067813                0.02468277               -0.00770710               -0.23938821
               2.02841343                5.47061238               18.23463729                1.00000000               -0.17463342               -0.21572318                0.71726400               -0.01615498                0.19327725                0.41894815
               3.02666710                5.41645862               18.06325198                0.78138082               -0.11684918               -0.12806848                0.40802686                0.01453287                0.34494113               -0.27666905
               4.02607645                5.36206418               17.89453485                0.08862522                0.10091550               -0.10544826                0.03216134                0.10305892                1.26969253                0.87286170
               5.02868541                5.29901087               17.74079623                0.00010000                1.50367520               -0.49504508                0.72331532                0.05243781               10.28797020               -0.39519035
               6.05614995                5.24402287               17.74759342                0.00010000                2.99078544               -0.71890226               -0.17665444                0.34515108               18.02358392                1.14809417
               7.08850112                5.19834005               17.74459635                0.00010000                3.40729947               -0.84681429               -0.44998135                0.76438462               17.19731198               -0.38764738
               8.12429594                5.16525098               17.73003728                0.00010000                3.91080235               -1.13781970               -0.70039795                1.12505535               16.69174000               -2.50755690
               9.16671717                5.14230885               17.71086593                0.00010000                4.85960863               -1.56487859               -0.98948108                1.04492350               16.85663082               -4.87417706
              10.22148812                5.12694815               17.69271187                0.24760496                6.72477253               -1.95917503               -1.39573200                1.71029497               21.09783479               -7.25584634
              11.30121262                5.14406116               17.75021841                0.87950869                4.25326149               -1.30284410               -1.71693003               -1.94569261               12.86923770              -11.27308002
              12.30655335                5.07882142               17.55406697                1.00000000                0.53407299                2.37565172               -1.84121644               -5.27531071                0.17075463               -9.17263058
               2.08200372                6.46868861               18.19330196                1.00000000               -0.12103863               -0.17298850                0.56245943               -0.01940565               -0.03968594                0.29174372
               3.08079333                6.41539600               18.01641986                0.66127304                0.41619080               -0.07989236                0.25866868               -0.05187871                1.93357794               -0.38044744
               4.09032753                6.36049852               17.87890166                0.06388845                0.43321008               -0.43755742                0.49761962               -0.06969633                2.72967919                3.94412014
               5.08945753                6.29715696               17.70768566                0.00010000                1.00442347               -0.31547331                0.15814587                0.07634313               11.11136694                6.47747191
               6.11041600                6.23659973               17.73895545                0.00010000                2.20474480               -0.48521735               -0.23677665                0.03887922               18.58538035                2.34252412
               7.13355243                6.19112401               17.71665719                0.00010000                2.44061781               -0.49667979               -0.58183068                0.29682293               15.53363245               -0.21864653
               8.15922836                6.15605152               17.68344377                0.00010000                2.72651710               -0.60518055               -0.88466999                0.21687625               14.74702499               -2.56127520
               9.18808277                6.13007864               17.64148939                0.00010000                2.93315916               -0.70760779               -1.20876653               -0.16512776               14.26433089               -5.12120384
              10.21789154                6.11430212               17.59424100                0.26418580                2.85140102               -0.63633560               -1.53303823               -0.94604177               12.11986974               -8.64890963
              11.24511079                6.11304568               17.50483755                0.81179094                2.40329688               -1.65527577               -1.81605964               -3.12869363                7.43978801              -17.41826042
              12.26595748                6.12071355               17.36098300                1.00000000                2.08466885                1.82075880               -2.07144151               -2.37690800                4.75375240              -15.61735072
               2.13461055                7.46715261               18.15048333                1.00000000               -0.07909294               -0.00344319                0.41439813                0.44800292                0.13961817                5.33732698
               3.13381962                7.41486077               17.97208721                0.59719759                0.41555052               -0.29136228                0.12211629                0.09555753                5.39412627                5.79847103
               4.14292156                7.35331303               17.89868107                0.05402515                1.01457208               -0.58181472                0.10591501               -0.64550793               10.01679436                5.80663225
               5.15411106                7.29270140               17.80859048                0.00010000                1.00194668               -0.36466580               -0.09314367               -0.24778830               10.45706034                9.08155490
               6.16296049                7.23431852               17.74027118                0.00010000                1.04373626               -0.05541870               -0.38839020               -0.32948123               12.72828240                2.96526947
               7.17498579                7.18840646               17.69391412                0.00010000                1.33591718               -0.05893085               -0.70873315               -0.09074991               13.50702539                0.07272574
               8.18967884                7.15314737               17.63945501                0.00010000                1.50891108               -0.02934019               -1.03320704               -0.03030318               12.67598556               -2.21633977
               9.20516401                7.12815669               17.57440185                0.00010000                1.49607028                0.10159333               -1.35836454               -0.07811477               11.25383990               -4.54866464
              10.21960024                7.11422144               17.48947255                0.28632844                1.35316553                0.24862009               -1.67764209               -0.15347521                8.73621903               -7.51231293
              11.23222732                7.11095564               17.37269197                0.77922271                1.20396037                0.07298623               -1.98000627               -0.25973926                4.81833818               -9.69864443
              12.24367945                7.11523660               17.20911453                1.00000000                1.14521308               -0.53613803               -2.26367093               -0.45139111                2.44907457              -10.81780419
               2.19554746                8.46861975               18.20986192                1.00000000                0.09966084               -0.06250690                0.49269479                0.06782265                2.47932420                8.94854586
               3.19654407                8.40956875               18.04889361                0.58284891                0.20146438               -0.37606176                0.24602119               -0.02598712                4.26463936                8.76307583
               4.19957674                8.34886222               17.92286475                0.04852302                0.34761041               -0.27045561                0.01496093               -0.51239717                7.56631280                5.19383174
               5.20349627                8.28986365               17.82682072                0.00010000                0.42722896               -0.11499688               -0.22766691               -0.79594368                9.86253168                3.84878674
               6.20812132                8.23549135               17.74565951                0.00010000                0.47061554                0.18994840               -0.51775607               -0.63004701               11.11647823                2.32234658
               7.21290858                8.18994539               17.67368483                0.00010000                0.53753686                0.29143859               -0.83555411               -0.30884220               11.58878850                0.14489844
               8.21887206                8.15546472               17.60134492                0.00010000                0.62689094                0.38713994               -1.16364874                0.01165091               11.03636717               -1.60823930
               9.22544640                8.13211051               17.51780332                0.00589861                0.65755117                0.52727803               -1.49261090                0.31790666                9.49833001               -3.26290294
              10.23202308                8.11927452               17.41440771                0.31394998                0.67272210                0.60801165               -1.81735977                0.60581998                7.04227808               -4.78197375
              11.23890085                8.11450540               17.28193979                0.78444870                0.81723299                0.44477463               -2.13518158                0.59927415                3.75126423               -5.94126922
              12.24836774                8.10999079               17.11350257                1.00000000                0.94668990               -0.17947255               -2.44702476                0.40819727                1.90799219               -6.31426769
               2.25406899                9.46590248               18.23731489                1.00000000               -0.10115919               -0.22987149                0.52676887               -0.09352747                2.02212831                4.97423183
               3.25305740                9.40733954               18.06599585                0.60475825               -0.08451357               -0.13817377                0.24783780               -0.26154103                3.87991464                3.85164896
               4.25237872                9.34790392               17.93191767                0.02641182               -0.07471727                0.01005717               -0.02884883               -0.49445381                7.08807597                2.91975128
               5.25156306                9.29040146               17.82488765                0.00010000               -0.10504572                0.18614943               -0.31996209               -0.58046570                9.30628047                1.87363757
               6.25027781                9.23811749               17.73536409                0.00010000               -0.13637374                0.39454147               -0.62964914               -0.50046590               10.55262152                0.97995610
               7.24883558                9.19423523               17.65363078                0.00010000               -0.12655345                0.56537721               -0.95452369               -0.25306162               10.84960119                0.06074300
               8.24774674                9.16089017               17.57061134                0.00010000               -0.05616242                0.68281817               -1.28565113                0.05666099               10.22512928               -0.85742414
               9.24771233                9.13870225               17.47717208                0.02121768                0.07875029                0.76894798               -1.61689845                0.38465977                8.70029552               -1.66794885
              10.24932174                9.12638167               17.36463245                0.34492113                0.28921030                0.78075817               -1.94565637                0.64204221                6.35750513               -2.35029863
              11.25349654                9.11985114               17.22552167                0.82932085                0.57754420                0.63198894               -2.27264126                0.59174480                3.36102165               -2.81249138
              12.26087263                9.11164715               17.05436467                0.97768183                0.73760898                0.42491076               -2.60057832                0.36495623                1.69452700               -3.03244715
               2.31080278               10.46402232               18.21750397                1.00000000               -0.14909808               -0.18801578                0.47599875               -0.04832512                2.48531080                2.59379093
               3.30931180               10.40680528               18.04525525                0.83545638               -0.20885214               -0.05342611                0.18988905               -0.12250744                4.38350812                1.93805327
               4.30662574               10.34906337               17.91144640                0.51547712               -0.38192081                0.11594492               -0.10569060               -0.23623023                7.61567449                1.41844081
               5.30167339               10.29358663               17.80467609                0.36295725               -0.61737491                0.31851693               -0.41549523               -0.27302609                9.75844841                0.93411363
               6.29427824               10.24338218               17.71489501                0.35527025               -0.82993556                0.52646936               -0.73922139               -0.21664150               10.90190967                0.44878739
               7.28507468               10.20125293               17.63252511                0.37490046               -0.93699923                0.70177064               -1.07109932               -0.08914585               11.08047615               -0.01018849
               8.27553826               10.16912108               17.54822285                0.41951898               -0.87132914                0.82309123               -1.40458328                0.09097847               10.32988272               -0.45657929
               9.26764809               10.14748947               17.45305391                0.51729550               -0.59116072                0.87872148               -1.73471962                0.28200636                8.71127511               -0.86195443
              10.26371504               10.13488969               17.33876055                0.68817266               -0.10889139                0.85080143               -2.06013902                0.42211569                6.33584603               -1.18636397
              11.26547027               10.12714518               17.19837707                0.94627109                0.41798997                0.72940460               -2.38344536                0.37733832                3.36588020               -1.40402904
              12.27207484               10.11848900               17.02660582                0.98713900                0.66045780                0.68418525               -2.71375798                0.25460336                1.71870637               -1.54592883
               1.90752643                0.53164103               19.44143782                1.00000000               -0.35673324               -0.38167654                1.32816747               -0.06321768               -0.28685657                0.36118846
               2.90395909                0.47013318               19.27649566                1.00000000               -0.31491981               -0.29498506                1.04876066               -0.04134878               -0.36377583                0.08902712
               3.90122803                0.40826923               19.10959565                1.00000000               -0.23137936               -0.20925089                0.76792046               -0.04036011               -0.44710793               -0.02185834
               4.89933151                0.34600626               18.94281789                0.61959810               -0.14765570               -0.12477228                0.48757028               -0.04191719               -0.34371825               -0.07241257
               5.89827492                0.28331466               18.77805737                0.70414785                4.64346787               -0.04001581                0.20790186                4.45730496               11.40822260               -0.31597154
               6.99220086                0.31023650               18.84661907                0.78776615                8.00965476               -3.14787880               -0.02772124                3.73770778               23.01974959                0.36071831
               8.05846801                0.29886052               18.90518730                0.76849466                5.70528877               -2.56569069               -0.28044506                1.70567584               22.37558921                0.27722149
               9.10630664                0.27527353               18.95277939                0.86423781                4.05053822               -1.95235663               -0.59242133                0.96781194               21.62622846                0.13127760
              10.13947877                0.21276257               18.98760704                1.00000000                1.81653803                0.27766144               -0.93860828                0.50585678               10.58503156                0.36208074
              11.14263740                0.13952832               18.80404201                1.00000000                0.34115148                0.34511189               -1.13067824               -0.01457632               -0.33001822               -0.01619493
              12.14630180                0.06594760               18.62034696                1.00000000                0.36644052                0.41235885               -1.31901418                0.00483951               -0.33347686               -0.32802982
               1.96840209                1.52782426               19.39956445                1.00000000               -0.31705893               -0.36299638                1.19885430               -0.01776934               -0.03704812                0.54183421
               2.96523150                1.46718333               19.23446620                1.00000000               -0.27571007               -0.27660524                0.91942925                0.00377233               -0.03883132                0.16680879
               3.96288789                1.40617672               19.06898370                0.78779224               -0.19209420               -0.18915518                0.63718081                0.00414143               -0.01819558               -0.07366478
               4.96138962                1.34475854               18.90419700                0.14098878               -0.10775216               -0.10433826                0.35549493                0.00091780                0.01207488               -0.21392999
               5.96073285                1.28291451               18.73946446                0.30437283                3.02076974               -0.02105535                0.07702858                2.90437267               11.97439619               -0.30052703
               7.02180501                1.27875771               18.81430794                0.39790133                6.61367012               -2.54822757               -0.11914028                4.13231730               23.67448067                0.97407653
               8.09300625                1.27320361               18.87472583                0.29212568                6.86143588               -2.69264881               -0.30612768                3.45557445               23.03828873                0.19991136
               9.15903373                1.25574997               18.92510688                0.44492775                5.97018489               -2.30257919               -0.63142195                2.66648219               22.72112757               -0.46933424
              10.21240995                1.21553919               18.97000640                1.00000000                2.84326958                0.30984070               -1.04872510                1.60009345               11.42857476                0.35496964
              11.21589912                1.14297944               18.78616240                1.00000000                0.37604886                0.37131176               -1.23789908                0.04575997                0.02121755                0.03184128
              12.21993092                1.07007119               18.60279682                1.00000000                0.40318019                0.44204258               -1.43435772                0.07531647                0.04357450               -0.40885336
               2.02845290                2.52438110               19.36080625                1.00000000               -0.27708177               -0.32728444                1.07014195               -0.01522732                0.04414358                0.73524405
               3.02568208                2.46460108               19.19374680                1.00000000               -0.23586204               -0.24086234                0.79127392                0.00806594                0.09047059                0.23611149
               4.02373565                2.40448613               19.02732963                0.45519566               -0.15349986               -0.15258359                0.50865973                0.00872520                0.22647623               -0.16797629
               5.02261208                2.34391949               18.86297540                0.00010000               -0.06862281               -0.06421950                0.22649185               -0.00096908                0.47013941               -0.67882652
               6.02236320                2.28289356               18.70165521                0.00010000                3.09730112                0.27593154               -0.05416599                3.68822164               13.50786702                5.89206656
               7.08455810                2.25927194               18.79856094                0.00010000                6.41120203               -1.73063141               -0.19111568                4.89364151               24.52057511                1.67420303
               8.15058724                2.24500754               18.84578962                0.00010000                6.63713020               -2.62837213               -0.33037005                4.44896970               22.47999448               -0.25883964
               9.21730071                2.22922195               18.88792403                0.00010000                6.68319644               -2.49742410               -0.19235948                4.44735030               24.09132717               -1.21537907
              10.28425117                2.21895939               18.95177436                0.47249139                3.58599454               -1.21731254               -1.31778690                0.82942459               12.90713692               -4.66147686
              11.28902060                2.14695456               18.76941048                1.00000000                0.46867383                0.42306494               -1.49106389                0.04388266                0.40490710                0.33669346
              12.29362464                2.07478845               18.58399951                1.00000000                0.46040468                0.51813131               -1.50843927                0.09268461                0.21644668               -0.41723492
               2.08765759                3.52127857               19.32241422                1.00000000               -0.23697946               -0.29309778                0.94330482               -0.01556390                0.09062757                0.72023016
               3.08528779                3.46236609               19.15294972                1.00000000               -0.19568036               -0.20612668                0.66562144                0.00818961                0.17684256                0.18127493
               4.08374398                3.40312505               18.98499475                0.25872102               -0.11624908               -0.11947870                0.39214576                0.00962312                0.17242544               -0.28650664
               5.08296281                3.34347415               18.81547998                0.00010000                1.77004256               -0.02834083                0.12356094                0.25598127                7.15662897               -0.72215350
               6.11914483                3.28843314               18.78743890                0.00010000                3.73005237               -0.08009465               -0.07445695                2.86829227               15.85405364                6.88254064
               7.15756386                3.24414508               18.78527353                0.00010000                4.64454032               -1.23815451               -0.24999362                3.36130238               18.99880389                1.44748699
               8.21203564                3.22063617               18.81174430                0.00010000                5.82325175               -2.17827884               -0.35882202                3.82528533               21.26618992               -1.14845269
               9.27402889                3.20580149               18.84276563                0.00010000                4.96150961               -2.35410935               -0.35737941                3.55670687               20.74313371               -3.60246760
              10.31126583                3.19119294               18.83328133                0.25236292                4.34594093               -2.51997204                3.99426094                2.04789563               17.30087024               -6.00795040
              11.36094771                3.15144074               18.75813545                1.00000000                2.74255021                0.45154208               -1.76760740                1.55118702                5.86839628                0.56990065
              12.36611683                3.08043381               18.56680752                1.00000000                0.51691223                0.57479365               -1.56729126                0.00142051                0.00895170               -0.24322694
               2.14596659                4.51851914               19.28307266                1.00000000               -0.19671995               -0.25494473                0.81479463               -0.01760214                0.13234944                0.57674354
               3.14399939                4.46047855               19.11105394                0.95572543               -0.15732668               -0.16928285                0.53658385                0.00549545                0.24926470                0.02961187
               4.14282006                4.40209656               18.94119553                0.14817936               -0.07878845               -0.08107345                0.26859963                0.00842860                0.49278815               -0.45993134
               5.14242362                4.34335268               18.77412958                0.00010000                1.81190274               -0.55214090                0.01452250                0.03819551                8.91826692                0.25293164
               6.17905811                4.28129166               18.77284794                0.00010000                3.85787478               -0.78571953               -0.04762252                0.42758377               17.50433168                1.07943724
               7.21958112                4.23450885               18.76976355                0.00010000                4.31892136               -1.04660349               -0.30193430                1.67696000               17.99475644                0.46447135
               8.26543654                4.20144197               18.77065013                0.00010000                4.91484796               -1.69781395               -0.49486281                2.25454450               18.54789088               -2.08658536
               9.31787808                4.18213976               18.76959151                0.00010000                5.70666425               -2.24660333               -0.35958798                2.41395277               18.57672513               -4.99649358
              10.37956982                4.16855995               18.76327285                0.23702197                5.64626915               -2.33614648               -1.20111380                3.80343027               17.87387541               -5.54376025
              11.43080346                4.15598540               18.74638198                0.97073551                2.80485432                0.46263789               -1.61579906                2.82102057                8.89301679                0.45917198
              12.43566691                4.08628432               18.55169858                1.00000000                0.48634504                0.56225754               -1.68292883               -0.03372067               -0.00489271               -0.17458094
               2.20338674                5.51617968               19.24162477                1.00000000               -0.15664508               -0.20987156                0.67628271               -0.01567783                0.19529116                0.40425881
               3.20182029                5.45898043               19.06719724                0.77287746               -0.11741606               -0.12877496                0.39727496                0.01117925                0.34315830               -0.28688828
               4.20103842                5.40150358               18.89548435                0.09524083                0.13556614               -0.14391705                0.12198728                0.15635232                1.60171154                1.09507188
               5.20453161                5.33243133               18.74647555                0.00010000                1.77509554               -0.69018904                0.48595225                0.08132867               10.34325767                0.25452098
               6.23654033                5.27271875               18.74677903                0.00010000                3.32105713               -0.84920430               -0.06390472                0.27499405               17.81874218                1.17054134
               7.27095276                5.22321301               18.74035380                0.00010000                3.64776436               -0.98021555               -0.38115031                0.63116753               17.17215984               -0.37097913
               8.30949562                5.18667989               18.72329346                0.00010000                4.21186061               -1.25303249               -0.63757337                0.89604017               16.64770468               -2.57324662
               9.35518997                5.16086942               18.70119273                0.00010000                5.19965896               -1.71321428               -0.95872968                0.82371786               16.62369930               -4.98289582
              10.41348880                5.14447001               18.67832257                0.24516866                7.22268884               -1.91991528               -1.32903827                1.44439115               20.89487204               -7.30608123
              11.49964374                5.16069350               18.73307555                0.86218097                4.56778889               -1.39156223               -1.70318080               -2.31741967               12.74177646              -11.26266341
              12.50484457                5.09167897               18.53625125                1.00000000                0.52008302                2.54864803               -1.72880344               -5.76573493                0.14158019               -9.21252057
               2.26005153                6.51432171               19.19876839                1.00000000               -0.11524600               -0.16433780                0.52602939               -0.01822620               -0.03504617                0.26922603
               3.25889907                6.45790305               19.01899156                0.65508904                0.62223362               -0.08203350                0.25490258               -0.08998564                2.15742040               -0.38169102
               4.27249620                6.39921821               18.88291197                0.06974781                0.69679807               -0.56122121                0.38364343               -0.14307565                2.89334815                4.22637061
               5.27283503                6.32954890               18.70985368                0.00010000                1.06400541               -0.38517744                0.20340425               -0.00018903               11.10527731                6.46342554
               6.29377631                6.26430758               18.73700419                0.00010000                2.27041453               -0.56549001               -0.13852946               -0.09856095               18.52317969                2.35701215
               7.31824332                6.21490454               18.71129577                0.00010000                2.59623101               -0.59642596               -0.48344873                0.15621061               15.47437291               -0.21074601
               8.34570093                6.17638132               18.67495569                0.00010000                2.91594968               -0.69894915               -0.80597530                0.05581272               14.66127459               -2.57312640
               9.37656232                6.14787548               18.62966811                0.00010000                3.14663168               -0.78431124               -1.13335520               -0.36529883               14.16506447               -5.12718126
              10.40863357                6.13016164               18.57931376                0.26184825                3.03418953               -0.74124713               -1.45742621               -1.20054588               12.03207627               -8.58244304
              11.43724611                6.12815416               18.48716948                0.79627759                2.48738574               -1.73901609               -1.70938036               -3.52850223                7.38523602              -17.40688606
              12.45838128                6.13725729               18.34104206                1.00000000                2.11351729                1.97031151               -1.92614644               -2.67438113                4.70526885              -15.77276550
               2.31585955                7.51289292               19.15452447                1.00000000               -0.07354738                0.05096881                0.38431259                0.57826442                0.13424716                5.43378558
               3.31512408                7.45733976               18.97328109                0.59251667                0.53357533               -0.35032868                0.11856908                0.12950212                5.53219762                5.93567969
               4.32653106                7.39027916               18.89984984                0.05853283                1.21571966               -0.71764468                0.13976231               -0.87175565               10.20212789                5.80236761
               5.33943847                7.32472778               18.80778656                0.00010000                1.13412048               -0.43239092               -0.02742806               -0.47590983               10.50970622                9.05160990
               6.34921347                7.26140895               18.73686992                0.00010000                1.12823800               -0.12359870               -0.28449789               -0.49488381               12.72210406                2.97087163
               7.36200323                7.21128449               18.68731765                0.00010000                1.42137355               -0.13550504               -0.60432642               -0.22552410               13.45417360                0.07853534
               8.37764094                7.17270091               18.62959252                0.00010000                1.60502187               -0.09673174               -0.93423490               -0.15692155               12.61139867               -2.21264542
               9.39410367                7.14518319               18.56131085                0.00010000                1.57791316                0.04222981               -1.25634234               -0.21147360               11.19023340               -4.53630402
              10.40919920                7.12964506               18.47324896                0.28415141                1.39371946                0.21409736               -1.55931369               -0.30087797                8.69234273               -7.51143646
              11.42197806                7.12591318               18.35362726                0.76458718                1.19757480                0.04960333               -1.83477366               -0.37042917                4.80119153               -9.74201844
              12.43315070                7.13108520               18.18745032                1.00000000                1.11726404               -0.63441199               -2.07740157               -0.53003760                2.44743147              -10.93779056
               2.38272315                8.51534109               19.21473820                1.00000000                0.13797318               -0.02359544                0.49514575                0.11396842                2.51452357                9.12878703
               3.38410288                8.45089647               19.05145423                0.57927262                0.24749624               -0.45351991                0.27929942                0.01683066                4.30367613                8.95998850
               4.38767307                8.38486532               18.92323011                0.05123551                0.40420862               -0.34409561                0.07966142               -0.56695942                7.60823503                5.26139705
               5.39218705                8.32090108               18.82493890                0.00010000                0.48244277               -0.19599036               -0.13713665               -0.90911482                9.87681946                3.87424510
               6.39732193                8.26183560               18.74094802                0.00010000                0.51269149                0.12533975               -0.41619925               -0.75315328               11.08864015                2.32491264
               7.40244088                8.21219444               18.66585189                0.00010000                0.56709355                0.23822310               -0.72940089               -0.41094515               11.54248240                0.14851768
               8.40866380                8.17444668               18.59026346                0.00010000                0.64739041                0.34008788               -1.05266021               -0.06904088               10.98624814               -1.60203807
               9.41538869                8.14872007               18.50349073                0.00643223                0.66111127                0.49083344               -1.37007523                0.25711448                9.45711588               -3.25833558
              10.42188602                8.13444359               18.39696317                0.31175884                0.65043526                0.58040316               -1.67407777                0.57633741                7.01589459               -4.78987600
              11.42839739                8.12914622               18.26147796                0.76909162                0.77752357                0.40333683               -1.96164228                0.59981533                3.74142320               -5.98397701
              12.43743649                8.12456905               18.09013205                1.00000000                0.90391007               -0.29622182               -2.23593968                0.41527882                1.90719737               -6.40796674
               2.44702815                9.51242101               19.24266482                1.00000000               -0.10916930               -0.25238550                0.56237618               -0.08439953                2.02137955                5.07304756
               3.44593646                9.44826936               19.06871470                0.60132645               -0.09204442               -0.17292433                0.31263738               -0.27907380                3.87288402                3.93393803
               4.44518726                9.38339725               18.93198380                0.02656765               -0.08252838               -0.03114908                0.05325709               -0.53639388                7.06951222                2.96974835
               5.44428589                9.32080797               18.82211898                0.00010000               -0.11651127                0.13924806               -0.22667649               -0.63942571                9.27131168                1.88838337
               6.44285704                9.26391574               18.72956654                0.00010000               -0.15563209                0.35413820               -0.52903037               -0.56596530               10.50629845                0.98421118
               7.44117325                9.21604895               18.64463294                0.00010000               -0.15612750                0.53334217               -0.84677510               -0.30933168               10.80032889                0.06405648
               8.43973449                9.17950266               18.55836151                0.00010000               -0.09620995                0.65537336               -1.16731962                0.01884010               10.18321307               -0.85235385
               9.43924905                9.15499986               18.46169758                0.02244734                0.02826558                0.74304894               -1.48156471                0.37160467                8.67089052               -1.66458683
              10.44029980                9.14125313               18.34599685                0.34239974                0.22999280                0.75018222               -1.78565598                0.65681054                6.34154892               -2.35656162
              11.44384890                9.13397992               18.20378385                0.81073143                0.51554155                0.57948127               -2.08120125                0.61929289                3.35503891               -2.83770758
              12.45061063                9.12516076               18.02954204                0.97885386                0.67617245                0.33209226               -2.37336793                0.38290732                1.69472208               -3.08581733
               2.50933846               10.51029338               19.22253223                1.00000000               -0.17932914               -0.21276346                0.55945659               -0.05450831                2.47535581                2.63356547
               3.50754517               10.44743799               19.04757486                0.83420196               -0.24659394               -0.08313751                0.29859398               -0.14168086                4.35119989                1.97547360
               4.50440658               10.38424234               18.91087432                0.51503253               -0.43325635                0.08450924                0.00505943               -0.26566538                7.56215527                1.43779228
               5.49888004               10.32368604               18.80104907                0.36348699               -0.68224704                0.28780668               -0.30578653               -0.30678338                9.69322305                0.94163539
               6.49076164               10.26891837               18.70805805                0.35548353               -0.91063600                0.50026268               -0.62855447               -0.25077731               10.83434124                0.44977905
               7.48066732               10.22286129               18.62240286                0.37473073               -1.03359764                0.68123330               -0.95636065               -0.11880355               11.02216032               -0.00832467
               8.47008969               10.18755415               18.53481825                0.41897980               -0.97985017                0.80514835               -1.28006489                0.07150851               10.28920887               -0.45346618
               9.46107032               10.16358105               18.43643769                0.51831146               -0.70237533                0.85811894               -1.59249771                0.27678115                8.69216747               -0.85964252
              10.45604218               10.14944723               18.31902544                0.68716990               -0.20973495                0.81941046               -1.89164350                0.43197814                6.33569467               -1.18867663
              11.45687562               10.14073585               18.17558347                0.93563106                0.33453852                0.67559341               -2.18165051                0.39085436                3.37445207               -1.41573927
              12.46273295               10.13121089               18.00070284                0.98704884                0.58573325                0.60501311               -2.47621443                0.25973638                1.73070743               -1.57445216
               2.07098979                0.57776781               20.45427017                1.00000000               -0.33604881               -0.35686114                1.23920346               -0.05510688               -0.28848681                0.36149344
               3.06762930                0.51369360               20.28673787                1.00000000               -0.30020477               -0.28279907                1.00019617               -0.03493096               -0.36694406                0.08911924
               4.06498569                0.44929799               20.11722525                1.00000000               -0.22850900               -0.20993761                0.75899061               -0.03392282               -0.45088797               -0.02285201
               5.06305912                0.38453984               19.94783837                0.62022301               -0.15661979               -0.13752747                0.51788140               -0.03546894               -0.34573005               -0.07418691
               6.06185330                0.31939130               19.78048763                0.70695176                4.85327325               -0.06390936                0.27877453                4.60166878               11.39462455               -0.31738618
               7.16012458                0.34665551               19.84620592                0.79103575                8.41924400               -3.36752370               -0.04251829                3.86078346               22.95467641                0.34699908
               8.23023818                0.33244484               19.90194351                0.77078498                6.11846010               -2.70056067               -0.34568206                1.81142239               22.27922744                0.30355949
               9.28249379                0.30458858               19.94642554                0.86623728                4.52078325               -2.06508273               -0.66596944                0.79754710               21.49847697                0.11101897
              10.32065384                0.23452363               19.97784446                1.00000000                2.06797684                0.33165286               -0.99204883                0.27999886               10.52335755                0.35997848
              11.32385332                0.15793073               19.79258244                1.00000000                0.34774597                0.34321005               -1.16201761               -0.02523228               -0.30611759                0.01525317
              12.32760876                0.08104269               19.60728535                1.00000000                0.37554374                0.39748097               -1.32659258               -0.00772235               -0.29853805               -0.28929701
               2.13451293                1.57419920               20.41116389                1.00000000               -0.29980317               -0.34053010                1.12156437               -0.01637629               -0.03895897                0.54272915
               3.13151490                1.51086561               20.24347801                1.00000000               -0.26447933               -0.26656553                0.88280135                0.00331902               -0.04222183                0.16768721
               4.12922334                1.44719862               20.07538452                0.79072543               -0.19285612               -0.19276626                0.64210725                0.00376273               -0.02259964               -0.07360163
               5.12765778                1.38316456               19.90798504                0.15026658               -0.12055985               -0.12046315                0.40105411                0.00128691                0.00930176               -0.21431779
               6.12681215                1.31875220               19.74066181                0.31502421                3.22739333               -0.04633603                0.16167435                2.95022400               11.98241617               -0.30272554
               7.19220564                1.31298027               19.81309942                0.41061808                7.12868567               -2.77838825               -0.11122971                4.27408205               23.67910152                0.96973537
               8.26938586                1.30543924               19.87148763                0.30257640                7.36121095               -2.92113322               -0.34183682                3.62297874               22.95143461                0.18508818
               9.33942986                1.28393776               19.91835601                0.45390353                6.36984485               -2.19075870               -0.67399394                2.91743328               22.54253814               -0.24884564
              10.39678276                1.23784016               19.95957452                1.00000000                3.04558043                0.35180722               -1.07199138                1.54935111               11.30815575                0.21627364
              11.40034147                1.16136283               19.77401187                1.00000000                0.38184076                0.34903663               -1.22315568                0.03650392               -0.03044628               -0.03947157
              12.40441957                1.08501750               19.58866265                1.00000000                0.40781020                0.41796638               -1.39865255                0.04578299               -0.02538474               -0.30922361
               2.19732945                2.57095721               20.37118346                1.00000000               -0.26331817               -0.30977130                1.00533453               -0.01465799                0.04194792                0.73899022
               3.19469626                2.50836229               20.20154063                1.00000000               -0.22837266               -0.23470130                0.76676867                0.00575982                0.08717581                0.23940220
               4.19276199                2.44544267               20.03253244                0.44928228               -0.15824972               -0.15943310                0.52759588                0.00587428                0.22287187               -0.16126010
               5.19153127                2.38213057               19.86557380                0.00010000               -0.08599634               -0.08525937                0.28711438                0.00243724                0.46475705               -0.66754215
               6.19104207                2.31846458               19.70160505                0.00010000                3.36939592                0.17950118                0.04330412                3.80953799               13.54187820                5.92892831
               7.25891919                2.29108774               19.79664680                0.00010000                7.03490988               -1.97025632               -0.18333577                4.99170291               24.53026340                1.69164009
               8.33174026                2.27402218               19.84188821                0.00010000                7.47611696               -2.89817775               -0.39753428                4.85096343               22.59037526               -0.22852566
               9.40844153                2.26077341               19.88631082                0.00010000                7.12377643               -2.81018522               -0.32036077                4.99916615               23.61547485               -1.44795930
              10.47421579                2.24155978               19.93769883                0.47892510                3.44822675                0.25316094               -1.09985172                3.16941274               12.25774564               -0.41670833
              11.47740606                2.16491146               19.75409075                1.00000000                0.34996413                0.37955252               -1.34699610                0.04303029                0.36955267                0.10412609
              12.48121508                2.08940202               19.56968167                1.00000000                0.38090122                0.48884999               -1.45402668                0.08260109                0.30442103               -0.27068390
               2.25940962                3.56800378               20.33158123                1.00000000               -0.22649754               -0.28149075                0.89033826               -0.01450518                0.09001004                0.72555302
               3.25714464                3.50617158               20.15953775                1.00000000               -0.19185347               -0.20301038                0.65143846                0.00634022                0.17698058                0.18515658
               4.25557255                3.44400995               19.98903182                0.26133452               -0.12300132               -0.12617045                0.41439700                0.00622599                0.17506608               -0.27678658
               5.25468461                3.38145937               19.81700052                0.00010000                1.92365961               -0.05048223                0.18000071                0.19406986                7.18626054               -0.69614166
               6.29404574                3.32234223               19.78695031                0.00010000                4.08987416               -0.26190938               -0.02516247                2.91842676               15.86989062                6.99590736
               7.33648210                3.27357514               19.78265171                0.00010000                5.13368621               -1.44091490               -0.23558884                3.39000269               19.02698027                1.51679099
               8.39671946                3.24747568               19.80852673                0.00010000                6.76967461               -2.42475687               -0.40373908                3.71222738               20.94051551               -1.12605090
               9.47187559                3.22773405               19.83241483                0.00010000                7.96567508               -2.88770826               -0.68229295                4.73897106               24.00860490               -3.49436169
              10.55603296                3.24290338               19.90653487                0.25198073                4.07421241               -2.19953029                3.78412519                1.65645098               16.69435395               -5.77287502
              11.55335984                3.16895388               19.73883307                1.00000000                0.05287576                0.42172220               -1.61886922               -0.00912111                1.35569493                0.63625726
              12.55709048                3.09479450               19.55243554                1.00000000                0.37306420                0.54315752               -1.49381639                0.03596678                0.39096437               -0.25252641
               2.32070373                4.56532740               20.29099262                1.00000000               -0.18868376               -0.25009699                0.77227698               -0.01429675                0.13432470                0.57408455
               3.31881689                4.50430208               20.11639627                0.94464740               -0.15525033               -0.16941727                0.53260648                0.00589554                0.25095125                0.02833836
               4.31759872                4.44291926               19.94398512                0.15459763               -0.08682475               -0.08803894                0.29447219                0.00393373                0.49784876               -0.45850174
               5.31708040                4.38112093               19.77442191                0.00010000                1.98480548               -0.65410916                0.06167177               -0.00608030                9.00562297                0.51651237
               6.35729483                4.31322639               19.77243643                0.00010000                4.22526948               -0.95323893               -0.01904367                0.28746606               17.53193831                1.23894556
               7.40158579                4.26226944               19.76694590                0.00010000                4.72655359               -1.20934489               -0.26259399                1.56242198               17.89846057                0.55959258
               8.45182590                4.22552704               19.76538165                0.00010000                5.31037334               -1.89975997               -0.48900243                2.02207256               18.64506617               -2.06378446
               9.50779325                4.20301924               19.76769073                0.00010000                5.71495420               -2.25798611               -0.33185865                2.21642910               18.08363846               -4.73527557
              10.56612499                4.19756917               19.74788715                0.23490950                5.87696349               -3.90588778               -0.83238865                1.08982161               17.19734656               -9.02799122
              11.62533252                4.17334590               19.73062222                0.95133939                3.20640903                0.45332554               -1.56504306                2.37278135                8.83044181                0.64083089
              12.63025317                4.10026517               19.53520036                1.00000000                0.49206460                0.52165197               -1.60751352               -0.01092035               -0.09776137               -0.23267667
               2.38117431                5.56300184               20.24816294                1.00000000               -0.15036208               -0.20769796                0.63894855               -0.01422328                0.20190080                0.38554518
               3.37967069                5.50278324               20.07119748                0.76475504               -0.11709683               -0.13118751                0.40333788                0.01143003                0.34566600               -0.29985475
               4.37883237                5.44224918               19.89697460                0.10139019                0.22925943               -0.11294109                0.17028333                0.26638012                1.86487572                1.26505536
               5.38425588                5.36837719               19.75051528                0.00010000                1.99070850               -0.80032337                0.33444730                0.07093683               10.47429659                0.52522682
               6.41864654                5.30327745               19.74631533                0.00010000                3.55870019               -0.97886518                0.01166067                0.15768643               17.57544206                1.31425887
               7.45542988                5.24938825               19.73697335                0.00010000                3.88822850               -1.11620998               -0.29867308                0.48528174               17.04277707               -0.30635155
               8.49641111                5.20948048               19.71728581                0.00010000                4.43660807               -1.36185545               -0.57077048                0.77208476               16.47940290               -2.53723912
               9.54416204                5.18257433               19.69169133                0.00010000                5.55458123               -1.78011751               -0.86876347                0.72689427               16.40898929               -5.19565979
              10.60750274                5.16478562               19.66613110                0.24272359                7.69787127               -2.49211489               -1.20882632                1.51763795               20.61596725               -7.02714318
              11.69811947                5.17802039               19.71615479                0.84480997                4.77654027               -1.44948271               -1.63757454               -2.69016985               12.51363582              -11.23523818
              12.70303354                5.10522754               19.51949090                1.00000000                0.49140751                2.68969986               -1.65951513               -6.17605778                0.15773210               -9.24628838
               2.44085646                6.56117344               20.20382254                1.00000000               -0.10583071               -0.15716611                0.48214835               -0.01911390               -0.03314103                0.24240766
               3.43979815                6.50167833               20.02151792                0.64910580                0.82379559               -0.08357725                0.25352612               -0.05227464                2.34317419               -0.39682165
               4.45733237                6.44066044               19.88657453                0.07520812                0.88363542               -0.66034637                0.34810822               -0.14687994                3.04581098                4.41811503
               5.45747086                6.36511446               19.71175374                0.00010000                1.10525669               -0.48644059                0.22650854               -0.19910615               10.97142962                6.49364853
               6.47943750                6.29364908               19.73618486                0.00010000                2.38087617               -0.67426605               -0.01657026               -0.29721351               18.36141698                2.39468456
               7.50508838                6.23994524               19.70698822                0.00010000                2.73220050               -0.69836026               -0.37634668                0.02788116               15.30595391               -0.19140077
               8.53408151                6.19828993               19.66732426                0.00010000                3.09688065               -0.79468970               -0.71356760               -0.05129276               14.50864314               -2.56901829
               9.56702600                6.16741689               19.61882228                0.00010000                3.34750870               -0.94831738               -1.03275204               -0.47064330               14.00909872               -5.09415476
              10.60103169                6.14772687               19.56509248                0.25954237                3.20306071               -0.92211648               -1.34800850               -1.47163476               11.91328217               -8.56912278
              11.63108721                6.14435625               19.47064995                0.78070448                2.56430118               -1.81067925               -1.59688003               -3.88686946                7.31945991              -17.34905187
              12.65231771                6.15405916               19.32246007                1.00000000                2.12305011                2.10816262               -1.79714484               -2.93228829                4.63690684              -15.90234505
               2.49978224                7.55985851               20.15816958                1.00000000               -0.06440464                0.09408506                0.33071753                0.70278842                0.12886789                5.55149610
               3.49913820                7.50111169               19.97445859                0.58803381                0.63382005               -0.41717081                0.11048263                0.17556305                5.67933558                6.08953397
               4.51245864                7.42904225               19.90147632                0.06275512                1.40734547               -0.93521176                0.24535881               -1.07694558               10.36386488                5.80469511
               5.52728511                7.35864838               19.80804192                0.00010000                1.27064223               -0.60491662                0.11262233               -0.67031155               10.51646689                9.03349360
               6.53787149                7.28979213               19.73458122                0.00010000                1.20307741               -0.21780499               -0.15814791               -0.68418538               12.62852431                2.93170612
               7.55134665                7.23542104               19.68182759                0.00010000                1.50210597               -0.21723985               -0.49348511               -0.34255161               13.32989818                0.06826236
               8.56791361                7.19358669               19.62077031                0.00010000                1.69827912               -0.18174838               -0.82930148               -0.24681951               12.49353232               -2.20361070
               9.58531224                7.16360798               19.54927500                0.00010000                1.66085401               -0.04299145               -1.14674934               -0.31901896               11.09573966               -4.51700627
              10.60113069                7.14634329               19.45828627                0.28204300                1.43687753                0.15011179               -1.43598188               -0.42395572                8.62807503               -7.48311221
              11.61404979                7.14180680               19.33599650                0.74986214                1.19256285                0.01565080               -1.69219891               -0.47396443                4.77201817               -9.76641188
              12.62498195                7.14739079               19.16756650                1.00000000                1.09321579               -0.71597181               -1.90844452               -0.59731216                2.44098222              -11.03525646
               2.57240587                8.56305514               20.21976483                1.00000000                0.17198095               -0.01445574                0.54794818                0.15870660                2.54955293                9.31930847
               3.57412568                8.49333491               20.05447960                0.57597029                0.29254517               -0.56070115                0.35511855                0.04794799                4.34758231                9.15707445
               4.57825677                8.42195620               19.92445798                0.05381130                0.45945358               -0.46937891                0.19231335               -0.62063743                7.64892583                5.30286820
               5.58331475                8.35301613               19.82407799                0.00010000                0.53621810               -0.32947060               -0.01335156               -1.02708861                9.85718472                3.84385375
               6.58898114                8.28929298               19.73733552                0.00010000                0.55640188                0.04497770               -0.30229664               -0.86986772               11.01676987                2.28817350
               7.59444279                8.23560045               19.65909681                0.00010000                0.59885241                0.17721740               -0.62238333               -0.49687408               11.45146427                0.13007637
               8.60095818                8.19465497               19.58029172                0.00010000                0.67231121                0.28508082               -0.94384763               -0.13053125               10.90317342               -1.59959593
               9.60788901                8.16655707               19.49040182                0.00712954                0.66977853                0.44277864               -1.24988037                0.21283522                9.39403709               -3.24650499
              10.61435375                8.15072911               19.38092615                0.30964621                0.63357071                0.54224374               -1.53466543                0.55239784                6.97761705               -4.78858207
              11.62056043                8.14466926               19.24270694                0.75360647                0.74248703                0.35923352               -1.79707296                0.60064794                3.72692129               -6.01301758
              12.62920349                8.13973973               19.06878378                1.00000000                0.86430676               -0.40153893               -2.04145892                0.42048350                1.90365676               -6.49122848
               2.64239682                9.55956940               20.24856242                1.00000000               -0.12007279               -0.30481676                0.65435008               -0.07623442                2.01564112                5.14370531
               3.64119609                9.48989767               20.07224859                0.59824867               -0.10160701               -0.23702443                0.41609860               -0.30233518                3.85152921                3.99682451
               4.64036468                9.41965467               19.93298281                0.02677701               -0.08947717               -0.09590145                0.15815557               -0.58504189                7.02790672                2.98134818
               5.63940655                9.35205897               19.82035412                0.00010000               -0.12374334                0.07715211               -0.12613014               -0.69618112                9.20936667                1.86679171
               6.63788982                9.29069168               19.72478348                0.00010000               -0.16796800                0.30508784               -0.43001674               -0.62317201               10.42908118                0.96035557
               7.63604719                9.23896539               19.63669528                0.00010000               -0.17717247                0.49730775               -0.74557214               -0.35442372               10.72405969                0.05296958
               8.63434637                9.19928831               19.54726495                0.00010000               -0.12761963                0.62416571               -1.05678504               -0.00862062               10.12065808               -0.85128612
               9.63349480                9.17246356               19.44754078                0.02394699               -0.01399598                0.71296589               -1.35413537                0.36475490                8.62900784               -1.65880854
              10.63406645                9.15718817               19.32891933                0.33996615                0.17786644                0.71649346               -1.63449219                0.67286637                6.31995289               -2.35675400
              11.63705213                9.14899147               19.18389765                0.79197658                0.45921210                0.52809527               -1.90150467                0.64466601                3.34757093               -2.85686869
              12.64325069                9.13936001               19.00689732                0.97990709                0.61985609                0.24693148               -2.16358350                0.39919090                1.69425938               -3.13590497
               2.71022464               10.55695880               20.22869310                1.00000000               -0.22309348               -0.26105959                0.69912964               -0.05365594                2.42254244                2.62507585
               3.70799371               10.48859443               20.05122713                0.83315376               -0.29150011               -0.13032434                0.44684167               -0.16627051                4.27869467                1.98471217
               4.70439464               10.42003817               19.91154759                0.51465386               -0.48197938                0.03835023                0.12695865               -0.29876723                7.46087607                1.43658931
               5.69835412               10.35455917               19.79856036                0.36398378               -0.73916825                0.25002038               -0.19919545               -0.33741491                9.58430209                0.92834060
               6.68961127               10.29539474               19.70232392                0.35569438               -0.97982146                0.47030608               -0.52791824               -0.27848268               10.73080942                0.43802291
               7.67875769               10.24554660               19.61339790                0.37455559               -1.11618340                0.65812138               -0.85321927               -0.14177334               10.93489521               -0.01353973
               8.66728760               10.20713828               19.52262155                0.41841269               -1.07367205                0.78499742               -1.16640066                0.05761287               10.22895162               -0.45204525
               9.65728425               10.18081638               19.42120396                0.51950867               -0.80022207                0.83528280               -1.45996465                0.27497975                8.66314744               -0.85579573
              10.65128316               10.16505898               19.30092768                0.68622494               -0.30011712                0.78708088               -1.73299243                0.44241100                6.33388753               -1.18843462
              11.65128190               10.15523117               19.15474406                0.92490045                0.25835363                0.62396965               -1.99207208                0.40394670                3.38533723               -1.42470143
              12.65645024               10.14467836               18.97708153                0.98698901                0.51683311                0.53183460               -2.25605373                0.26467352                1.74508185               -1.60302584
               2.23682128                0.62508345               21.46622189                1.00000000               -0.31561454               -0.33179047                1.15137033               -0.04747615               -0.29037651                0.36306576
               3.23366513                0.55843530               21.29649958                1.00000000               -0.28557512               -0.27009804                0.95200260               -0.02935938               -0.37010311                0.09017903
               4.23110977                0.49149365               21.12477546                1.00000000               -0.22553030               -0.20961596                0.75079060               -0.02839666               -0.45523161               -0.02207312
               5.22915453                0.42422918               20.95317551                0.62178186               -0.16549605               -0.14924341                0.54940239               -0.02937038               -0.34908501               -0.07408354
               6.22779985                0.35661858               20.78363287                0.70988587                5.03419911               -0.08760012                0.34989834                4.70470795               11.32287925               -0.31868553
               7.32983851                0.38338947               20.84576870                0.79395816                8.80165460               -3.56779351               -0.02901394                3.93351573               22.77795124                0.31746124
               8.40383295                0.36584346               20.89827366                0.77263644                6.52683629               -2.88827874               -0.36386110                1.80671554               22.11372393                0.28665993
               9.46037523                0.33363296               20.93946000                0.86783186                4.99780377               -2.27451957               -0.69664812                0.67516556               21.34760513                0.09206358
              10.50378902                0.25650202               20.96776607                1.00000000                2.33494624                0.35082689               -1.02350641                0.07989651               10.49456477                0.25046191
              11.50707416                0.17697453               20.78080166                1.00000000                0.35681069                0.37071764               -1.19214187               -0.04195790               -0.26236590               -0.00682357
              12.51092523                0.09740705               20.59381511                1.00000000                0.38510764                0.40833441               -1.35907401               -0.03710426               -0.25869705               -0.24686998
               2.30299467                1.62176555               21.42199574                1.00000000               -0.28282338               -0.31699442                1.04492619               -0.01531137               -0.04009826                0.54547191
               3.30016644                1.55573432               21.25212222                1.00000000               -0.25329022               -0.25529590                0.84573162                0.00217133               -0.04439563                0.17001923
               4.29792887                1.48939750               21.08182585                0.81252584               -0.19340381               -0.19400132                0.64524957                0.00262877               -0.02572586               -0.07107197
               5.29629836                1.42273675               20.91221808                0.16053234               -0.13310403               -0.13380036                0.44436881                0.00125860                0.00660965               -0.21249856
               6.29526679                1.35574257               20.74269795                0.32533505                3.41314295               -0.07174773                0.24459212                2.96513531               11.93779072               -0.30421051
               7.36456122                1.34771154               20.81208335                0.42234046                7.57557844               -2.99185062               -0.08108853                4.31299024               23.57750591                0.94634034
               8.44677836                1.33696068               20.86788909                0.31335309                7.86181951               -3.12227676               -0.36220260                3.60370030               22.78115353                0.11150310
               9.52179761                1.31088777               20.91162700                0.46229569                6.80694238               -2.37145075               -0.66611605                2.82369836               22.33156274               -0.23863425
              10.58291720                1.26001029               20.94856657                1.00000000                3.22022267                0.35814208               -1.05759684                1.38155368               11.19991008                0.26004428
              11.58620206                1.18068171               20.76169928                1.00000000                0.36022339                0.36206778               -1.21387490               -0.05826208               -0.00488861               -0.00609236
              12.59012167                1.10149040               20.57482377                1.00000000                0.39196066                0.40974140               -1.38621369               -0.03883150               -0.01489903               -0.28793339
               2.36857751                2.61874357               21.38091294                1.00000000               -0.25009000               -0.28925337                0.93996656               -0.01391525                0.04109620                0.74510385
               3.36607661                2.55332938               21.20908217                1.00000000               -0.22087954               -0.22603693                0.74060525                0.00402197                0.08566494                0.24432781
               4.36415992                2.48761363               21.03788155                0.45924581               -0.16209972               -0.16304270                0.54079817                0.00387301                0.22083114               -0.15558215
               5.36283462                2.42155317               20.86871769                0.00010000               -0.10160770               -0.10167715                0.34026315                0.00205784                0.46169351               -0.66074471
               6.36212777                2.35518362               20.70252129                0.00010000                3.60227955                0.08886616                0.13843471                3.88119770               13.51720678                5.93628925
               7.43488021                2.32355246               20.79489422                0.00010000                7.53014766               -2.17648691               -0.15030864                5.00900651               24.43108779                1.69829089
               8.51273072                2.30339793               20.83783893                0.00010000                7.94596891               -3.11694858               -0.38631894                4.84779823               22.45916852               -0.28362506
               9.59379959                2.28620395               20.88151681                0.00010000                7.44477177               -2.81767133               -0.51805241                4.73310864               23.14473959               -1.59746884
              10.66162616                2.26366486               20.92977732                0.48495373                3.53146118                0.27684082               -0.82546837                2.69147009               11.91190549                0.14114894
              11.66442881                2.18421589               20.74247056                1.00000000                0.34525351                0.34763513               -1.16444178               -0.10520534                0.12047769                0.11077751
              12.66853123                2.10560188               20.55491897                1.00000000                0.41024154                0.41870988               -1.45606535               -0.03092587                0.11737632               -0.26206276
               2.43354474                3.61598048               21.34022099                1.00000000               -0.21679226               -0.26622223                0.83591423               -0.01327746                0.08923197                0.73567223
               3.43137681                3.55121358               21.16597849                1.00000000               -0.18811011               -0.19718993                0.63553302                0.00527266                0.17565877                0.19179412
               4.42978253                3.48613664               20.99328269                0.26841475               -0.13036444               -0.13149456                0.43572935                0.00405459                0.17537613               -0.27187948
               5.42876953                3.42070320               20.81908000                0.00010000                2.05544589               -0.06925034                0.23723588                0.13167049                7.19021330               -0.68837820
               6.47089145                3.35751990               20.78693565                0.00010000                4.38787580               -0.42390302                0.03204784                2.92618622               15.84138797                7.07174002
               7.51652704                3.30418180               20.78056175                0.00010000                5.50956892               -1.60866962               -0.18918072                3.34133536               18.90109675                1.58435146
               8.58108283                3.27462171               20.80366952                0.00010000                6.98329041               -2.59953656               -0.42549376                3.76074247               20.84694103               -1.10024601
               9.65619285                3.25453434               20.82911977                0.00010000                7.88259186               -2.90231029               -0.37020994                4.70855796               23.85556440               -3.35988665
              10.73873467                3.26554711               20.90896383                0.25141900                4.29840453               -1.76304838               -0.21826621                1.60295868               13.62718174               -6.96812058
              11.74216094                3.18763441               20.72575807                1.00000000                0.39982488                0.36322020               -1.26175139               -0.00061161                0.48753974                0.51101092
              12.74673117                3.10986459               20.53693120                1.00000000                0.45702253                0.44867771               -1.53196161                0.02422779                0.22927574               -0.21423193
               2.49784577                4.61341912               21.29851820                1.00000000               -0.18198619               -0.24599142                0.73236462               -0.01280718                0.13520403                0.58281087
               3.49602591                4.54938558               21.12170607                0.93413737               -0.15471894               -0.16759439                0.52888776                0.00548764                0.24968028                0.03290472
               4.49475139                4.48498374               20.94708498                0.16135537               -0.09705675               -0.09606779                0.32654176                0.00090945                0.49742627               -0.45730670
               5.49408477                4.42016817               20.77536302                0.00010000                2.12107526               -0.75495833                0.12955952               -0.11854421                9.06879656                0.66348265
               6.53717290                4.34670556               20.77246707                0.00010000                4.52601681               -1.11321998                0.04764172                0.09552765               17.51982043                1.42102959
               7.58460511                4.29137907               20.76451167                0.00010000                5.02100665               -1.35690707               -0.20934364                1.45062040               17.77240810                0.66113375
               8.63759303                4.25140720               20.76087008                0.00010000                5.62201188               -2.03146032               -0.43050284                2.00307661               18.55180718               -1.96135877
               9.69704535                4.22815774               20.76295433                0.00010000                6.14961172               -2.43548350               -0.50518781                2.76641558               18.22885660               -4.78400765
              10.76058526                4.22840390               20.74662508                0.23267627                6.15268734               -3.94126433               -0.43073402                1.29662794               16.96560954              -10.10296972
              11.82009909                4.19148029               20.71508112                0.93186023                3.19850760                0.41633024               -1.47569950                2.02836293                8.16784950                0.57502022
              12.82455541                4.11457543               20.51954831                1.00000000                0.44563221                0.48144468               -1.55395185                0.03930636               -0.06033381               -0.20246126
               2.56135567                5.61106065               21.25440374                1.00000000               -0.14337208               -0.21279466                0.61585519               -0.01228633                0.21103454                0.36881336
               3.55992195                5.54786169               21.07526400                0.75686205               -0.11687662               -0.13400365                0.41219520                0.00696472                0.35318385               -0.30673422
               4.55901814                5.48421529               20.89889001                0.10724193                0.23774335               -0.09524711                0.21327912                0.30837752                2.01716203                1.38982634
               5.56467682                5.40560404               20.75316450                0.00010000                2.12864819               -0.91364711                0.35142506               -0.01956317               10.36425262                0.61604540
               6.60159110                5.33525550               20.74701224                0.00010000                3.80804966               -1.13850931                0.12098378                0.00184527               17.36665135                1.48438585
               7.64083781                5.27704366               20.73438034                0.00010000                4.13872922               -1.25783940               -0.22321899                0.36774458               16.84377287               -0.21676600
               8.68436569                5.23399250               20.71187806                0.00010000                4.68433266               -1.49453731               -0.51171358                0.76138576               16.33226124               -2.50844197
               9.73452446                5.20582467               20.68381746                0.00010000                5.84894963               -1.98745149               -0.75736293                0.73300260               16.23459963               -5.36643358
              10.80134468                5.18672182               20.65414605                0.24019622                8.10160981               -3.08899422               -1.08485606                1.23113130               20.29059512               -7.52660421
              11.89655666                5.19596101               20.70032406                0.82738878                4.99911626               -1.50744387               -1.53736824               -3.05298556               12.32308468              -11.17473102
              12.90132701                5.11949349               20.50306095                1.00000000                0.47703450                2.82796746               -1.62243831               -6.49956489                0.13272043               -9.24769468
               2.62399797                6.60916323               21.20841136                1.00000000               -0.09873964               -0.15400493                0.44207455               -0.02061104               -0.02733781                0.19530270
               3.62301057                6.54670551               21.02406208                0.64318267                0.95893148               -0.08464671                0.25966938               -0.03011686                2.48779455               -0.40305717
               4.64317660                6.48307879               20.88987414                0.08019630                0.98213631               -0.78628350                0.39836017               -0.18017022                2.93618792                4.35157298
               5.64265330                6.40189522               20.71438385                0.00010000                1.12967914               -0.62653155                0.39750619               -0.35786663               10.77750735                6.49151098
               6.66577018                6.32393537               20.73667279                0.00010000                2.52848511               -0.81815464                0.12020640               -0.46328829               18.11358798                2.38559082
               7.69322300                6.26622228               20.70376884                0.00010000                2.91347756               -0.82512577               -0.27723041               -0.04223148               15.07753853               -0.16898284
               8.72403973                6.22151645               20.66068434                0.00010000                3.28765394               -0.91656321               -0.62182124               -0.10575403               14.33840087               -2.57377936
               9.75897608                6.18840871               20.60901307                0.00010000                3.55159082               -1.12805702               -0.93050470               -0.54572057               13.85820334               -5.13368086
              10.79507155                6.16662401               20.55235359                0.25720940                3.36458188               -1.12863364               -1.22777665               -1.66913902               11.78424819               -8.56021233
              11.82626771                6.16133141               20.45523188                0.76504831                2.62138127               -1.87165341               -1.48593126               -4.19538484                7.22080731              -17.29694102
              12.84749917                6.17113478               20.30509916                1.00000000                2.12314571                2.22814352               -1.68247430               -3.14449619                4.57100283              -15.96282349
               2.68585889                7.60798056               21.16113882                1.00000000               -0.04548424                0.10855963                0.23408431                0.83315569                0.10962106                5.73493003
               3.68540405                7.54616876               20.97549074                0.58362475                0.71830654               -0.52287764                0.08295347                0.19299363                5.88710645                6.30907854
               4.70022502                7.46848962               20.90475702                0.06658163                1.56294295               -1.18312990                0.46561032               -1.26093767               10.64041842                5.76249724
               5.71666291                7.39307341               20.81003901                0.00010000                1.38866303               -0.82146358                0.32650429               -0.78986541               10.41783939                8.89853238
               6.72799828                7.31889241               20.73370696                0.00010000                1.28745987               -0.32692803               -0.02425451               -0.78319689               12.45049090                2.83377796
               7.74241210                7.26054114               20.67744794                0.00010000                1.60329463               -0.31469972               -0.38585336               -0.39701008               13.15052893                0.03473921
               8.76006417                7.21566124               20.61300649                0.00010000                1.80451954               -0.27781651               -0.72998093               -0.29475421               12.35106029               -2.20771606
               9.77850249                7.18326353               20.53837586                0.00010000                1.74875138               -0.14422597               -1.03836454               -0.39265822               10.98744092               -4.51165254
              10.79503920                7.16414915               20.44452932                0.27995691                1.48178487                0.07074408               -1.31406999               -0.53369442                8.55306676               -7.47988329
              11.80813819                7.15852795               20.31978328                0.73500871                1.18955699               -0.01733443               -1.55486527               -0.56411565                4.73669498               -9.77928993
              12.81883034                7.16405636               20.14928143                1.00000000                1.06921492               -0.78605615               -1.75442518               -0.65431973                2.42519499              -11.10528464
               2.76428468                8.61133442               21.22569716                1.00000000                0.20767067               -0.08068530                0.77286050                0.19684003                2.60523310                9.59682817
               3.76636138                8.53624796               21.05855660                0.57283696                0.33842595               -0.73552178                0.53578614                0.06121905                4.39609648                9.40234396
               4.77105319                8.45941620               20.92707638                0.05613014                0.50459079               -0.62775082                0.36850833               -0.66835783                7.66882321                5.22027595
               5.77645320                8.38546595               20.82467187                0.00010000                0.57926542               -0.47059852                0.12790558               -1.10048694                9.80166362                3.71555375
               6.78263850                8.31739681               20.73490209                0.00010000                0.60303841               -0.03789781               -0.18805775               -0.92192196               10.89316268                2.19085760
               7.78851397                8.25992829               20.65340423                0.00010000                0.63918770                0.11330570               -0.52283067               -0.53379112               11.32848607                0.08838554
               8.79542226                8.21596012               20.57138651                0.00010000                0.70605169                0.22429376               -0.84267192               -0.15830612               10.80203586               -1.60778938
               9.80263500                8.18552419               20.47849313                0.00800503                0.68554931                0.38790115               -1.13619144                0.18755519                9.32264249               -3.24011690
              10.80913324                8.16803889               20.36626986                0.30759772                0.62215957                0.49836874               -1.40127410                0.53816583                6.93531953               -4.78480907
              11.81507819                8.16098472               20.22553650                0.73796418                0.71113556                0.31387366               -1.64078609                0.60294551                3.70972699               -6.03489501
              12.82335595                8.15541366               20.04930288                1.00000000                0.82777629               -0.49557232               -1.86051776                0.42620071                1.89858690               -6.56141687
               2.83996862                9.60636685               21.25575182                1.00000000               -0.14219675               -0.44004489                0.85563587               -0.06902338                2.00062744                5.08296326
               3.83854665                9.53145832               21.07703667                0.59547558               -0.11643758               -0.35363965                0.59240848               -0.32645260                3.82868579                3.95282139
               4.83763987                9.45593460               20.93514691                0.02691801               -0.09370505               -0.17858150                0.27355775               -0.62796068                6.97090207                2.91778702
               5.83667255                9.38366143               20.81959638                0.00010000               -0.12711800                0.01872097               -0.03132965               -0.72318013                9.12113116                1.78572387
               6.83509751                9.31813445               20.72096621                0.00010000               -0.17497891                0.26005608               -0.34317984               -0.64761930               10.33227812                0.90407814
               7.83317297                9.26280726               20.62972150                0.00010000               -0.18976826                0.46284797               -0.65712706               -0.37168531               10.63228157                0.02557286
               8.83130214                9.22014711               20.53722581                0.00010000               -0.14990725                0.59199569               -0.95770240               -0.01726494               10.05023539               -0.85655609
               9.83017483                9.19102155               20.43461487                0.02575482               -0.04800772                0.68072949               -1.23644208                0.36807779                8.58492524               -1.65474293
              10.83034199                9.17411652               20.31330701                0.33767080                0.13237535                0.68114747               -1.49236267                0.69152247                6.29983897               -2.35621004
              11.83282233                9.16480542               20.16575376                0.77310867                0.40772474                0.47821346               -1.73181978                0.66893555                3.34235415               -2.87219876
              12.83849648                9.15414491               19.98627037                0.98083384                0.56741484                0.16841458               -1.96724488                0.41413449                1.69452034               -3.18272637
               2.91272126               10.60253352               21.23651482                1.00000000               -0.24566821               -0.38333263                0.80928163               -0.06057170                2.32234819                2.53010576
               3.91026458               10.52917516               21.05651169                0.83230102               -0.32151973               -0.22831589                0.54548929               -0.16265495                4.15084182                1.95441908
               4.90629087               10.45584457               20.91341350                0.51428710               -0.52374174               -0.00900318                0.21505049               -0.30163958                7.30450297                1.39183102
               5.89978975               10.38584037               20.79706516                0.36445107               -0.78752867                0.21789366               -0.12540494               -0.35061213                9.44494168                0.89260554
               6.89054029               10.32259794               20.69749969                0.35590015               -1.03610736                0.44634866               -0.45565122               -0.28847764               10.60746909                0.41032919
               7.87906760               10.26918525               20.60533848                0.37437874               -1.18388169                0.63779884               -0.77295535               -0.15043240               10.83719286               -0.02558707
               8.86686266               10.22780004               20.51149023                0.41781666               -1.15202271                0.76529256               -1.06988225                0.05372873               10.16512591               -0.45335641
               9.85602714               10.19913878               20.40723840                0.52091264               -0.88414165                0.81172297               -1.34033754                0.27832194                8.63677391               -0.85233047
              10.84917983               10.18166184               20.28436559                0.68538321               -0.37993154                0.75453200               -1.58507432                0.45429438                6.33854836               -1.18707000
              11.84842851               10.17054899               20.13574202                0.91414615                0.18899164                0.57435740               -1.81339030                0.41662333                3.40248448               -1.43225114
              12.85295966               10.15878195               19.95558177                0.98692522                0.45311471                0.46370405               -2.04970441                0.26961356                1.76369590               -1.63203837
               2.40462686                0.67348142               22.47729757                1.00000000               -0.29532007               -0.30638432                1.06395169               -0.03983939               -0.29182121                0.36421347
               3.40167366                0.60425190               22.30577793                1.00000000               -0.27108678               -0.25684924                0.90359139               -0.02396240               -0.37252150                0.09085577
               4.39920513                0.53475575               22.13224106                1.00000000               -0.22268246               -0.20846645                0.74206427               -0.02315929               -0.45872889               -0.02144915
               5.39722001                0.46497303               21.95882642                0.62361842               -0.17437169               -0.16006123                0.58039028               -0.02363056               -0.35201225               -0.07390558
               6.39571769                0.39488742               21.78748559                0.71255643                5.19114023               -0.11078570                0.42013851                4.76862070               11.21097348               -0.31969780
               7.50104282                0.42037544               21.84562564                0.79642199                9.15518314               -3.75938831                0.00634533                3.95516712               22.54404180                0.30292356
               8.57882136                0.39894717               21.89466629                0.77406457                6.94553286               -3.08431419               -0.35480936                1.75041304               21.90722690                0.27145576
               9.63995348                0.36209585               21.93249257                0.86901447                5.51910608               -2.49875963               -0.69635506                0.49225138               21.17178320                0.09579338
              10.68920348                0.27793187               21.95737433                1.00000000                2.63017422                0.30979264               -1.03904370               -0.15432285               10.46077768                0.22646212
              11.69255696                0.19599900               21.76873960                1.00000000                0.36022130                0.35730780               -1.19884175               -0.04924015               -0.21093622               -0.00479236
              12.69640790                0.11408798               21.58010387                1.00000000                0.38509445                0.40669920               -1.35749553               -0.04463035               -0.21556962               -0.24612266
               2.47345800                1.67041758               22.43206241                1.00000000               -0.26611197               -0.29236918                0.96858521               -0.01411466               -0.04083284                0.54735470
               3.47079688                1.60168341               22.26039264                1.00000000               -0.24225130               -0.24296597                0.80830925                0.00104001               -0.04590784                0.17138353
               4.46861297                1.53267109               22.08828951                0.82708692               -0.19395015               -0.19407827                0.64724299                0.00134913               -0.02798910               -0.06970591
               5.46691787                1.46337242               21.91687242                0.16992085               -0.14551364               -0.14596331                0.48609006                0.00069312                0.00472870               -0.21158279
               6.46570270                1.39377956               21.74555365                0.33475277                3.58233716               -0.09673824                0.32583533                2.94505553               11.85349317               -0.30514565
               7.53856462                1.38278156               21.81147765                0.43280222                7.98812916               -3.19001418               -0.03983126                4.27524760               23.40899031                0.93038842
               8.62546528                1.36810403               21.86424358                0.32363572                8.34095121               -3.31889578               -0.36473228                3.49031944               22.61866489                0.09387017
               9.70538364                1.33710826               21.90503369                0.47001231                7.26216981               -2.53822977               -0.67455228                2.61851088               22.14860907               -0.20583636
              10.77070868                1.28102979               21.93842258                1.00000000                3.43014307                0.30268147               -1.01706175                1.23802509               11.11406848                0.29375147
              11.77398650                1.19957208               21.74973437                1.00000000                0.35819730                0.35346130               -1.19330300               -0.03789071                0.00980612               -0.00985021
              12.77787262                1.11815497               21.56093838                1.00000000                0.38861205                0.39826772               -1.37205810               -0.02881748               -0.00054915               -0.31514014
               2.54181292                2.66763404               22.38998279                1.00000000               -0.23719621               -0.26528098                0.87340600               -0.01308357                0.04057748                0.74899607
               3.53944096                2.59939258               22.21635274                1.00000000               -0.21349104               -0.21499195                0.71303141                0.00196908                0.08465724                0.24700852
               4.53754310                2.53087419               22.04334841                0.46874449               -0.16577800               -0.16510746                0.55227755                0.00133879                0.21953212               -0.15340978
               5.53612540                2.46205376               21.87237907                0.00010000               -0.11667164               -0.11629693                0.39161995               -0.00017423                0.46025999               -0.65893351
               6.53520967                2.39295266               21.70437374                0.00010000                3.80489552                0.00258426                0.23119718                3.91052187               13.45129489                5.92569148
               7.61222331                2.35657516               21.79364063                0.00010000                7.95456889               -2.35684140               -0.10048230                4.94110713               24.29639015                1.69809789
               8.69430104                2.33256925               21.83416183                0.00010000                8.35873091               -3.28322084               -0.36768700                4.71955420               22.35292377               -0.28648453
               9.77939793                2.31133126               21.87594977                0.00010000                7.85995572               -2.90047294               -0.60545797                4.48625845               23.02385593               -1.49108974
              10.85150016                2.28398550               21.92118946                0.49044699                3.76380200                0.28317086               -0.92377039                2.64833003               11.85195518                0.26552641
              11.85467397                2.20306823               21.73080191                1.00000000                0.35828055                0.34957264               -1.17729264               -0.03876981                0.10662666                0.07900071
              12.85866577                2.12205333               21.54056036                1.00000000                0.39918028                0.38627748               -1.40656519               -0.02863377                0.10357350               -0.31019763
               2.60967925                3.66511196               22.34829951                1.00000000               -0.20831341               -0.24165915                0.77862915               -0.01188143                0.08858723                0.74518437
               3.60759611                3.59738357               22.17224841                1.00000000               -0.18503430               -0.18589576                0.61764523                0.00298698                0.17435099                0.19654837
               4.60597856                3.52936894               21.99774640                0.27572229               -0.13800979               -0.13541931                0.45681811                0.00050550                0.17467767               -0.27062158
               5.60483592                3.46104648               21.82174524                0.00010000                2.17065907               -0.08738406                0.29626889                0.07055748                7.17904082               -0.68653910
               6.64939174                3.39383125               21.78759127                0.00010000                4.64671230               -0.56911353                0.09665659                2.89655860               15.78159532                7.12468843
               7.69777016                3.33564473               21.77886809                0.00010000                5.78542593               -1.74508129               -0.13844637                3.25079929               18.81547530                1.63245244
               8.76510026                3.30243961               21.80001686                0.00010000                7.29612017               -2.72389599               -0.36720427                3.67862037               20.80844246               -1.08129536
               9.84369257                3.27909880               21.82501063                0.00010000                8.34190235               -2.93449250               -0.51767519                4.57355300               23.99104119               -3.47414198
              10.93193831                3.28669321               21.90216955                0.25059995                4.57253504               -1.68289671               -0.83214690                1.46374831               13.83090725               -6.95400600
              11.93514327                3.20656353               21.71359804                1.00000000                0.36957122                0.36060452               -1.21777381                0.01398129                0.38841077                0.40925748
              12.93932973                3.12588052               21.52179631                1.00000000                0.41864656                0.40164288               -1.47018484                0.00401595                0.20030590               -0.20021174
               2.67703208                4.66280086               22.30563991                1.00000000               -0.17883579               -0.23135052                0.68478588               -0.01285765                0.13282570                0.60056496
               3.67524372                4.59567466               22.12697403                0.92381803               -0.15708913               -0.15455118                0.52171884                0.00084615                0.24528419                0.03840247
               4.67389030                4.52816580               21.95051596                0.16737103               -0.10847436               -0.10561980                0.35986008               -0.00360121                0.49569090               -0.45925404
               5.67307424                4.46030608               21.77701311                0.00010000                2.23261462               -0.96846065                0.20092492               -0.40063158                9.12317631                0.85097437
               6.71854259                4.38157039               21.77338927                0.00010000                4.77783496               -1.25359010                0.15191474               -0.16302857               17.50996032                1.58383681
               7.76863093                4.32167353               21.76275902                0.00010000                5.29383956               -1.49244852               -0.14727442                1.30951560               17.65837316                0.73936119
               8.82441938                4.27809133               21.75677160                0.00010000                5.89922259               -2.14711120               -0.40514281                1.97434202               18.51278252               -1.96582018
               9.88661539                4.25264141               21.75758698                0.00010000                6.44455052               -2.49559353               -0.59460973                2.75648532               18.19345408               -5.00912452
              10.95331039                4.25032756               21.73927247                0.23025691                6.45754476               -3.90840873               -0.84092126                1.12543220               16.56014685              -10.69664393
              12.01576628                4.21028032               21.70110823                0.91229131                3.34008591                0.39057368               -1.36262901                2.01408124                7.90774242                0.47977701
              13.02011211                4.13008619               21.50412132                1.00000000                0.43458284                0.44211383               -1.51510483                0.02480929               -0.04702618               -0.15009676
               2.74367448                5.66048495               22.26048005                1.00000000               -0.14263866               -0.22282209                0.60118604               -0.02043188                0.22037705                0.37044581
               3.74224809                5.59429254               22.07944139                0.74890935               -0.11996812               -0.11421089                0.42133022               -0.01904366                0.35536434               -0.31043538
               4.74127512                5.52725654               21.90124018                0.11258312                0.05853021               -0.31704534                0.26009906               -0.03856094                2.21570240                1.54984468
               5.74341870                5.44167727               21.75754378                0.00010000                2.17443027               -1.11179567                0.79394293               -0.26744845               10.58401748                0.93222930
               6.78476372                5.36875945               21.74873500                0.00010000                4.20104150               -1.34521007                0.22173923               -0.10499105               17.21669940                1.63231212
               7.82743953                5.30579576               21.73250897                0.00010000                4.44277494               -1.40877711               -0.15008724                0.23673013               16.67078550               -0.15354135
               8.87361922                5.25949738               21.70705154                0.00010000                4.95732577               -1.62027115               -0.46882257                0.72885466               16.21645730               -2.52077772
               9.92658604                5.22918693               21.67654407                0.00010000                6.15944102               -2.12282664               -0.72897058                0.74665416               16.15474877               -5.53958630
              10.99680804                5.20852503               21.64443398                0.23752252                8.45401089               -3.20941051               -0.99433440                1.11877602               20.05476172               -7.80963519
              12.09566626                5.21437500               21.68540743                0.80990193                5.17030632               -1.56610548               -1.44356585               -3.34053671               12.10752471              -11.14522358
              13.10021417                5.13472280               21.48704213                1.00000000                0.45479079                2.92480098               -1.57151456               -6.77066536                0.11855999               -9.20405558
               2.80900826                6.65834442               22.21266403                1.00000000               -0.09169986               -0.16068226                0.42226404               -0.01558038                0.01794098                0.13889593
               3.80809126                6.59339045               22.02671130                0.63720724                0.83630492               -0.07469013                0.27625870               -0.27527459                2.67387880               -0.39667854
               4.82573436                6.52182489               21.89454173                0.08462777                0.90655501               -1.00832925                0.72572922               -0.29383246                3.12286320                4.41600681
               5.82622236                6.43807017               21.71970387                0.00010000                1.32949606               -0.76731292                0.88157733               -0.19427281               10.76727874                6.42729960
               6.85232428                6.35466618               21.73858899                0.00010000                2.82026197               -1.02605313                0.27532686               -0.49317671               17.87388138                2.40306835
               7.88262760                6.29349799               21.70144361                0.00010000                3.16405132               -0.96576603               -0.19185930               -0.06810510               14.85574186               -0.15316220
               8.91560530                6.24568591               21.65488784                0.00010000                3.49466101               -1.03835929               -0.55023891               -0.14627183               14.18600060               -2.58953114
               9.95252082                6.21018488               21.60021219                0.00010000                3.74462651               -1.26460279               -0.85029981               -0.62971884               13.72571244               -5.20161130
              10.99049783                6.18613935               21.54053694                0.25477629                3.51184826               -1.28478413               -1.13501932               -1.86250517               11.65624933               -8.65110561
              12.02275778                6.17895821               21.44093132                0.74927070                2.67526918               -1.92293064               -1.38257936               -4.45959112                7.13126260              -17.23962182
              13.04400322                6.18858221               21.28881058                1.00000000                2.12454332                2.31792921               -1.57369384               -3.32383125                4.50964018              -15.95995938
               2.87327081                7.65727131               22.16285127                1.00000000               -0.00086862                0.10171423                0.07854974                1.04191348                0.08384733                6.17863107
               3.87326213                7.59279874               21.97611766                0.57922289                0.87239673               -0.67772894                0.00104963                0.11978934                6.17850788                6.79131580
               4.89071875                7.50708996               21.91078853                0.06990509                1.67149120               -1.29265355                0.89923022               -1.33420612               10.85928414                5.61884274
               5.90669195                7.42633101               21.81457201                0.00010000                1.43768123               -1.01501673                0.49542533               -0.67758097               10.31941730                8.66701789
               6.91947237                7.34823838               21.73409613                0.00010000                1.41828758               -0.44076474                0.13010499               -0.70314081               12.22991537                2.71831164
               7.93505770                7.28648044               21.67411053                0.00010000                1.72672632               -0.42016917               -0.29131396               -0.38038492               12.96939589                0.00279907
               8.95400690                7.23873020               21.60617069                0.00010000                1.92402619               -0.37030237               -0.64595413               -0.31404342               12.21040440               -2.21864736
               9.97353823                7.20389487               21.52850771                0.00010000                1.83888549               -0.23345778               -0.94411982               -0.44815779               10.88695242               -4.52216011
              10.99078461                7.18282935               21.43200487                0.27783621                1.52466768                0.00579446               -1.20159699               -0.62297696                8.48099817               -7.47932777
              12.00403158                7.17591639               21.30489920                0.71999250                1.18524647               -0.04786627               -1.42526612               -0.63919004                4.69721614               -9.78435243
              13.01448954                7.18108138               21.13247800                1.00000000                1.04579582               -0.85298814               -1.60835132               -0.70153826                2.40662372              -11.14056079
               2.95879166                8.66037870               22.23522204                1.00000000                0.18767385               -0.34301496                1.50582210                0.27415954                2.79328328                9.59920272
               3.96066840                8.57983587               22.06519532                0.56980969                0.33631547               -1.08998673                1.16104158                0.03528538                4.49962722                9.32882365
               4.96551797                8.49597182               21.93182814                0.05805733                0.54269574               -0.77083335                0.56424241               -0.77808829                7.68123310                5.02570332
               5.97152231                8.41776983               21.82663610                0.00010000                0.62970324               -0.54754252                0.25890875               -1.04014998                9.69267290                3.49771263
               6.97811203                8.34585089               21.73357437                0.00010000                0.65028875               -0.10313715               -0.09239259               -0.88686727               10.75721533                2.07765820
               7.98452809                8.28509460               21.64864020                0.00010000                0.68989842                0.05310801               -0.43583865               -0.50977543               11.19820570                0.04047357
               8.99191000                8.23827986               21.56343828                0.00010000                0.74652122                0.16616312               -0.75414225               -0.15640387               10.70197581               -1.61680771
               9.99945851                8.20551572               21.46767799                0.00906369                0.70533868                0.33642761               -1.03292524                0.17746273                9.25457470               -3.23620571
              11.00601677                8.18625524               21.35290067                0.30560168                0.61317219                0.45694431               -1.27646500                0.53124447                6.89633920               -4.78332883
              12.01172195                8.17800088               21.20989122                0.72217005                0.68128497                0.27127889               -1.49149347                0.60857381                3.69427675               -6.04863175
              13.01964247                8.17152245               21.03157342                1.00000000                0.79205194               -0.58273954               -1.68724533                0.43307309                1.89254919               -6.61509255
               3.03983967                9.65041101               22.26567514                1.00000000               -0.14649557               -0.71718943                0.99215021               -0.04688984                1.98395755                4.75567671
               4.03837471                9.57099901               22.08409676                0.59293221               -0.13083271               -0.55515525                0.68165567               -0.26471244                3.74794471                3.76492841
               5.03722301                9.49167329               21.93845396                0.02687069               -0.11824154               -0.23150962                0.37959732               -0.56027929                6.85001795                2.76927978
               6.03600988                9.41538016               21.81972753                0.00010000               -0.14063790               -0.01480557                0.04264323               -0.69265998                9.02807800                1.68043404
               7.03441026                9.34617564               21.71791988                0.00010000               -0.17883307                0.23417358               -0.27659662               -0.62311282               10.23294870                0.83452739
               8.03243322                9.28754260               21.62355273                0.00010000               -0.19762759                0.43531524               -0.58526145               -0.35696330               10.54389361               -0.00413550
               9.03045770                9.24205346               21.52811090                0.00010000               -0.16605593                0.56312200               -0.87160440               -0.00694870                9.98523102               -0.86216027
              10.02911210                9.21062342               21.42281194                0.02790552               -0.07666848                0.65034969               -1.12929690                0.38003161                8.54812678               -1.65071929
              11.02892434                9.19196824               21.29907207                0.33555138                0.09118726                0.64725863               -1.35884260                0.71261387                6.28715083               -2.35423640
              12.03093585                9.18134197               21.14926125                0.75415077                0.35917658                0.43043680               -1.56957229                0.69259082                3.34217196               -2.88380434
              13.03610787                9.16942659               20.96755242                0.98160794                0.51720194                0.09461759               -1.77818873                0.42857159                1.69696966               -3.22447127
               3.11667786               10.64603491               22.24487874                1.00000000               -0.25659967               -0.43760952                0.78934263               -0.04639552                2.19739714                2.22340819
               4.11411187               10.56873276               22.06213691                0.83161088               -0.33733158               -0.22662436                0.53162320               -0.16094886                4.03237879                1.75785095
               5.10993123               10.49134163               21.91584860                0.51388886               -0.54725536               -0.03316600                0.21030827               -0.29213034                7.17115265                1.32087749
               6.10316676               10.41747372               21.79605226                0.36488990               -0.82219475                0.20935657               -0.10834295               -0.32467573                9.31302346                0.84283198
               7.09348734               10.35053436               21.69321090                0.35610078               -1.08278791                0.43587194               -0.42286565               -0.27593274               10.49992977                0.38171552
               8.08151100               10.29380091               21.59793879                0.37419701               -1.23985681                0.62583119               -0.72044378               -0.14182499               10.75492739               -0.03839642
               9.06869020               10.24954230               21.50122391                0.41719674               -1.21833172                0.74888403               -0.99275949                0.05933976               10.11725355               -0.45378698
              10.05714437               10.21852271               21.39439721                0.52254139               -0.95698472                0.78992899               -1.23457557                0.28613193                8.62566835               -0.84816938
              11.04955051               10.19920041               21.26922619                0.68467296               -0.45144737                0.72321742               -1.44770143                0.46696224                6.35713415               -1.18510536
              12.04811542               10.18660962               21.11847626                0.90337106                0.12470794                0.52676477               -1.64342756                0.42867649                3.42942879               -1.43827620
              13.05204466               10.17341480               20.93608744                0.98688183                0.39292456                0.39882091               -1.85157244                0.27419795                1.78787591               -1.66111835
               2.57402415                0.72283805               23.48750092                1.00000000               -0.27529337               -0.28106238                0.97742042               -0.03216578               -0.29246604                0.36379499
               3.57127122                0.65102298               23.31457141                1.00000000               -0.25687218               -0.24358068                0.85565408               -0.01851674               -0.37395966                0.09033048
               4.56888671                0.57896777               23.13961675                1.00000000               -0.22007347               -0.20717456                0.73341560               -0.01793512               -0.46096311               -0.02188886
               5.56686975                0.50665907               22.96478332                0.62503064               -0.18333045               -0.17066302                0.61111615               -0.01805896               -0.35395434               -0.07435490
               6.56522010                0.43408850               22.79203564                0.71437474                5.33344512               -0.13369904                0.48981199                4.80537426               11.06588783               -0.32090386
               7.67353865                0.45774392               22.84589561                0.79806486                9.49452282               -3.94396000                0.04278552                3.95271947               22.25759703                0.29876401
               8.75511055                0.43211800               22.89117747                0.77495983                7.37821052               -3.27754564               -0.35224720                1.68464018               21.66404462                0.27180423
               9.82110286                0.39046660               22.92553290                0.86974487                6.08234955               -2.71527590               -0.71311908                0.28963170               20.96707138                0.10795378
              10.87675754                0.29893476               22.94698519                1.00000000                2.95115188                0.31354290               -1.05905323               -0.40483806               10.39488101                0.23070753
              11.88012590                0.21488915               22.75682482                1.00000000                0.35638873                0.35332485               -1.18490803               -0.03030970               -0.18120384               -0.00123620
              12.88388532                0.13081558               22.56666520                1.00000000                0.37594224                0.39155214               -1.31102025               -0.02562071               -0.19211022               -0.24412510
               2.64551756                1.72002742               23.44136744                1.00000000               -0.24963717               -0.26758297                0.89289075               -0.01277355               -0.04127166                0.54611888
               3.64302118                1.64858718               23.26828841                1.00000000               -0.23141228               -0.23046013                0.77121216                0.00007670               -0.04684401                0.17015949
               4.64088931                1.57689603               23.09477071                0.83726001               -0.19461963               -0.19396183                0.64921082                0.00013972               -0.02936123               -0.07068474
               5.63912879                1.50495244               22.92193988                0.17798148               -0.15789490               -0.15786938                0.52735500                0.00001113                0.00367774               -0.21239574
               6.63773141                1.43275151               22.74921465                0.34287890                3.74611527               -0.12143349                0.40608982                2.90119469               11.73064402               -0.30626315
               7.71405110                1.41830432               22.81128672                0.44187927                8.39321022               -3.38099733               -0.00368714                4.20361506               23.17661198                0.92747437
               8.80559562                1.39934254               22.86059445                0.33303904                8.82698483               -3.51115168               -0.37381963                3.36895061               22.41705785                0.10410129
               9.89059079                1.36331384               22.89813595                0.47701309                7.74511366               -2.70306911               -0.71746462                2.44369347               21.96914252               -0.17250774
              10.96049789                1.30207019               22.92822534                1.00000000                3.66457984                0.31468305               -1.05657602                1.10820666               11.03701206                0.33582142
              11.96388239                1.21842240               22.73783322                1.00000000                0.36023951                0.35215437               -1.19303223               -0.01372711                0.02203875                0.00151992
              12.96770268                1.13473110               22.54738261                1.00000000                0.38202898                0.38622068               -1.32693288               -0.00910548                0.01083410               -0.32673649
               2.71664917                2.71748639               23.39838106                1.00000000               -0.22450296               -0.24001834                0.80668901               -0.01220459                0.04047153                0.74698339
               3.71440414                2.64641378               23.22334280                1.00000000               -0.20624689               -0.20319591                0.68529538               -0.00010457                0.08437135                0.24492888
               4.71252424                2.57508854               23.04892710                0.47960454               -0.16948299               -0.16696854                0.56367545               -0.00110716                0.21925789               -0.15520466
               5.71101448                2.50350168               22.87655009                0.00010000               -0.13160645               -0.13070286                0.44258176               -0.00260094                0.46048588               -0.66090153
               6.70989211                2.43165983               22.70714524                0.00010000                4.00027197               -0.08766869                0.32247609                3.91456912               13.34554600                5.89469651
               7.79101992                2.39012398               22.79288458                0.00010000                8.37939707               -2.52959371               -0.06142755                4.82974947               24.11143054                1.70427674
               8.87748005                2.36189496               22.83048519                0.00010000                8.81145774               -3.44782541               -0.38444983                4.58973861               22.21754251               -0.26609850
               9.96724908                2.33640522               22.86940765                0.00010000                8.31665374               -2.99497701               -0.70199782                4.33018236               22.89989083               -1.44323721
              11.04381312                2.30522842               22.91130192                0.49528652                3.99706828                0.31568907               -1.04682857                2.58972641               11.77638790                0.34871353
              12.04719044                2.22193223               22.71892470                1.00000000                0.36363388                0.35454200               -1.19964898               -0.01342128                0.09516492                0.07951310
              13.05108580                2.13853999               22.52678767                1.00000000                0.38953566                0.37841479               -1.34772837               -0.00732140                0.09806756               -0.33499247
               2.78741868                3.71522706               23.35579357                1.00000000               -0.20017373               -0.21182503                0.71976301               -0.01113650                0.08806166                0.74174290
               3.78541694                3.64452326               23.17833139                1.00000000               -0.18197077               -0.17265618                0.59886840               -0.00095017                0.17440198                0.19317866
               4.78377926                3.57355666               23.00241905                0.28454303               -0.14557330               -0.13918302                0.47806779               -0.00414898                0.17506159               -0.27332927
               5.78250548                3.50233838               22.82500538                0.00010000                2.28106179               -0.10562861                0.35616511                0.00509933                7.15123614               -0.68901380
               6.82940050                3.43099814               22.78886878                0.00010000                4.89527406               -0.72106353                0.15906831                2.85540711               15.70381961                7.16643297
               7.88041096                3.36771245               22.77779283                0.00010000                6.08543240               -1.87992782               -0.09237574                3.13791048               18.71523334                1.66032261
               8.95110915                3.33038603               22.79632543                0.00010000                7.67250120               -2.84194246               -0.39123403                3.56212653               20.73568009               -1.07870737
              10.03386098                3.30341430               22.81876627                0.00010000                8.78281267               -2.99817064               -0.68280226                4.45812057               23.89829821               -3.47410296
              11.12676540                3.30838397               22.89232089                0.24945364                4.82207062               -1.65109169               -1.05502565                1.32763762               13.69088066               -6.89148432
              12.13030239                3.22551324               22.70140259                1.00000000                0.37876677                0.36671020               -1.23326958                0.00650371                0.34418661                0.35489737
              13.13434074                3.14229940               22.50752750                1.00000000                0.40383427                0.38938420               -1.39230452                0.00376179                0.18358816               -0.22391011
               2.85783404                4.71324989               23.31221392                1.00000000               -0.17785027               -0.18908069                0.63383874               -0.00783068                0.13197113                0.61018888
               3.85605554                4.64296066               23.13214045                0.91418507               -0.16039554               -0.13037746                0.51302931               -0.00464257                0.24538953                0.03233394
               4.85462613                4.57230488               22.95428218                0.17314544               -0.11902748               -0.11851263                0.39306143               -0.00605071                0.49890581               -0.46405393
               5.85367499                4.50138911               22.77938152                0.00010000                2.35000256               -1.03902615                0.27289748               -0.43547213                9.18306667                1.35075643
               6.90162618                4.41723856               22.77550536                0.00010000                5.03576262               -1.41480593                0.27214108               -0.36521430               17.51343823                1.69219253
               7.95439024                4.35252542               22.76156618                0.00010000                5.56972728               -1.62121013               -0.09651647                1.16717875               17.53822671                0.78300048
               9.01302073                4.30505611               22.75276723                0.00010000                6.20116546               -2.24626633               -0.41277769                1.87334804               18.43007862               -1.98198479
              10.07841355                4.27644181               22.75106214                0.00010000                6.76231065               -2.55032842               -0.69622590                2.67632464               18.11892962               -5.09048207
              11.14826694                4.27220659               22.72980666                0.22758442                6.74957714               -3.95596623               -0.98680215                0.98178957               16.40436992              -10.71378870
              12.21340509                4.22926644               22.68782854                0.89262477                3.46608878                0.38601102               -1.31678781                1.99588468                7.80953771                0.41536781
              13.21758872                4.14632768               22.48924622                1.00000000                0.41836229                0.42118590               -1.45161748                0.01052677               -0.03578503               -0.15511202
               2.92784053                5.71144544               23.26642746                1.00000000               -0.15714270               -0.18399806                0.56082255               -0.03156316                0.18841482                0.35235256
               3.92626910                5.64191571               23.08369061                0.74096533               -0.13053659               -0.04324943                0.42583177               -0.08520641                0.34333935               -0.35260267
               4.92522980                5.57118641               22.90409199                0.11733689                0.12966236               -0.52271453                0.31201680               -0.11713418                2.71910366                1.94353901
               5.92886235                5.48155786               22.76904336                0.00010000                2.28650541               -1.39880618                1.49142708               -0.41038787               11.40141006                1.76315811
               6.97095990                5.40270202               22.75144703                0.00010000                4.35373176               -1.53014754                0.42025520               -0.31938651               16.92587104                1.70170548
               8.01593698                5.33528825               22.73137860                0.00010000                4.68499103               -1.54839719               -0.08350884                0.12037132               16.51671947               -0.10006554
               9.06465973                5.28546070               22.70250160                0.00010000                5.21500086               -1.72247173               -0.45268513                0.65449597               16.09871019               -2.53575687
              10.12023700                5.25240773               22.66923805                0.00010000                6.44584174               -2.20144767               -0.74103473                0.66158047               16.04038905               -5.62069205
              11.19357656                5.22926465               22.63425936                0.23463321                8.79309996               -3.30877921               -1.02373929                1.00180916               19.86053240               -7.92320879
              12.29609900                5.23323346               22.67145274                0.79233135                5.34261188               -1.61096140               -1.37130015               -3.56636493               11.98474835              -11.10846644
              13.30042880                5.15072311               22.47163066                1.00000000                0.43297977                3.00860279               -1.50164819               -7.03379753                0.11448763               -9.16411227
               2.99626225                6.70956993               23.21685664                1.00000000               -0.16517995               -0.12251375                0.52895078               -0.08929963                0.11210737               -0.03904287
               3.99461045                6.64209567               23.02958725                0.63112926                0.81895242                0.07976741                0.40850357               -0.64757479                3.17180131               -0.65128468
               5.01264130                6.56185059               22.90438872                0.08844149                0.96705843               -1.38031723                1.22427511               -0.74780616                4.42689199                5.20843404
               6.01395162                6.47341299               22.73201540                0.00010000                1.44333845               -1.10381658                1.89552893               -0.21668371               11.12906326                6.17890203
               7.04150806                6.38663561               22.74217932                0.00010000                3.00436840               -1.22143817                0.48438978               -0.48786721               17.50792849                2.47579211
               8.07403898                6.32155748               22.69993165                0.00010000                3.37415485               -1.09438559               -0.10784359               -0.11202281               14.63102973               -0.13588885
               9.10899116                6.27060668               22.64967956                0.00010000                3.69011173               -1.13614307               -0.50606998               -0.19646373               14.04738898               -2.58991867
              10.14784122                6.23241285               22.59200707                0.00010000                3.92431195               -1.35266028               -0.80287126               -0.72026584               13.61679371               -5.23777195
              11.18747740                6.20603100               22.52965320                0.25217461                3.63890544               -1.35328890               -1.06482847               -2.03372605               11.55054642               -8.68248806
              12.22061933                6.19704721               22.42758030                0.73336047                2.72280249               -1.96762281               -1.29194985               -4.70104400                7.05347265              -17.17731199
              13.24193345                6.20649973               22.27362528                1.00000000                2.13141229                2.38795943               -1.45980350               -3.48592709                4.46499139              -15.91306365
               3.06100305                7.70899517               23.16270981                1.00000000                0.00338924               -0.45376601                3.33768826                1.64866584                2.07150995                7.00423660
               4.06103694                7.64351106               22.97551174                0.57475263                0.89766509               -1.36251724                3.97647807               -0.01388632                8.11396132                6.38168949
               5.07895635                7.54358006               22.92274162                0.07262445                1.93533520               -1.47928799                0.87447546               -1.67168747               11.50115312                5.59196099
               6.09974365                7.45948153               22.81994752                0.00010000                1.70508584               -1.15741525                0.70442085               -0.53489941               10.14671186                8.26315209
               7.11305807                7.37827326               22.73630906                0.00010000                1.49909065               -0.57546941                0.30920126               -0.59051720               12.07940318                2.60712060
               8.12972546                7.31340054               22.67162167                0.00010000                1.84085027               -0.51309643               -0.20942183               -0.34801171               12.77187710               -0.00896990
               9.14987508                7.26273784               22.60008741                0.00010000                2.03409490               -0.44614607               -0.57952050               -0.33065951               12.08115364               -2.21431145
              10.17040736                7.22535453               22.51949346                0.00010000                1.91963022               -0.29584999               -0.86738521               -0.50580431               10.79697551               -4.51987508
              11.18826768                7.20219887               22.42049738                0.27564224                1.56010161               -0.03629437               -1.10454764               -0.70520642                8.41774074               -7.47491747
              12.20160939                7.19388100               22.29127795                0.70480236                1.17687662               -0.06985895               -1.30207985               -0.70224609                4.66374244               -9.77048330
              13.21180521                7.19848230               22.11711440                1.00000000                1.01958212               -0.92311721               -1.46123967               -0.74441577                2.38824074              -11.14338121
               3.16020379                8.70049461               23.25581361                1.00000000               -0.04559581               -0.85857391                1.78797314                0.52514477                2.89315739                9.61659466
               4.15974783                8.61484532               23.08177743                0.56679022                0.15166442               -1.68478798                1.24943559                0.57299979                4.22291455                9.48959001
               5.16323707                8.53226483               22.93836122                0.05947990                0.44063015               -0.81401606                0.89925492               -0.22637670                7.35289523                4.71700710
               6.16856043                8.45026468               22.82985005                0.00010000                0.62708195               -0.58137872                0.35205109               -0.95570303                9.62303292                3.35457983
               7.17577871                8.37512622               22.73305424                0.00010000                0.70268667               -0.15423977               -0.01199193               -0.80479635               10.63379278                1.95256727
               8.18261416                8.31129555               22.64468745                0.00010000                0.73226331                0.00127095               -0.36128468               -0.46540508               11.07879986                0.01167341
               9.19042398                8.26168376               22.55630367                0.00010000                0.78249717                0.11902181               -0.67852680               -0.14636072               10.60762389               -1.61058139
              10.19826411                8.22649585               22.45783462                0.01030302                0.72114098                0.29667131               -0.94094233                0.16950950                9.19422990               -3.22267243
              11.20484680                8.20530512               22.34074056                0.30363978                0.60134320                0.42537025               -1.15993551                0.52610952                6.86353321               -4.77232008
              12.21029097                8.19565003               22.19570663                0.70619339                0.64978654                0.23316477               -1.34673097                0.61541548                3.68192390               -6.05057984
              13.21784253                8.18803739               22.01555797                1.00000000                0.75515583               -0.66704159               -1.51351548                0.44115233                1.88735335               -6.64900482
               3.24280451                9.69182369               23.27559482                1.00000000               -0.20777940               -0.59500615                0.95879127               -0.10338597                1.92153252                4.10696786
               4.24072672                9.60981530               23.09066978                0.59054599               -0.18975261               -0.32967203                0.71133114               -0.21647405                3.72619209                3.29640317
               5.23900946                9.52729974               22.94273886                0.02652600               -0.14792642               -0.23959891                0.40706235               -0.46999239                6.81616109                2.65506716
               6.23776819                9.44785395               22.82044924                0.00010000               -0.15390916               -0.01085699                0.09321442               -0.59918988                8.93596931                1.60001056
               7.23593128                9.37518846               22.71543427                0.00010000               -0.19541818                0.22619929               -0.23006841               -0.57771750               10.14777810                0.78938138
               8.23385983                9.31342595               22.61801627                0.00010000               -0.20918597                0.41748277               -0.52700901               -0.32656041               10.46664387               -0.02141658
               9.23174756                9.26511828               22.51979372                0.00010000               -0.18418183                0.54072629               -0.79609629                0.00936673                9.93003271               -0.85796708
              10.23017619                9.23128795               22.41202893                0.03041811               -0.10559334                0.62545048               -1.03099751                0.39310573                8.52015876               -1.64064160
              11.22963569                9.21070627               22.28613016                0.33363815                0.05046195                0.61731937               -1.23221201                0.73265018                6.28259929               -2.34800185
              12.23118543                9.19854430               22.13436231                0.73512534                0.31089275                0.38517158               -1.41125505                0.71500326                3.34748291               -2.88951583
              13.23585355                9.18514147               21.95070660                0.98220061                0.46681168                0.02260782               -1.58870062                0.44233173                1.70156944               -3.25895708
               3.32215285               10.68859448               23.25230167                1.00000000               -0.22105551               -0.32292068                0.60415141               -0.09942612                2.15269796                2.07980712
               4.31994230               10.60825188               23.06714416                0.83103443               -0.31771410               -0.15634145                0.37818749               -0.13452389                3.97756062                1.74243887
               5.31579857               10.52747285               22.91761966                0.51339398               -0.56271932                0.01731092                0.13483165               -0.23130607                7.10299759                1.22957229
               6.30868791               10.45004754               22.79489830                0.36530329               -0.85731034                0.21935885               -0.13808143               -0.29915992                9.25227480                0.81192077
               7.29865236               10.37965021               22.68904238                0.35629988               -1.12673857                0.44617477               -0.41833079               -0.24800835               10.43614735                0.36577377
               8.28615314               10.31964520               22.59092960                0.37401002               -1.29515238                0.62192495               -0.68715739               -0.12826515               10.70611918               -0.04145668
               9.27274932               10.27249828               22.49163504                0.41655293               -1.28074550                0.73800032               -0.92946476                0.06815864               10.09487022               -0.44885991
              10.26053823               10.23900486               22.38254689                0.52441496               -1.02529272                0.77169083               -1.13929785                0.29386489                8.63463864               -0.84060438
              11.25224346               10.21765150               22.25541156                0.68411795               -0.51911945                0.69452303               -1.31834738                0.47820707                6.39141543               -1.18062554
              12.25015584               10.20335346               22.10287347                0.89259603                0.06256766                0.48091678               -1.47870332                0.43894309                3.46647201               -1.44195889
              13.25349481               10.18848954               21.91855032                0.98681306                0.33389743                0.33480740               -1.65428347                0.27773494                1.81749774               -1.68898514
               2.74463656                0.77302428               24.49684598                1.00000000               -0.25579174               -0.25644652                0.89285356               -0.02456992               -0.29234937                0.36167096
               3.74207864                0.69862451               24.32289101                1.00000000               -0.24313026               -0.23093037                0.80943478               -0.01290325               -0.37454799                0.08862966
               4.73977396                0.62401005               24.14690937                1.00000000               -0.21783037               -0.20630106                0.72599542               -0.01255395               -0.46213538               -0.02324294
               5.73772204                0.54917281               23.97104874                0.62599479               -0.19253967               -0.18150686                0.64253167               -0.01239234               -0.35509217               -0.07536879
               6.73592316                0.47411131               23.79728183                0.71532906                5.46654444               -0.15666071                0.55981780                4.82434162               10.88283498               -0.32233169
               7.84705293                0.49556849               23.84648135                0.79872274                9.82708983               -4.12264149                0.06706201                3.93831297               21.90037570                0.29600562
               8.93246496                0.46554929               23.88762135                0.77524759                7.82171256               -3.46709635               -0.36973790                1.62324089               21.35428718                0.27192766
              10.00348718                0.41904881               23.91823019                0.86996552                6.66721075               -2.92654693               -0.76055382                0.09066454               20.70009422                0.11633449
              11.06580917                0.32006573               23.93619326                1.00000000                3.28828490                0.33637661               -1.11669045               -0.66031974               10.28033155                0.23780721
              12.06925287                0.23395747               23.74504144                1.00000000                0.35378810                0.35451212               -1.17756202               -0.01304013               -0.16564496                0.00570975
              13.07288494                0.14777067               23.55388346                1.00000000                0.36320617                0.37271054               -1.23955064               -0.00812028               -0.17818422               -0.23484273
               2.81879063                1.77045981               24.44992023                1.00000000               -0.23339011               -0.24383485                0.81853065               -0.01134446               -0.04143780                0.54185659
               3.81645673                1.69631521               24.27581689                1.00000000               -0.22081797               -0.21881704                0.73523494               -0.00045374               -0.04733138                0.16658315
               4.81437427                1.62194704               24.10127373                0.84596754               -0.19546228               -0.19441475                0.65187732               -0.00052294               -0.03009054               -0.07352072
               5.81254748                1.54735774               23.92741952                0.18518831               -0.17027664               -0.17012822                0.56872991               -0.00036961                0.00316128               -0.21440403
               6.81096874                1.47254470               23.75367545                0.34983032                3.90847894               -0.14594247                0.48604770                2.84236349               11.56419368               -0.30767758
               7.89071706                1.45434207               23.81140391                0.44963233                8.79942339               -3.57069509                0.02099727                4.11963358               22.85945514                0.92478569
               8.98695721                1.43087833               23.85676719                0.34161216                9.32092703               -3.70164995               -0.39909991                3.25525647               22.13709206                0.11303025
              10.07713560                1.38978335               23.89068440                0.48328897                8.23972215               -2.86063092               -0.78009052                2.28215051               21.71589683               -0.15313146
              11.15175165                1.32342950               23.91729106                1.00000000                3.90672018                0.33992373               -1.13764929                0.97104698               10.91834189                0.35602620
              12.15527001                1.23750259               23.72587373                1.00000000                0.36194443                0.35658248               -1.20067581               -0.00465446                0.02842041                0.01293551
              13.15899054                1.15149777               23.53439972                1.00000000                0.37205311                0.37189609               -1.26391442                0.00033079                0.01543446               -0.32039376
               2.89269888                2.76814758               24.40611657                1.00000000               -0.21165355               -0.21729256                0.74125626               -0.01123116                0.04053757                0.73882923
               3.89058235                2.69424817               24.23005865                1.00000000               -0.19889572               -0.19328574                0.65858370               -0.00119449                0.08468560                0.23840267
               4.88872097                2.62012175               24.05462192                0.49085821               -0.17326840               -0.16998809                0.57586303               -0.00231947                0.21984697               -0.15974231
               5.88711698                2.54577024               23.88123070                0.00010000               -0.14674368               -0.14614820                0.49367204               -0.00329345                0.46178495               -0.66505347
               6.88578610                2.47119246               23.71082326                0.00010000                4.19974931               -0.18724595                0.41250376                3.90481465               13.18974688                5.84428904
               7.97111197                2.42415459               23.79241207                0.00010000                8.81713607               -2.70862488               -0.04180210                4.71124767               23.83595416                1.70595590
               9.06212882                2.39151629               23.82647283                0.00010000                9.27335256               -3.61474532               -0.42206606                4.47824107               21.98490314               -0.24903645
              10.15657902                2.36183620               23.86190982                0.00010000                8.76910244               -3.09105464               -0.79197699                4.19376916               22.66202280               -1.40683251
              11.23751087                2.32686421               23.90025289                0.49937746                4.22562467                0.34646410               -1.15579754                2.53104399               11.64740966                0.37016445
              12.24109151                2.24108912               23.70680893                1.00000000                0.36951623                0.36275241               -1.22157165               -0.00526153                0.08893622                0.08451491
              13.24490119                2.15520859               23.51360579                1.00000000                0.38096795                0.37229986               -1.28700817                0.00000382                0.09200856               -0.34093950
               2.96636483                3.76611396               24.36269477                1.00000000               -0.19061583               -0.18884203                0.66293311               -0.01046835                0.08878384                0.72994607
               3.96445867                3.69244949               24.18422578                1.00000000               -0.17795086               -0.16430199                0.58149227               -0.00328917                0.17649964                0.18402383
               4.96280581                3.61854727               24.00730776                0.29391118               -0.15238815               -0.14549870                0.50012585               -0.00541741                0.17709470               -0.27901371
               5.96141091                3.54443477               23.82886854                0.00010000                2.39374365               -0.12435050                0.41714031               -0.06760448                7.10624756               -0.69341037
               7.01068068                3.46879978               23.79077263                0.00010000                5.16036351               -0.91782337                0.20962048                2.82876994               15.58301893                7.20722198
               8.06461818                3.40016958               23.77702058                0.00010000                6.40798663               -2.02034106               -0.07251845                3.04026415               18.55056487                1.68346612
               9.13884042                3.35858342               23.79219218                0.00010000                8.05224472               -2.96204137               -0.43455338                3.45944266               20.54774917               -1.06187317
              10.22566307                3.32796225               23.81135458                0.00010000                9.21395927               -3.07381031               -0.78243424                4.35754448               23.67212783               -3.44089258
              11.32311960                3.33035878               23.88106904                0.24791234                5.05786603               -1.63754436               -1.18003849                1.19579559               13.54647888               -6.82195754
              12.32682039                3.24475764               23.68893265                1.00000000                0.38160364                0.37242007               -1.25558882                0.00054773                0.32781955                0.33735036
              13.33075168                3.15894377               23.49395022                1.00000000                0.39312827                0.38361017               -1.32536072                0.00160643                0.17447988               -0.24980182
               3.03981846                4.76437074               24.31831668                1.00000000               -0.17352009               -0.16123378                0.58706501               -0.01327797                0.12845005                0.58794863
               4.03808325                4.69096213               24.13723461                0.90501483               -0.15955565               -0.13279053                0.50643017               -0.00836433                0.24779384                0.01431636
               5.03662734                4.61721178               23.95837719                0.17879447               -0.12854356               -0.12632482                0.42679899               -0.00901351                0.50468205               -0.46763697
               6.03551238                4.54328323               23.78247105                0.00010000                2.49996743               -1.00641128                0.34465731               -0.08474149                9.24878740                2.14968014
               7.08662669                4.45283599               23.77883209                0.00010000                5.33106113               -1.63400917                0.37722006               -0.46351240               17.50271008                1.92013073
               8.14213361                4.38374777               23.76082870                0.00010000                5.84491515               -1.73703007               -0.06580508                1.07703216               17.34103218                0.82976007
               9.20352499                4.33227547               23.74851604                0.00010000                6.49104716               -2.33567568               -0.43894800                1.77528926               18.27003927               -1.97115500
              10.27195455                4.30035999               23.74366246                0.00010000                7.05531974               -2.60670481               -0.76744652                2.59054257               17.96469420               -5.07169928
              11.34463139                4.29411332               23.71953643                0.22461762                7.02814633               -4.00722335               -1.05068687                0.84309650               16.23744659              -10.64780227
              12.41251748                4.24853752               23.67477248                0.87287400                3.59648354                0.38481392               -1.30385227                1.99685061                7.72711246                0.39478050
              13.41656106                4.16288079               23.47508897                1.00000000                0.40435835                0.40588567               -1.37799837                0.00414773               -0.03200677               -0.18222870
               3.11291649                5.76288929               24.27169650                1.00000000               -0.14661411               -0.15447663                0.52406325               -0.01102450                0.18013595                0.40013651
               4.11145035                5.68979368               24.08795802                0.73316719               -0.13060240               -0.12092543                0.44455447               -0.04782834                0.34810657               -0.30621042
               5.11030444                5.61602078               23.90748052                0.12156470                0.63207577               -0.49339151                0.35600164                0.48647859                3.51707265                2.54900501
               6.12409186                5.52430655               23.78737232                0.00010000                2.53207298               -1.62695908                1.77336418               -0.22002694               11.30745883                2.49029807
               7.16094590                5.43611960               23.75714011                0.00010000                4.13137394               -1.67579971                0.65287724               -0.54688347               16.22624167                1.94552743
               8.20671934                5.36542897               23.73083879                0.00010000                4.83940381               -1.66053112               -0.05132261                0.06823304               16.25900355               -0.04414844
               9.25773398                5.31186991               23.69799784                0.00010000                5.44583632               -1.79868688               -0.44818040                0.56759267               15.94595965               -2.51681304
              10.31563607                5.27582816               23.66172338                0.00010000                6.70350108               -2.25929857               -0.75793525                0.56364563               15.90702021               -5.60907024
              11.39180400                5.25021431               23.62395919                0.23146941                9.11769310               -3.39308779               -1.03065266                0.89649552               19.68693283               -7.90000535
              12.49798993                5.25245392               23.65798143                0.77466339                5.51720444               -1.64753860               -1.33973059               -3.79075753               11.88765860              -11.04383772
              13.50214809                5.16706148               23.45700917                1.00000000                0.41581565                3.09781972               -1.42041899               -7.30664279                0.12260087               -9.13087824
               3.18578917                6.76128121               24.22324305                1.00000000               -0.17939757               -0.22451094                0.56217662                1.53527502                0.10727185                3.07305347
               4.18399520                6.68854362               24.03488138                0.62495769                1.30274384               -1.07756663                0.49552332                0.50609655                3.75053450                3.12513561
               5.21184405                6.60734395               23.91902723                0.09159915                1.35089131               -1.55320509                1.31440099               -0.58989933                5.00268409                4.85706409
               6.21101302                6.51074405               23.75761445                0.00010000                1.13612715               -1.52735727                2.68620702               -0.80285339               10.61961959                5.44251296
               7.23456659                6.41932000               23.74827678                0.00010000                2.83674648               -1.33068562                0.71198092               -0.58832612               16.41345914                2.45685519
               8.26774795                6.35053714               23.69928674                0.00010000                3.49555360               -1.19418690               -0.06625357               -0.15103575               14.34876858               -0.08317540
               9.30447767                6.29630173               23.64476644                0.00010000                3.85675518               -1.20250213               -0.47387529               -0.26694654               13.89229391               -2.55421244
              10.34488306                6.25517402               23.58415476                0.00010000                4.07289349               -1.40791691               -0.77157055               -0.83092357               13.50247039               -5.21570086
              11.38593554                6.22625157               23.51924038                0.24935002                3.74860489               -1.39853376               -1.01873944               -2.20181671               11.45157394               -8.65149224
              12.41985516                6.21558675               23.41509232                0.71729230                2.76387693               -2.00367620               -1.20822955               -4.93574511                6.99470736              -17.07927826
              13.44121307                6.22483719               23.25961451                1.00000000                2.13579185                2.46097930               -1.33835607               -3.65328809                4.42920857              -15.83756247
               3.28909716                7.75839907               24.22960503                1.00000000               -1.35876203               -1.07278132                4.91344352               -0.06877284                3.37902458                7.51101438
               4.27550954                7.66824235               24.05564722                0.57016959               -0.63955670               -1.70370013                5.64772329                0.25707389                5.83273828                6.53046889
               5.27630603                7.58495668               23.92827804                0.07467278                1.02746023               -1.85146120                1.19964227               -1.09118705                8.96672570                5.51896293
               6.29605875                7.49375940               23.82866042                0.00010000                1.65401280               -1.31921730                0.95442520               -0.85869284               10.41369907                7.12347586
               7.30938629                7.40950588               23.74028016                0.00010000                1.53290733               -0.67714876                0.45135535               -0.54151393               11.80827445                2.43209405
               8.32671689                7.34154524               23.66992209                0.00010000                1.91859432               -0.58018383               -0.14539855               -0.32896590               12.52451640                0.00378448
               9.34775817                7.28781987               23.59458028                0.00010000                2.11754342               -0.49699034               -0.52777352               -0.37188867               11.94641723               -2.17060278
              10.36906776                7.24766982               23.51116001                0.00010000                1.97983804               -0.33236072               -0.80297667               -0.57765369               10.70837183               -4.48469861
              11.38735493                7.22224364               23.40991392                0.27330581                1.58108218               -0.05377514               -1.01675274               -0.79047621                8.35765704               -7.43636281
              12.40068941                7.21238040               23.27885760                0.68940356                1.16132597               -0.08409129               -1.18272287               -0.76373486                4.63330808               -9.72981662
              13.41058145                7.21628107               23.10325320                1.00000000                0.98920456               -0.99435159               -1.30493394               -0.78624339                2.37225998              -11.11661283
               3.36472715                8.73982558               24.27098151                1.00000000               -0.21480838               -1.11683863                1.64990389               -0.58443450                2.39044278                7.54110497
               4.36257907                8.65446962               24.09018403                0.56371111               -0.01119471               -0.83410022                1.20895246                0.03670561                4.36490143                6.64422997
               5.36450326                8.57031472               23.94981324                0.06028783                0.33554443               -0.97202408                1.05935282               -0.13245853                7.47607314                4.89266825
               6.36928996                8.48435970               23.83367712                0.00010000                0.57236105               -0.57136433                0.40608504               -0.92812973                9.39038050                3.18943775
               7.37595048                8.40577702               23.73333453                0.00010000                0.67823475               -0.17653779                0.04945912               -0.75068656               10.50907890                1.81970913
               8.38285465                8.33893347               23.64141450                0.00010000                0.74824155               -0.03365594               -0.30070493               -0.43626700               10.94612954                0.01174589
               9.39091531                8.28636192               23.54986775                0.00010000                0.80257795                0.08714371               -0.61284518               -0.15595677               10.50709537               -1.57625097
              10.39890621                8.24852680               23.44885914                0.01170577                0.72500612                0.27142534               -0.85729609                0.14626084                9.13208976               -3.18759646
              11.40541543                8.22517606               23.32970196                0.30168021                0.58184075                0.40467801               -1.04974075                0.51330635                6.83085215               -4.74461291
              12.41054303                8.21390493               23.18295660                0.69002573                0.61357116                0.20022054               -1.20307391                0.61968765                3.67070067               -6.03557390
              13.41768686                8.20495016               23.00130311                1.00000000                0.71438295               -0.75129866               -1.33184106                0.44798478                1.88197739               -6.66281757
               3.44812040                9.73606230               24.28485096                1.00000000               -0.23658826               -0.28041161                0.80240285               -0.18420976                1.92605208                4.09141477
               4.44575452                9.65156035               24.09832339                0.58813225               -0.21768110               -0.19184134                0.67177836               -0.23900410                3.70096411                3.42989287
               5.44376678                9.56551619               23.94659521                0.02575053               -0.18603302               -0.20716248                0.40094674               -0.47472254                6.75577809                2.47281131
               6.44203386                9.48233211               23.82159182                0.00010000               -0.19839926                0.02271614                0.12016324               -0.60207408                8.86890548                1.57591875
               7.43979879                9.40597513               23.71331851                0.00010000               -0.23136015                0.24283067               -0.19645700               -0.56157477               10.05607440                0.77471331
               8.43740665                9.34087212               23.61301255                0.00010000               -0.23765461                0.41058242               -0.47650016               -0.31131619               10.38737484               -0.01767370
               9.43504570                9.28956274               23.51218898                0.00010000               -0.21139060                0.52602670               -0.72686427                0.01406067                9.87255564               -0.83709403
              10.43317884                9.25309832               23.40219199                0.03331014               -0.14013802                0.60739538               -0.93828128                0.39644322                8.49146090               -1.61922229
              11.43224294                9.23033720               23.27442783                0.33194632                0.00651125                0.59245132               -1.10972089                0.74616387                6.27908834               -2.33319125
              12.43330906                9.21638481               23.12103615                0.71603657                0.26038733                0.34215976               -1.25340596                0.73404872                3.35426898               -2.88720692
              13.43745068                9.20125510               22.93577841                0.98258978                0.41416198               -0.05012512               -1.39158123                0.45473251                1.70660485               -3.28462457
               3.53004686               10.73421735               24.25696177                1.00000000               -0.17017679               -0.18449454                0.37735063               -0.16580973                2.19425206                2.07128252
               4.52834509               10.65063279               24.06970066                0.83047853               -0.29049091               -0.09275524                0.21783280               -0.14323645                4.03772666                1.62238047
               5.52423704               10.56617147               23.91854523                0.51273764               -0.57777745                0.06552793                0.05872810               -0.24391203                7.14202098                1.25751447
               6.51678954               10.48481403               23.79329064                0.36569392               -0.90290292                0.24819112               -0.16813358               -0.30132337                9.23879661                0.79835389
               7.50617898               10.41063363               23.68484428                0.35649084               -1.18744125                0.46585048               -0.41410789               -0.24542650               10.40178414                0.37184006
               8.49304072               10.34714511               23.58419564                0.37382040               -1.36043321                0.62729971               -0.65567991               -0.12415245               10.67647616               -0.03129205
               9.47897032               10.29688246               23.48263461                0.41588875               -1.34900487                0.73197148               -0.86919239                0.06894171               10.08636320               -0.43564143
              10.46606062               10.26067471               23.37161125                0.52653996               -1.09590442                0.75763871               -1.04814465                0.29530947                8.65386381               -0.82729074
              11.45705223               10.23702509               23.24285924                0.68374032               -0.58772576                0.66878893               -1.19294785                0.48459949                6.43360895               -1.17230763
              12.45430610               10.22074812               23.08890219                0.88184866               -0.00056519                0.43633141               -1.31521867                0.44583211                3.50889886               -1.44206732
              13.45704092               10.20394765               22.90300177                0.98671385                0.27348215                0.26925568               -1.45058584                0.27897737                1.84984733               -1.71421507
               2.91608711                0.82392298               25.50535799                1.00000000               -0.23702458               -0.23290139                0.81112987               -0.01707829               -0.29186023                0.35876003
               3.91371687                0.74694382               25.33076011                1.00000000               -0.23004231               -0.21926212                0.76585479               -0.00701905               -0.37480009                0.08648825
               4.91148627                0.66977421               25.15413665                1.00000000               -0.21607128               -0.20611404                0.72051502               -0.00682368               -0.46298224               -0.02481914
               5.90939544                0.59241014               24.97763395                0.62669718               -0.20210415               -0.19277449                0.67510560               -0.00649307               -0.35602177               -0.07641464
               6.90744418                0.51485464               24.80323199                0.71564863                5.59056055               -0.17981094                0.63058560                4.82910992               10.65402097               -0.32357657
               8.02120665                0.53381892               24.84723685                0.79853594               10.15016380               -4.29496060                0.07838094                3.91469186               21.45275662                0.28919796
               9.11044746                0.49926486               24.88378271                0.77496246                8.26630869               -3.65132065               -0.40523362                1.56424916               20.95646241                0.26617820
              10.18653283                0.44788488               24.91032182                0.86962938                7.25527328               -3.13132933               -0.82836533               -0.10327404               20.34687078                0.11562367
              11.25555292                0.34149531               24.92465139                1.00000000                3.62949874                0.36357770               -1.19905495               -0.91505796               10.11424165                0.24168690
              12.25912280                0.25333877               24.73327358                1.00000000                0.35423376                0.35748442               -1.17983125                0.00147876               -0.15838911                0.01005245
              13.26263760                0.16508621               24.54187419                1.00000000                0.35147992                0.35146849               -1.16179933                0.00692240               -0.17063960               -0.22679830
               2.99289549                1.82159396               25.45773806                1.00000000               -0.21744258               -0.22172748                0.74600718               -0.00984286               -0.04153286                0.53617364
               3.99072106                1.74475120               25.28299311                1.00000000               -0.21053083               -0.20854419                0.70088015               -0.00026232               -0.04776835                0.16209539
               4.98868487                1.66771307               25.10780826                0.85418016               -0.19653826               -0.19572762                0.65560008               -0.00029747               -0.03081054               -0.07669021
               5.98679029                1.59048240               24.93331448                0.19188171               -0.18269884               -0.18292755                0.61041169               -0.00015707                0.00260378               -0.21638021
               6.98503089                1.51305653               24.75893561                0.35586341                4.06790829               -0.17031065                0.56593923                2.77242040               11.34782814               -0.30892840
               8.06814846                1.49086932               24.81170667                0.45626182                9.20130399               -3.75962482                0.03467169                4.02889543               22.44191561                0.91509992
               9.16905697                1.46275166               24.85261245                0.34948574                9.81182000               -3.88878088               -0.43703326                3.14675898               21.75911627                0.11608331
              10.26438486                1.41657159               24.88253414                0.48888285                8.73092130               -3.01432479               -0.85328642                2.12780450               21.36744316               -0.14385673
              11.34367540                1.34513109               24.90547235                1.00000000                4.14786401                0.36792101               -1.22884159                0.83256548               10.74850961                0.36451358
              12.34734214                1.25691362               24.71381971                1.00000000                0.36419953                0.36124203               -1.21040912               -0.00183665                0.03107820                0.01953724
              13.35095939                1.16860089               24.52210432                1.00000000                0.36172483                0.35422454               -1.19249929                0.00346018                0.01758998               -0.31317358
               3.06957578                2.81948843               25.41320619                1.00000000               -0.19832680               -0.19840465                0.67770656               -0.00970630                0.04079407                0.72924844
               4.06759251                2.74277294               25.23651447                1.00000000               -0.19133311               -0.18617169                0.63340653               -0.00079402                0.08528018                0.23097469
               5.06574912                2.66585966               25.06044436                0.50260576               -0.17718386               -0.17459784                0.58913581               -0.00139068                0.22055645               -0.16458538
               6.06404884                2.58875159               24.88642353                0.00010000               -0.16217238               -0.16262872                0.54495698               -0.00179852                0.46286655               -0.66867191
               7.06250567                2.51144843               24.71539531                0.00010000                4.40203001               -0.29613896                0.50126614                3.88763904               12.97520785                5.76381084
               8.15208944                2.45862643               24.79204853                0.00010000                9.25873483               -2.89520824               -0.03642462                4.59475347               23.44921672                1.70013727
               9.24768037                2.42148925               24.82204387                0.00010000                9.73100225               -3.78231491               -0.46625071                4.38225583               21.64505892               -0.23290855
              10.34670948                2.38759838               24.85356811                0.00010000                9.20909171               -3.18638886               -0.87424100                4.07031539               22.32341013               -1.37681931
              11.43186220                2.34885373               24.88818596                0.50263904                4.44533911                0.37650928               -1.25590890                2.47033735               11.47314161                0.37922376
              12.43561626                2.26056361               24.69449327                1.00000000                0.37350244                0.36915390               -1.23887554               -0.00237862                0.08700254                0.08763793
              13.43933225                2.17217070               24.50104751                1.00000000                0.37159875                0.36096425               -1.22143037                0.00249845                0.08968832               -0.34252282
               3.14613234                3.81762587               25.36905223                1.00000000               -0.17983908               -0.17406460                0.60896491               -0.01024056                0.08943786                0.71674912
               4.14433395                3.74102777               25.18996124                1.00000000               -0.17269693               -0.16290980                0.56598108               -0.00231805                0.17844819                0.17459755
               5.14267840                3.66422111               25.01242157                0.30326179               -0.15841982               -0.15401392                0.52309642               -0.00318658                0.17917031               -0.28340285
               6.14116555                3.58722982               24.83334818                0.00010000                2.51152184               -0.14363300                0.47905560               -0.14701803                7.02992203               -0.69665282
               7.19290884                3.50713375               24.79306119                0.00010000                5.44185802               -1.10873607                0.24184612                2.82762001               15.39573096                7.23142567
               8.25000271                3.43296515               24.77634246                0.00010000                6.74106463               -2.16620065               -0.07045861                2.97045495               18.29944528                1.70465931
               9.32773013                3.38710536               24.78763437                0.00010000                8.42119832               -3.08309457               -0.47728059                3.38930200               20.25511618               -1.03067419
              10.41842668                3.35284381               24.80311759                0.00010000                9.61933921               -3.14796817               -0.85777040                4.27667417               23.34147500               -3.38266654
              11.52011691                3.35266128               24.86872012                0.24593322                5.27754610               -1.62466736               -1.28568424                1.07482679               13.35135711               -6.72192757
              12.52397760                3.26429670               24.67629081                1.00000000                0.38391358                0.37748269               -1.27104185               -0.00312795                0.32357314                0.33256397
              13.52779519                3.17582018               24.48102029                1.00000000                0.38175847                0.37267266               -1.25785057                0.00151538                0.17039007               -0.26845667
               3.22256718                4.81600714               25.32395522                1.00000000               -0.16162687               -0.15520326                0.54365170               -0.00984673                0.12886336                0.58267152
               4.22095091                4.73951474               25.14226905                0.89608238               -0.15419237               -0.14415136                0.50209922               -0.00572472                0.25179338                0.01541857
               5.21948333                4.66277938               24.96281816                0.18410097               -0.13775372               -0.13523269                0.46001625               -0.00786298                0.50731293               -0.47312220
               6.21819584                4.58587893               24.78627466                0.00010000                2.69197060               -1.55046965                0.41549220               -0.46596436                9.30199718                2.84895903
               7.27332274                4.48927371               24.78304977                0.00010000                5.66655476               -1.74829381                0.44171867               -0.57335433               17.43451701                2.15864449
               8.33152693                4.41530241               24.76025008                0.00010000                6.11325039               -1.85089577               -0.05805311                1.04051282               17.06827598                0.86335465
               9.39558775                4.35982735               24.74398827                0.00010000                6.75800583               -2.41156541               -0.46381548                1.71504019               18.02404954               -1.92236500
              10.46668705                4.32463902               24.73571321                0.00010000                7.31590506               -2.65548938               -0.81532334                2.52612009               17.73825634               -4.99779764
              11.54190585                4.31636039               24.70879292                0.22130687                7.28538773               -4.05503402               -1.09126044                0.72072514               16.03840952              -10.50817192
              12.61239480                4.26811327               24.66175150                0.85308605                3.72048706                0.38700800               -1.30447395                2.00441800                7.63106376                0.39185395
              13.61631559                4.17962415               24.46168625                1.00000000                0.39207912                0.38799143               -1.30163053                0.00259562               -0.03189832               -0.20609429
               3.29892019                5.81452180               25.27690873                1.00000000               -0.14729827               -0.14423375                0.49766604               -0.00951382                0.18244547                0.40258060
               4.29744721                5.73814474               25.09258169                0.72540949               -0.13816209               -0.13027789                0.45800182               -0.00596514                0.33578943               -0.26532573
               5.29615695                5.66151646               24.91121203                0.12525335                0.39523633               -1.22925141                0.39486024               -0.57228670                4.20777961                2.97060004
               6.30535194                5.55622043               24.80451064                0.00010000                2.79306588               -2.24518944                2.55371665               -0.52249787               12.58367426                4.11997560
               7.35201827                5.47216788               24.76450457                0.00010000                4.74536928               -1.83205203                0.66115053               -0.27454902               15.79549752                2.12049001
               8.40025932                5.39594724               24.73035215                0.00010000                5.03380287               -1.72458719               -0.01642300               -0.01480291               15.92108698                0.01998623
               9.45269433                5.33887405               24.69353800                0.00010000                5.60783629               -1.84436836               -0.44582959                0.50840239               15.74662797               -2.45341845
              10.51241605                5.29973402               24.65407934                0.00010000                6.91814216               -2.29884063               -0.76492097                0.47080938               15.71926941               -5.53243717
              11.59105717                5.27156060               24.61364631                0.22797531                9.41930729               -3.46569779               -1.02900872                0.79841506               19.47213711               -7.81384621
              12.70080219                5.27203686               24.64465813                0.75692173                5.68840793               -1.67638972               -1.33315680               -4.01180268               11.76617261              -10.94136793
              13.70482533                5.18358001               24.44322228                1.00000000                0.40231340                3.19401480               -1.33779805               -7.58780236                0.13134398               -9.08058785
               3.37513103                6.81312246               25.22810017                1.00000000               -0.12940812               -0.15224028                0.44995038                1.25762094                0.08565175                4.41738024
               4.37383695                6.73690918               25.03949772                0.61873591                0.74154360               -0.96634810                0.43744500                0.33216925                4.10515935                4.66637064
               5.38996191                6.63819435               24.93067674                0.09407669                1.16287535               -1.91715725                1.54848063               -0.34066653                6.40500915                5.60558810
               6.39709446                6.54097514               24.78573954                0.00010000                1.90715251               -1.51660313                3.86928265                0.25509441               11.29269551                5.20391124
               7.42810496                6.45263267               24.75641894                0.00010000                3.37151199               -1.51552419                0.66703485               -0.21104237               15.49369955                2.58753130
               8.46452470                6.38081067               24.69860658                0.00010000                3.69320286               -1.22993894               -0.01961001               -0.20181696               13.99714799                0.00766189
               9.50196901                6.32293999               24.64020206                0.00010000                3.94459948               -1.23247850               -0.44510997               -0.36386429               13.71990337               -2.47922825
              10.54341669                6.27866221               24.57657566                0.00010000                4.18011527               -1.43889239               -0.74097854               -0.95342253               13.35024009               -5.14022170
              11.58557132                6.24704643               24.50927841                0.24623342                3.83613234               -1.42752831               -0.97407532               -2.37053377               11.33412728               -8.56119857
              12.62013934                6.23458547               24.40341571                0.70107169                2.79509621               -2.03082320               -1.12783060               -5.17039531                6.92939358              -16.92832154
              13.64147324                6.24350445               24.24685816                1.00000000                2.13339066                2.54407193               -1.20904870               -3.82640880                4.38766656              -15.73053268
               3.47649917                7.81147700               25.26097868                1.00000000                0.25195388               -0.85258426                2.29201795                0.45790550                1.88448193                8.43779064
               4.47901871                7.71881778               25.08846620                0.56540215                0.43892479               -1.59277142                2.35029557                0.30367422                4.38712688                8.25207778
               5.48527766                7.62317331               24.94673447                0.07598867                0.84984024               -1.31966666                1.56658081               -0.68129353                7.97668047                5.44641492
               6.49601551                7.52588837               24.83903602                0.00010000                1.13421164               -0.99265496                0.86117464               -0.27818140                9.93127418                6.19476432
               7.50796190                7.44185739               24.74533617                0.00010000                1.49500771               -0.70753096                0.55355773               -0.22109773               11.49394702                2.34286982
               8.52591566                7.37134846               24.66871369                0.00010000                1.98018037               -0.61853342               -0.10830477               -0.35770383               12.24853612                0.09375972
               9.54756550                7.31422448               24.58953194                0.00010000                2.16627454               -0.51949719               -0.47944619               -0.46200253               11.78277938               -2.09676152
              10.56924115                7.27095617               24.50343393                0.00010000                2.00788633               -0.34751338               -0.74337289               -0.67797246               10.59506068               -4.41231430
              11.58772323                7.24301003               24.40016233                0.27077640                1.58475576               -0.05737425               -0.93419207               -0.88703566                8.28175904               -7.36085370
              12.60093627                7.23142039               24.26762350                0.67379262                1.13679864               -0.09127369               -1.06368701               -0.82920448                4.59770992               -9.65723997
              13.61045920                7.23446145               24.09101573                1.00000000                0.95229317               -1.06243073               -1.13623305               -0.83010424                2.35421538              -11.06169787
               3.56960759                8.79607078               25.28881168                1.00000000               -0.13934663               -1.19026369                1.49179021               -0.20762527                2.02382289                7.18248579
               4.56821412                8.70505376               25.10595648                0.56044857               -0.01710718               -0.99606268                1.38158165               -0.51433553                3.99799227                5.85763059
               5.56926545                8.61180102               24.95954828                0.06037336                0.23163152               -0.75746688                0.89415020               -0.91763919                7.06681261                4.52169443
               6.57284675                8.52112204               24.83797175                0.00010000                0.44787330               -0.30647748                0.44304941               -1.04557429                9.10769030                3.01838769
               7.57822291                8.43848205               24.73404342                0.00010000                0.60783920               -0.13422106                0.07223863               -0.75059540               10.32586150                1.73339288
               8.58500354                8.36844000               24.63867335                0.00010000                0.74491678               -0.05285578               -0.25198171               -0.45554029               10.78385060                0.05315054
               9.59312125                8.31255004               24.54404676                0.00010000                0.80340771                0.06925268               -0.55372118               -0.21371638               10.37940544               -1.51312037
              10.60107169                8.27171194               24.44068870                0.01324511                0.71225704                0.25976142               -0.77827523                0.09371486                9.04820814               -3.13013871
              11.60736639                8.24589895               24.31974575                0.29969133                0.55160695                0.39375678               -0.94290450                0.48490625                6.78375100               -4.69553489
              12.61210383                8.23276000               24.17164515                0.67366164                0.57113313                0.17170872               -1.05836305                0.61704276                3.65269787               -6.00123653
              13.61878905                8.22225583               23.98892115                1.00000000                0.66852202               -0.83555614               -1.13818843                0.45168016                1.87331978               -6.65777027
               3.65438070                9.78767173               25.29164288                1.00000000               -0.13789500               -0.51361260                0.63505655               -0.32989482                1.89549663                3.97885310
               4.65300175                9.69889652               25.10410535                0.58559955               -0.17620557               -0.35544083                0.56371590               -0.43742529                3.68792117                3.22354905
               5.65085659                9.60802398               24.95075780                0.02443957               -0.22893787               -0.15389599                0.38696780               -0.66770671                6.66724628                2.37036160
               6.64842299                9.51975882               24.82285251                0.00010000               -0.26122805                0.07474712                0.11390013               -0.72664851                8.71814588                1.56969056
               7.64563203                9.43917297               24.71150513                0.00010000               -0.28430658                0.27767119               -0.16890425               -0.59536744                9.91441140                0.78494378
               8.64273686                9.37029134               24.60848627                0.00010000               -0.28063970                0.41065919               -0.43081437               -0.33373206               10.27481424                0.00764199
               9.64001924                9.31560953               24.50525644                0.00010000               -0.24851567                0.51720685               -0.66087430               -0.01001070                9.78923333               -0.80043204
              10.63776655                9.27615140               24.39326331                0.03657297               -0.18229704                0.59542924               -0.84877340                0.37974078                8.44293517               -1.58618723
              11.63637329                9.25088516               24.26393574                0.33049151               -0.04231565                0.57217946               -0.98959746                0.74807382                6.26248520               -2.30882132
              12.63692024                9.23485457               24.10929419                0.69692428                0.20639206                0.30100207               -1.09401969                0.74763092                3.35475927               -2.87582848
              13.64050114                9.21775032               23.92287497                0.98273304                0.35808993               -0.12486588               -1.18295790                0.46475330                1.70837022               -3.30118996
               3.74056010               10.78579852               25.25984869                1.00000000               -0.14467310               -0.18732021                0.22347565               -0.16741902                2.26689836                2.22413813
               4.73911337               10.69794494               25.07150081                0.82983002               -0.27555399               -0.09515850                0.15903180               -0.24260987                4.08172425                1.66787353
               5.73504902               10.60872310               24.91879422                0.51186270               -0.59742894                0.06991218                0.03195442               -0.34715499                7.13625388                1.22521873
               6.72716479               10.52261699               24.79153563                0.36606469               -0.96329894                0.28581679               -0.16378008               -0.36020211                9.18839345                0.79001508
               7.71578304               10.44403547               24.68076022                0.35668100               -1.26362263                0.48624991               -0.39199488               -0.28308918               10.33340574                0.39020953
               8.70189233               10.37665318               24.57781600                0.37362777               -1.43610328                0.63618428               -0.61235006               -0.14151743               10.62152821               -0.01158846
               9.68706097               10.32289418               24.47425120                0.41520156               -1.42507295                0.72846465               -0.80337851                0.05254073               10.06032276               -0.41485833
              10.67339088               10.28362053               24.36158399                0.52892092               -1.17181363                0.74691229               -0.95588577                0.28485032                8.65988330               -0.80852251
              11.66362470               10.25734253               24.23155261                0.68354610               -0.65997928                0.64573699               -1.06825316                0.48311631                6.46685285               -1.15941539
              12.66019129               10.23878004               24.07656910                0.87113479               -0.06660487                0.39254747               -1.15034150                0.44790442                3.54698341               -1.43794394
              13.66229260               10.21975852               23.88953860                0.98658272                0.21013127                0.20081933               -1.23620087                0.27699420                1.87996152               -1.73545238
               3.08799513                0.87543935               26.51306858                1.00000000               -0.21911473               -0.21042633                0.73258390               -0.00963357               -0.29158116                0.35602426
               4.08580398                0.79588827               26.33820810                1.00000000               -0.21773313               -0.20855242                0.72513778               -0.00072646               -0.37553195                0.08466852
               5.08364046                0.71617046               26.16131967                1.00000000               -0.21488578               -0.20649363                0.71691351               -0.00061881               -0.46469565               -0.02575196
               6.08150626                0.63628346               25.98455085                0.62723530               -0.21198882               -0.20428971                0.70833846               -0.00030159               -0.35773277               -0.07684830
               7.07940069                0.55623254               25.80989355                0.71555809                5.70255375               -0.20297314                0.70140752                4.81971012               10.37316154               -0.32416131
               8.19555734                0.57241281               25.84804897                0.79778552               10.45542734               -4.45804220                0.08037811                3.88116120               20.90279481                0.27687775
               9.28850923                0.53321338               25.87951667                0.77429851                8.69992891               -3.82745411               -0.45163217                1.50647378               20.46143445                0.25493130
              10.36955592                0.47693664               25.90166289                0.86871293                7.83165063               -3.32767244               -0.90616407               -0.29092709               19.89914521                0.10989135
              11.44514225                0.36325754               25.91221216                1.00000000                3.96531856                0.39276500               -1.29213762               -1.16411567                9.89662483                0.24363201
              12.44886229                0.27306627               25.72144482                1.00000000                0.35643393                0.36073789               -1.18743984                0.01557651               -0.15516572                0.01210509
              13.45227093                0.18277445               25.53064747                1.00000000                0.34086375                0.32865404               -1.08331433                0.02103656               -0.16715245               -0.22337782
               3.16744987                1.87333509               26.46484037                1.00000000               -0.20187071               -0.20104877                0.67546292               -0.00808010               -0.04174266                0.53094575
               4.16543116                1.79380275               26.28983449                1.00000000               -0.20065914               -0.19943707                0.66828108                0.00081174               -0.04858745                0.15830797
               5.16343669                1.71410552               26.11438573                0.86242478               -0.19794773               -0.19768639                0.66038991                0.00101940               -0.03233388               -0.07861313
               6.16147221                1.63424056               25.93962775                0.19821685               -0.19517859               -0.19601767                0.65218900                0.00071927                0.00128591               -0.21698799
               7.15953311                1.55420281               25.76499423                0.36117479                4.22031629               -0.19447265                0.64540240                2.69281916               11.07646651               -0.30940632
               8.24587853                1.52783239               25.81209734                0.46202267                9.58894707               -3.94456318                0.03886308                3.93132165               21.91542971                0.89739222
               9.35131206                1.49493884               25.84802652                0.35687158               10.28730162               -4.06885869               -0.48426241                3.04143570               21.27849705                0.11603224
              10.45162456                1.44365992               25.87361867                0.49387546                9.20621111               -3.16101373               -0.93201604                1.97977806               20.92021447               -0.13723632
              11.53543628                1.36718519               25.89271423                1.00000000                4.38175185                0.39716837               -1.32459435                0.69600117               10.52711931                0.36934576
              12.53925960                1.27667365               25.70166554                1.00000000                0.36684183                0.36522527               -1.22050011               -0.00082371                0.03250223                0.02259565
              13.54277311                1.18606099               25.51054973                1.00000000                0.35135121                0.33338605               -1.11675323                0.00451200                0.01875949               -0.31057883
               3.24689820                2.87141838               26.41967071                1.00000000               -0.18484210               -0.18175871                0.61560318               -0.00759931                0.04114690                0.72086232
               4.24504978                2.79189953               26.24272678                1.00000000               -0.18375785               -0.18079409                0.60951369                0.00127457                0.08575392                0.22503584
               5.24322304                2.71221673               26.06640463                0.51501389               -0.18132092               -0.18000520                0.60336535                0.00145799                0.22062291               -0.16733659
               6.24142336                2.63236310               25.89212984                0.00010000               -0.17788994               -0.17949893                0.59629139                0.00119371                0.46247633               -0.66950951
               7.23966525                2.55234309               25.72084859                0.00010000                4.60121915               -0.42144855                0.58876382                3.86131779               12.69646632                5.64866986
               8.33344774                2.49352154               25.79168358                0.00010000                9.69225856               -3.08855834               -0.04437180                4.48242463               22.94348114                1.69013414
               9.43351042                2.45183621               25.81714782                0.00010000               10.17286899               -3.94566486               -0.51762050                4.30251899               21.20091698               -0.21050437
              10.53690512                2.41371637               25.84442500                0.00010000                9.62690622               -3.27480457               -0.95436765                3.95734777               21.88352949               -1.33763644
              11.62604854                2.37120091               25.87513471                0.50504447                4.65324480                0.40640416               -1.35458298                2.40958238               11.24839456                0.38503820
              12.62997002                2.28037077               25.68203142                1.00000000                0.37689735                0.37385244               -1.25225526               -0.00133255                0.08692238                0.08981156
              13.63358649                2.18944217               25.48917718                1.00000000                0.36164674                0.34374543               -1.14970645                0.00351025                0.08930709               -0.34542320
               3.32633557                3.86969991               26.37487407                1.00000000               -0.16772710               -0.16253499                0.55510762               -0.00781116                0.09045567                0.70906301
               4.32465830                3.79018687               26.19554540                1.00000000               -0.16666462               -0.16247428                0.55075912                0.00059547                0.18034825                0.17021185
               5.32300228                3.71050542               26.01776969                0.31237498               -0.16442872               -0.16289291                0.54649920                0.00043275                0.18044915               -0.28510166
               6.32136972                3.63065058               25.83844965                0.00010000                2.62993764               -0.16315744                0.54115262               -0.24171100                6.91520295               -0.69708870
               7.37560103                3.54577384               25.79560956                0.00010000                5.73320928               -1.38887957                0.25867149                2.85435040               15.12252775                7.23375212
               8.43603391                3.46606122               25.77561141                0.00010000                7.07832912               -2.32581873               -0.09128293                2.96822907               17.95008204                1.74310660
               9.51716761                3.41602554               25.78264657                0.00010000                8.76864538               -3.19558335               -0.52530998                3.35675227               19.85838399               -0.97072599
              10.61140682                3.37816383               25.79419917                0.00010000                9.99029536               -3.21370430               -0.92422961                4.21488173               22.90426288               -3.29334707
              11.71697352                3.37531328               25.85535535                0.24349634                5.47924388               -1.60886049               -1.38664382                0.96498111               13.10241245               -6.58751157
              12.72099169                3.28415070               25.66351181                1.00000000                0.38635072                0.38182570               -1.28388630               -0.00509896                0.32466236                0.33424942
              13.72470053                3.19293590               25.46879321                1.00000000                0.37088388                0.35573751               -1.18513453                0.00187487                0.17012244               -0.28163931
               3.40576807                4.86816768               26.32918972                1.00000000               -0.15118845               -0.14519809                0.49811366               -0.00756812                0.13041966                0.58197942
               4.40425618                4.78865005               26.14727660                0.88718391               -0.15000408               -0.14641849                0.49550077               -0.00021314                0.25208465                0.02077887
               5.40276799                4.70895887               25.96757751                0.18891433               -0.14677318               -0.14656126                0.49116332               -0.00106396                0.50583713               -0.47343318
               6.40132072                4.62909995               25.79078090                0.00010000                2.92868141               -1.17046986                0.48536501                0.83548522                9.31935405                4.35011521
               7.46134162                4.52456550               25.78766646                0.00010000                6.06199520               -2.03068096                0.42627813               -0.33407345               17.24123022                2.34789061
               8.52256062                4.44700517               25.75966763                0.00010000                6.36006193               -1.92945104               -0.07047374                1.17163969               16.66920852                0.96238354
               9.58854285                4.38792454               25.73923973                0.00010000                6.96771998               -2.47188955               -0.49119539                1.71044215               17.67376799               -1.82906940
              10.66191502                4.34944228               25.72735599                0.00010000                7.54092195               -2.69234312               -0.85400697                2.48027470               17.42653384               -4.87383993
              11.73936129                4.33902370               25.69771122                0.21762231                7.51651987               -4.09306890               -1.12237062                0.61297225               15.77876653              -10.30872201
              12.81224542                4.28800729               25.64868300                0.83330328                3.83461474                0.39058273               -1.31126988                2.01394685                7.50835259                0.39605584
              13.81605359                4.19655692               25.44905636                1.00000000                0.38081657                0.36709598               -1.22360467                0.00226982               -0.03254931               -0.22267418
               3.48521946                5.86679595               26.28164982                1.00000000               -0.13566259               -0.13044084                0.44723958               -0.00679332                0.17661457                0.40781045
               4.48386284                5.78725850               26.09711806                0.71766945               -0.13441865               -0.13317589                0.44710555                0.00219339                0.32739031               -0.24055730
               5.48253109                5.70757419               25.91537772                0.12834522                1.93049825               -1.25128018                0.43550046                0.54585557                5.70418601                3.75519472
               6.52247280                5.60724118               25.83844665                0.00010000                3.42416271               -2.44015300                2.40919251                0.36950208               13.06961990                6.68065796
               7.55101434                5.50516022               25.77036312                0.00010000                3.68174294               -1.71632347                0.74124215               -0.47685291               14.41550404                2.20400465
               8.59610766                5.42747220               25.73051033                0.00010000                4.89624983               -1.73381680                0.00335466                0.13873513               15.52746978                0.15090481
               9.64893934                5.36658775               25.68908124                0.00010000                5.69027435               -1.86006589               -0.44242872                0.46042835               15.41928854               -2.34537441
              10.70991315                5.32431696               25.64642496                0.00010000                7.08643076               -2.32136428               -0.76628589                0.38803148               15.45250367               -5.40295040
              11.79066796                5.29345190               25.60337902                0.22410485                9.69121327               -3.52560645               -1.02304879                0.70310642               19.18059412               -7.67784164
              12.90373741                5.29196235               25.63131829                0.73910531                5.84893567               -1.69761687               -1.33839472               -4.22781137               11.59922835              -10.79788642
              13.90764667                5.20027782               25.43025321                1.00000000                0.39092564                3.29380839               -1.25671770               -7.86705829                0.13808424               -9.00079596
               3.56470711                6.86555886               26.23224206                1.00000000               -0.11852990               -0.01762927                0.39035536                1.37238200                0.09117663                4.96056206
               4.56352181                6.78598653               26.04363028                0.61240248                1.44976523               -1.02166777                0.40390948                0.60039343                4.85052657                5.21773358
               5.59370241                6.68393327               25.94999685                0.09586611                2.38014624               -2.12803787                1.52635605               -0.14754531                9.29359432                6.75793101
               6.61112474                6.58029689               25.83500010                0.00010000                1.89355643               -2.09093517                3.41573864               -1.00422570               11.12104519                4.53802473
               7.63157354                6.49023903               25.76161748                0.00010000                2.63915313               -1.32107076                0.72791440               -0.46974275               13.48512458                2.80870475
               8.66390780                6.41232883               25.69889454                0.00010000                3.46665561               -1.20592706                0.02135750               -0.40658121               13.66433393                0.09850830
               9.70090665                6.35072322               25.63586424                0.00010000                3.94518542               -1.22739087               -0.41600378               -0.47798279               13.41992662               -2.36964996
              10.74281151                6.30301500               25.56933519                0.00010000                4.24356895               -1.45032363               -0.70980851               -1.08931052               13.12883319               -5.02385965
              11.78577803                6.26851157               25.49975887                0.24274978                3.90258856               -1.44463346               -0.93019156               -2.54137273               11.16739296               -8.42515390
              12.82086328                6.25405495               25.39253571                0.68465218                2.81517302               -2.04780986               -1.04882989               -5.40128463                6.83796779              -16.71624074
              13.84208149                6.26243309               25.23543354                1.00000000                2.12182168                2.63531560               -1.07305749               -4.00045493                4.32856748              -15.58267581
               3.67181176                7.86644337               26.27544539                1.00000000                0.56845331               -0.63738791                1.07524429                0.34852295                2.22057896                8.90294329
               4.67749630                7.76682514               26.10265313                0.56048083                0.67290287               -1.50017231                1.11019134                0.34252886                3.95073348                8.60037665
               5.68526982                7.66501344               25.95960965                0.07654358                0.92931169               -1.36039942                1.11375225               -1.06404156                7.08068824                5.31553599
               6.69608253                7.56542248               25.84588392                0.00010000                1.21588651               -0.96929626                0.79895568               -1.02253702                9.62278812                4.60120816
               7.70958755                7.47873881               25.75135131                0.00010000                1.57046574               -0.79815590                0.52496601               -0.59381324               11.25534054                2.42569107
               8.72749184                7.40335366               25.66775599                0.00010000                1.95529861               -0.60524643               -0.07345621               -0.60391752               11.84426686                0.15807105
               9.74869352                7.34203993               25.58499136                0.00010000                2.14233715               -0.51741009               -0.43472756               -0.62308726               11.54617510               -2.00369649
              10.77033859                7.29531049               25.49629255                0.00010000                2.00535122               -0.34601701               -0.68681230               -0.80604105               10.42152978               -4.31389969
              11.78880055                7.26455923               25.39123008                0.26799414                1.57258098               -0.05098096               -0.85390892               -0.99741834                8.16785178               -7.25123010
              12.80179021                7.25100615               25.25758386                0.65793666                1.10403775               -0.09227265               -0.94425356               -0.90083972                4.54325639               -9.55206933
              13.81088130                7.25298413               25.08052854                1.00000000                0.90910949               -1.12487913               -0.95689061               -0.87621474                2.32757062              -10.97771680
               3.77091402                8.85281110               26.30081731                1.00000000                0.08883027               -1.09205057                0.91494405               -0.21812047                1.77954217                6.76753997
               4.77180232                8.75598308               26.11781567                0.55688687                0.14551156               -0.81690733                0.92671933               -0.65920474                3.59595352                5.46244163
               5.77382425                8.65672528               25.96769624                0.05966213                0.25731540               -0.56679774                0.67986098               -1.09886959                6.57815630                4.32659404
               6.77694863                8.56091097               25.84253811                0.00010000                0.39709274               -0.26302175                0.39106568               -1.14412333                8.70951057                3.02227835
               7.78176610                8.47427591               25.73477930                0.00010000                0.57898471               -0.18908004                0.08072884               -0.89106779               10.04787117                1.63623427
               8.78852832                8.40022390               25.63637487                0.00010000                0.73609869               -0.07356732               -0.22086695               -0.61205499               10.55821775                0.10074069
               9.79648807                8.34037502               25.53879332                0.00010000                0.78215345                0.06548674               -0.50062545               -0.33847221               10.18806614               -1.44505124
              10.80417139                8.29609466               25.43329364                0.01487727                0.68229646                0.25843969               -0.70402217                0.00682918                8.91663951               -3.05820872
              11.81013400                8.26749195               25.31084387                0.29762821                0.51250979                0.38973427               -0.83948559                0.43880239                6.70414055               -4.62798568
              12.81442158                8.25220950               25.16178934                0.65709716                0.52336245                0.14690660               -0.91285537                0.60591799                3.61831305               -5.94772797
              13.82060125                8.23993550               24.97853934                1.00000000                0.61796684               -0.91851420               -0.93376317                0.45136186                1.85677265               -6.63546532
               3.86110539                9.84460236               26.29755209                1.00000000               -0.07073675               -0.52613013                0.44571313               -0.35320790                1.81094514                3.77116718
               4.86039802                9.75048700               26.10959770                0.58261922               -0.13704227               -0.33918715                0.45247727               -0.58465773                3.51709657                2.96668590
               5.85836454                9.65367748               25.95433457                0.02246580               -0.23742938               -0.10611448                0.30488881               -0.86109485                6.41715738                2.23302418
               6.85564943                9.56016204               25.82386982                0.00010000               -0.29556423                0.11685599                0.08518994               -0.85387437                8.47567538                1.52525050
               7.85245326                9.47495720               25.70994043                0.00010000               -0.32488990                0.28258736               -0.15521876               -0.67395575                9.69965459                0.79925774
               8.84915164                9.40188231               25.60439627                0.00010000               -0.31999659                0.40149855               -0.39142309               -0.40777778               10.09745073                0.03296997
               9.84605333                9.34334967               25.49897149                0.00010000               -0.28966989                0.51103745               -0.60024343               -0.07411600                9.65238444               -0.76097201
              10.84335824                9.30047928               25.38521652                0.04018767               -0.22957871                0.58841136               -0.76352165                0.33948655                8.35210222               -1.54744467
              11.84146175                9.27235391               25.25463588                0.32925422               -0.09466109                0.55555475               -0.87247785                0.73675887                6.21644120               -2.27637533
              12.84146502                9.25394429               25.09915576                0.67779296                0.14973880                0.26149669               -0.93383581                0.75490598                3.33970214               -2.85575235
              13.84445653                9.23461384               24.91211925                0.98260677                0.29915125               -0.20120768               -0.96405031                0.47195043                1.70257597               -3.30916307
               3.95208057               10.84228850               26.26143128                1.00000000               -0.10465373               -0.23138565                0.11535374               -0.21139731                2.26288763                2.14277502
               4.95103404               10.74919934               26.07288130                0.82893077               -0.25766363               -0.12876562                0.13356072               -0.32067383                4.03869558                1.54912875
               5.94692730               10.65460299               25.91918432                0.51068491               -0.62213106                0.09255097                0.03777988               -0.44128682                7.00944110                1.16907947
               6.93859142               10.56324809               25.79001503                0.36641527               -1.01802903                0.30860436               -0.14392972               -0.43956852                9.01453541                0.78242431
               7.92656672               10.47992766               25.67700439                0.35686744               -1.33055570                0.49704530               -0.35541531               -0.33836446               10.17271294                0.39899645
               8.91198030               10.40825388               25.57194864                0.37343251               -1.50789704                0.63715655               -0.55886242               -0.18372790               10.49689858                0.00772742
               9.89640878               10.35059577               25.46656704                0.41449285               -1.50117141                0.72461006               -0.73247405                0.01599566                9.97975753               -0.39324024
              10.88195687               10.30786288               25.35249353                0.53154797               -1.25022998                0.73835980               -0.86282524                0.26022748                8.62392135               -0.78740613
              11.87140418               10.27860305               25.22149418                0.68354705               -0.73485489                0.62491332               -0.94460464                0.47307019                6.47056000               -1.14291289
              12.86725978               10.25743943               25.06589536                0.86049200               -0.13515163                0.34951455               -0.98452503                0.44489102                3.56915463               -1.42946927
              13.86870115               10.23591135               24.87827775                0.98640137                0.14413721                0.12975062               -1.01208013                0.27165366                1.90201509               -1.75172598
               3.25997644                0.92749988               27.52000967                1.00000000               -0.20213073               -0.18891281                0.65734571               -0.00195027               -0.29208053                0.35399055
               4.25795514                0.84538442               27.34526286                1.00000000               -0.20634190               -0.19857367                0.68702819                0.00624106               -0.37773795                0.08370196
               5.25584960                0.76312706               27.16847492                1.00000000               -0.21441117               -0.20712164                0.71436332                0.00628033               -0.46897897               -0.02526945
               6.25366691                0.68071938               26.99180072                0.62759001               -0.22201556               -0.21557327                0.74059553                0.00620839               -0.36189911               -0.07592203
               7.25140929                0.59817004               26.81726014                0.71519493                5.79862549               -0.22566761                0.76999722                4.79515112               10.03618995               -0.32407789
               8.36963942                0.61125973               26.84884441                0.79684605               10.73264708               -4.60771828                0.07642720                3.83722147               20.24529247                0.25675651
               9.46606223                0.56734379               26.87475007                0.77352270                9.10904085               -3.99026331               -0.50256085                1.44990569               19.86618297                0.23990720
              10.55182024                0.50617114               26.89219854                0.86722301                8.38206268               -3.51063924               -0.98709673               -0.47087731               19.35227502                0.10304381
              11.63370349                0.38536383               26.89880863                1.00000000                4.28819690                0.42316335               -1.39044006               -1.40484399                9.62609839                0.24529210
              12.63758418                0.29313942               26.70952478                1.00000000                0.35928753                0.36395067               -1.19699296                0.02976578               -0.15392145                0.01286206
              13.64088924                0.20081414               26.52020790                1.00000000                0.33050626                0.30454714               -1.00372375                0.03516788               -0.16602635               -0.22325256
               3.34207240                1.92561075               27.47124731                1.00000000               -0.18684431               -0.18139531                0.60696511               -0.00569994               -0.04222546                0.52658986
               4.34020395                1.84339869               27.29635873                1.00000000               -0.19137345               -0.19108414                0.63740030                0.00318116               -0.05016905                0.15592472
               5.33824493                1.76105585               27.12101605                0.87107123               -0.19982245               -0.19990489                0.66614891                0.00369349               -0.03542424               -0.07798279
               6.33620751                1.67856365               26.94635826                0.20414682               -0.20771506               -0.20899399                0.69361692                0.00225091               -0.00153919               -0.21509794
               7.33409063                1.59591337               26.77184366                0.36585956                4.36086289               -0.21817701                0.72347556                2.60454336               10.74578312               -0.30883674
               8.42342476                1.56518255               26.81248393                0.46724007                9.95074804               -4.11723440                0.03340605                3.82740965               21.27492417                0.86895061
               9.53310559                1.52744115               26.84292720                0.36407822               10.73383409               -4.23423358               -0.53916204                2.93886276               20.69433377                0.11623946
              10.63810145                1.47106475               26.86389382                0.49839218                9.65326597               -3.29529948               -1.01414786                1.83636251               20.37248065               -0.12597018
              11.72617091                1.38959546               26.87898046                1.00000000                4.60276172                0.42747729               -1.42363500                0.56171816               10.25350088                0.37327277
              12.73015668                1.29677893               26.68940970                1.00000000                0.36976480                0.36870798               -1.23072804               -0.00038968                0.03361495                0.02370720
              13.73356620                1.20385961               26.49976925                1.00000000                0.34095238                0.31023115               -1.03800774                0.00494924                0.01964895               -0.31176756
               3.42428658                2.92387197               27.42551825                1.00000000               -0.17129127               -0.16613164                0.55394033               -0.00460392                0.04203577                0.71369784
               4.42257366                2.84156274               27.24870475                1.00000000               -0.17640324               -0.17582522                0.58655238                0.00491662                0.08666010                0.22124062
               5.42075851                2.75912896               27.07251167                0.52825030               -0.18596273               -0.18548232                0.61871470                0.00574838                0.22011990               -0.16706515
               6.41885441                2.67653950               26.89834935                0.00010000               -0.19386276               -0.19633279                0.64783322                0.00498868                0.46012540               -0.66648199
               7.41688126                2.59380650               26.72717059                0.00010000                4.79027082               -0.54612235                0.67495038                3.82412765               12.34613295                5.49075667
               8.51465983                2.52891505               26.79116110                0.00010000               10.10380179               -3.26696588               -0.07610136                4.36975976               22.31394719                1.66922649
               9.61895729                2.48265912               26.81169146                0.00010000               10.58666780               -4.09211154               -0.58007426                4.22772805               20.65855027               -0.17540701
              10.72639318                2.44026515               26.83448076                0.00010000               10.01331891               -3.35094365               -1.03368779                3.84779813               21.34273814               -1.28088698
              11.81922367                2.39391337               26.86109430                0.50657200                4.84595271                0.43695349               -1.45454202                2.34650251               10.97131394                0.39005265
              12.82331224                2.30051358               26.66944817                1.00000000                0.38015975                0.37755885               -1.26391091               -0.00091514                0.08773520                0.09124184
              13.82682687                2.20701876               26.47805338                1.00000000                0.35146298                0.32243039               -1.07301100                0.00394932                0.09001484               -0.34987284
               3.50659879                3.92228812               27.38015438                1.00000000               -0.15534922               -0.15004987                0.49940517               -0.00483235                0.09240514                0.70159534
               4.50504530                3.83988218               27.20097642                1.00000000               -0.16078266               -0.16025391                0.53475908                0.00446108                0.18258382                0.16737981
               5.50338314                3.75734620               27.02335155                0.32116612               -0.17077774               -0.17131421                0.57024122                0.00460356                0.18199612               -0.28445863
               6.50162974                3.67463699               26.84417123                0.00010000                2.74072499               -0.18276342                0.60326164               -0.33578622                6.75347104               -0.69429070
               7.55819764                3.58499092               26.79823462                0.00010000                6.01688016               -1.61642707                0.22665738                2.87927985               14.75613856                7.17845367
               8.62196735                3.49984323               26.77451680                0.00010000                7.40562045               -2.46319417               -0.15785546                2.96430039               17.49677659                1.81620525
               9.70631004                3.44559892               26.77712817                0.00010000                9.09179028               -3.29239147               -0.59043347                3.33100507               19.36970695               -0.87350101
              10.80380315                3.40404587               26.78463299                0.00010000               10.32712414               -3.26643581               -0.98645644                4.15443304               22.35870801               -3.16913521
              11.91285253                3.39833453               26.84098725                0.24060906                5.66149202               -1.58755468               -1.48767032                0.86073668               12.79427490               -6.41645292
              12.91703299                3.30433011               26.65061309                1.00000000                0.38911538                0.38571609               -1.29557384               -0.00609185                0.32828306                0.33842113
              13.92063484                3.21030821               26.45731759                1.00000000                0.36018438                0.33459554               -1.10819222                0.00236176                0.17155342               -0.29112885
               3.58900181                4.92087098               27.33391749                1.00000000               -0.13970011               -0.13312237                0.44484427               -0.00547104                0.13119310                0.57832037
               4.58760481                4.83835766               27.15217906                0.87826527               -0.14530170               -0.14511326                0.48351643                0.00267589                0.25325806                0.02284883
               5.58609577                4.75570268               26.97264143                0.19312220               -0.15554198               -0.15725904                0.52133244                0.00277563                0.50537333               -0.47160870
               6.58449397                4.67288423               26.79598196                0.00010000                3.15824199               -1.45113016                0.55527521                0.79522400                9.24728256                4.82963731
               7.64926061                4.56147796               26.79157533                0.00010000                6.44219316               -2.13469827                0.29526776               -0.15830155               16.84547734                2.82370070
               8.71333783                4.47965116               26.75884060                0.00010000                6.60570700               -2.00524024               -0.14191518                1.27282850               16.14024719                1.14065870
               9.78137475                4.41681129               26.73416436                0.00010000                7.17042033               -2.51284332               -0.53601119                1.70703467               17.21040586               -1.67740689
              10.85674624                4.37493643               26.71863307                0.00010000                7.73897105               -2.71750317               -0.89179180                2.43580954               17.02171417               -4.70431112
              11.93615417                4.36216228               26.68634551                0.21356967                7.72352395               -4.11892071               -1.15039247                0.51073318               15.44365114              -10.05093137
              13.01121672                4.30822790               26.63552610                0.81357679                3.93818542                0.39481546               -1.32122153                2.02139849                7.35193648                0.40259657
              14.01491788                4.21371067               26.43721416                1.00000000                0.37011674                0.34393475               -1.14412080                0.00239374               -0.03327779               -0.23360994
               3.67151600                5.91962567               27.28585352                1.00000000               -0.12488884               -0.11664242                0.39279145               -0.00575941                0.17577944                0.40575741
               4.67026711                5.83697992               27.10152381                0.70992814               -0.13019609               -0.13144388                0.43470932                0.00316176                0.32314922               -0.23232535
               5.66891208                5.75420102               26.91992204                0.13076705                2.07459153               -1.32908191                0.47104270                0.35013337                6.17615143                4.11710976
               6.71175894                5.64561439               26.85269449                0.00010000                3.96762984               -2.42929295                1.05889004                0.57483497               11.86784445                6.95892653
               7.74826467                5.54229695               26.77932942                0.00010000                4.01658238               -1.68296963                0.64503119               -0.06117817               13.31769230                2.72883890
               8.79209059                5.45973843               26.73041924                0.00010000                4.84503957               -1.70579956               -0.03415280                0.16359465               14.75791630                0.32647337
               9.84516547                5.39534206               26.68468942                0.00010000                5.75388797               -1.85872052               -0.45767691                0.42547600               14.96786125               -2.18130199
              10.90716835                5.34969581               26.63875362                0.00010000                7.23051282               -2.33095038               -0.77142789                0.29832732               15.08311953               -5.23031837
              11.98977572                5.31595612               26.59318533                0.21982959                9.93721111               -3.57349941               -1.01742709                0.60475439               18.79424464               -7.50145342
              13.10591257                5.31222641               26.61789023                0.72121924                5.99707273               -1.71164061               -1.34886251               -4.43809501               11.37865438              -10.61093554
              14.10971718                5.21718691               26.41808792                1.00000000                0.38046060                3.39324646               -1.17632865               -8.13739771                0.14299597               -8.88784384
               3.75417813                6.91853813               27.23590728                1.00000000               -0.10854370                0.06674699                0.34151590                1.46802873                0.09064819                5.15290659
               4.75309269                6.83572878               27.04757591                0.60604144                1.51429182               -1.01699983                0.39034001                0.70924578                5.19781752                5.45731143
               5.78446397                6.72912104               26.96120386                0.09694765                2.74010184               -2.12081911                0.90046438                0.16590759                9.38421870                7.04866488
               6.80789473                6.62429837               26.85405431                0.00010000                2.47245208               -1.76199358                1.31695725               -0.81659011                9.98535601                4.45593793
               7.83391301                6.52781857               26.77097723                0.00010000                2.78349438               -1.25437801                0.70311648               -0.79156235               12.15617180                2.65287152
               8.86356462                6.44553517               26.69903373                0.00010000                3.30069401               -1.13544416                0.00246277               -0.55556637               12.89723988                0.21838108
               9.89992689                6.37963688               26.63188198                0.00010000                3.92670521               -1.20602956               -0.40457992               -0.62153808               12.99815749               -2.24184928
              10.94209872                6.32831743               26.56237949                0.00010000                4.28958844               -1.44880394               -0.68643841               -1.23399535               12.80732114               -4.87539986
              11.98571866                6.29069229               26.49067458                0.23885279                3.95626490               -1.45278444               -0.89011418               -2.71545516               10.93573116               -8.25106510
              13.02122402                6.27399509               26.38243911                0.66805410                2.82651393               -2.05505178               -0.97192469               -5.62631645                6.70872166              -16.44066668
              14.04224894                6.28157560               26.22539701                1.00000000                2.10249162                2.73071973               -0.93348953               -4.17174583                4.24680185              -15.38726171
               3.86649526                7.92096061               27.28248357                1.00000000                0.73738492               -0.46116277                0.51542170                0.41911023                2.23439787                9.02511922
               4.87386911                7.81663992               27.11067003                0.55537767                0.85826882               -1.41853852                0.63084295                0.54927944                3.86029270                8.86610107
               5.88366064                7.71178464               26.96900951                0.07633137                1.14302505               -1.27565288                0.74745412               -0.73116234                6.91101808                5.29677295
               6.89672961                7.61037452               26.85501513                0.00010000                1.37679946               -1.03583333                0.73710521               -1.12580337                9.24270211                4.02603490
               7.91119663                7.51720939               26.75583549                0.00010000                1.62156701               -0.76004776                0.35911443               -1.09572025               10.65015300                2.13244414
               8.92916095                7.43702955               26.66724457                0.00010000                1.93779096               -0.58603149               -0.07334349               -0.86993385               11.32585652                0.18016818
               9.94995245                7.37122147               26.58083739                0.00010000                2.11360363               -0.49839953               -0.40884113               -0.81364516               11.18585460               -1.91631892
              10.97143303                7.32071973               26.48969768                0.00010000                1.99182532               -0.33468166               -0.63965672               -0.95329131               10.16882398               -4.19807100
              11.98978896                7.28690043               26.38308415                0.26488010                1.55349538               -0.03794320               -0.77913042               -1.11797563                8.00037869               -7.11353636
              13.00250293                7.27112538               26.24873843                0.64183524                1.06661450               -0.08807754               -0.82660250               -0.97742649                4.46081513               -9.41516138
              14.01112125                7.27180130               26.07187791                1.00000000                0.86183105               -1.18098880               -0.77227536               -0.92362978                2.28733656              -10.86358969
               3.97120172                8.90931487               27.30711056                1.00000000                0.20525371               -0.92397556                0.41889306               -0.19503027                1.68221937                6.54457426
               4.97325426                8.80735801               27.12449087                0.55295811                0.24522010               -0.67376561                0.49552461               -0.65073963                3.34587573                5.28297285
               5.97610612                8.70360798               26.97314550                0.05811542                0.33498242               -0.52941252                0.43870939               -1.12546630                6.19418251                4.13168358
               6.97995391                8.60358171               26.84579306                0.00010000                0.46187264               -0.37938054                0.27920579               -1.26946741                8.33767848                2.81292447
               7.98534358                8.51261761               26.73565800                0.00010000                0.60999811               -0.21381765                0.05443308               -1.09325598                9.70186015                1.51939095
               8.99215387                8.43381454               26.63425602                0.00010000                0.73101115               -0.08262878               -0.21918495               -0.82274320               10.21972201                0.09324170
               9.99996380                8.36966889               26.53403425                0.00010000                0.76000331                0.06974539               -0.46309884               -0.49482636                9.91317303               -1.39075664
              11.00735394                8.32162379               26.42660826                0.01653689                0.64948502                0.26414409               -0.63984704               -0.10121436                8.71963318               -2.98086945
              12.01295350                8.28993343               26.30295604                0.29543768                0.47103393                0.39034601               -0.74235430                0.37918365                6.57972698               -4.54575350
              13.01677461                8.27223354               26.15338804                0.64032633                0.47354952                0.12540594               -0.76950339                0.58751883                3.56016767               -5.87638540
              14.02242449                8.25795582               25.97024588                1.00000000                0.56498761               -0.99863250               -0.72432769                0.44744979                1.82878029               -6.59708774
               4.06650838                9.90248110               27.30055714                1.00000000                0.00528312               -0.42096117                0.15013997               -0.34584511                1.70562231                3.52669057
               5.06656121                9.80316461               27.11315489                0.57895203               -0.07903782               -0.24988448                0.24205190               -0.62023681                3.33144741                2.75920179
               6.06492762                9.70119639               26.95685557                0.01972894               -0.21152856               -0.06014009                0.18032664               -0.91898606                6.13214230                2.11200054
               7.06233064                9.60278691               26.82455631                0.00010000               -0.29144732                0.11966694                0.03054433               -0.92909139                8.16660353                1.46954264
               8.05909868                9.51293304               26.70840076                0.00010000               -0.33379100                0.26349360               -0.16422958               -0.77249122                9.40717740                0.76928835
               9.05565482                9.43537697               26.60065781                0.00010000               -0.34260029                0.39442207               -0.36873737               -0.51014428                9.84119097                0.03710855
              10.05224667                9.37261637               26.49325157                0.00010000               -0.32553097                0.50846916               -0.55219407               -0.16134624                9.44372685               -0.73249220
              11.04914420                9.32600261               26.37799287                0.04410721               -0.27418941                0.58472911               -0.68743583                0.28396019                8.20409532               -1.50883151
              12.04676288                9.29470735               26.24648618                0.32822560               -0.14566413                0.54171306               -0.76185007                0.71557287                6.12931050               -2.23812414
              13.04623092                9.27363350               26.09061748                0.65868825                0.09313973                0.22389561               -0.77633104                0.75687509                3.30233282               -2.82785786
              14.04862568                9.25182865               25.90359397                0.98221668                0.23947603               -0.27744168               -0.74095750                0.47669720                1.68597373               -3.30930167
               4.16291781               10.90089565               27.26215576                1.00000000               -0.07835693               -0.15854512               -0.01353054               -0.21258970                2.16889784                2.01207742
               5.16213424               10.80236032               27.07417203                0.82743460               -0.24068515               -0.08042835                0.07903244               -0.36722050                3.87308319                1.43250088
               6.15810410               10.70240518               26.91954982                0.50912110               -0.62494060                0.12087966                0.01083601               -0.50161569                6.74631771                1.09280806
               7.14963543               10.60597505               26.78865703                0.36674497               -1.04002076                0.31881392               -0.14091019               -0.49540613                8.72954688                0.74670920
               8.13730369               10.51788749               26.67365191                0.35705435               -1.36838874                0.49544444               -0.32650793               -0.39310179                9.91106778                0.39317775
               9.12226765               10.44170298               26.56663875                0.37323534               -1.55962293                0.63260129               -0.51098290               -0.24117753               10.28066190                0.01367404
              10.10611123               10.37983827               26.45960172                0.41376612               -1.56627425                0.72218948               -0.66734020               -0.03277428                9.82021445               -0.37716809
              11.09094217               10.33331838               26.34432749                0.53440231               -1.32385781                0.73157612               -0.77592411                0.22626771                8.52502171               -0.76702961
              12.07963407               10.30076769               26.21266051                0.68373019               -0.80756783                0.60603405               -0.82656432                0.45677310                6.42928355               -1.12378111
              13.07479081               10.27671145               26.05687860                0.84993981               -0.20329767                0.30779545               -0.82172123                0.43795438                3.56663988               -1.41682736
              14.07556812               10.25240699               25.86929700                0.98617757                0.07773115                0.05783344               -0.78452730                0.26379813                1.91167583               -1.76255351
               3.43164713                0.98004387               28.52621549                1.00000000               -0.18631658               -0.16855723                0.58625813                0.00621030               -0.29387147                0.35207776
               4.42978397                0.89537058               28.35194867                1.00000000               -0.19620537               -0.18912186                0.65143697                0.01445429               -0.38273446                0.08369445
               5.42772302                0.81058281               28.17560694                1.00000000               -0.21504509               -0.20736882                0.71173067                0.01453233               -0.47832822               -0.02264484
               6.42548306                0.72564994               27.99936276                0.62761083               -0.23211124               -0.22599696                0.76898385                0.01313298               -0.37144795               -0.07306392
               7.42308080                0.64058396               27.82529349                0.71467926                5.87450995               -0.24683269                0.83243175                4.75517885                9.64082584               -0.32513789
               8.54297326                0.65026890               27.84957752                0.79622216               10.96989827               -4.73741892                0.07253667                3.78568563               19.48032503                0.22841304
               9.64247877                0.60165726               27.86946546                0.77304088                9.47847941               -4.13350187               -0.55398745                1.39790990               19.16828084                0.22419121
              10.73254285                0.53560695               27.88192095                0.86518615                8.89296027               -3.67486588               -1.06888993               -0.64407005               18.69960877                0.10046135
              11.82033797                0.40781972               27.88440336                1.00000000                4.59208689                0.45452517               -1.49196374               -1.63741989                9.30022232                0.24717511
              12.82438459                0.31355367               27.69750496                1.00000000                0.36230948                0.36707410               -1.20699344                0.04420062               -0.15372709                0.01303031
              13.82758416                0.21918669               27.51057300                1.00000000                0.31995709                0.27934672               -0.92202559                0.04958614               -0.16614218               -0.22488552
               3.51638253                1.97835830               28.47697967                1.00000000               -0.17234888               -0.16293048                0.54110716               -0.00195405               -0.04330399                0.52189656
               4.51465904                1.89347936               28.30258249                1.00000000               -0.18269303               -0.18319632                0.60807065                0.00782109               -0.05292236                0.15490728
               5.51272867                1.80850912               28.12770870                0.88037979               -0.20226096               -0.20214398                0.67213702                0.00842082               -0.04022758               -0.07361042
               6.51061382                1.72338997               27.95350009                0.20935018               -0.22027801               -0.22147236                0.73444445                0.00451967               -0.00635604               -0.20921996
               7.50832311                1.63811563               27.77946374                0.36998350                4.48398247               -0.24083501                0.79759909                2.51000506               10.35175943               -0.30815915
               8.60029347                1.60289471               27.81276547                0.47244575               10.27328647               -4.26978464                0.01769315                3.72195807               20.51230710                0.81763138
               9.71378884                1.56032224               27.83724328                0.37154549               11.13637228               -4.37650779               -0.59999449                2.84232889               20.00245463                0.12082987
              10.82302092                1.49885829               27.85333571                0.50255295               10.06007878               -3.41237473               -1.09846864                1.69284647               19.72094896               -0.10170789
              11.91499041                1.41236498               27.86424153                1.00000000                4.80610972                0.45877273               -1.52550167                0.42677804                9.92621240                0.37715966
              12.91914311                1.31722441               27.67705098                1.00000000                0.37282911                0.37192801               -1.24104464               -0.00018757                0.03474413                0.02392514
              13.92244700                1.22198016               27.48978958                1.00000000                0.33038846                0.28548373               -0.95666789                0.00518540                0.02049721               -0.31501846
               3.60136593                2.97678526               28.43074951                1.00000000               -0.15763653               -0.15128606                0.49181904               -0.00000790                0.04339241                0.70530371
               4.59978957                2.89170665               28.25445782                1.00000000               -0.16925493               -0.17096068                0.56392708                0.01042160                0.08910423                0.21834636
               5.59798083                2.80653993               28.07877893                0.54253400               -0.19113081               -0.19113163                0.63617399                0.01162779                0.22093684               -0.16262142
               6.59596695                2.72122049               27.90508651                0.00010000               -0.21023365               -0.21289050                0.70108430                0.00847887                0.45669945               -0.65891640
               7.59377616                2.63576726               27.73434759                0.00010000                4.96194339               -0.65887282                0.75907793                3.78539213               11.91074234                5.25104468
               8.69520582                2.56487321               27.79016156                0.00010000               10.47927995               -3.40944454               -0.14946091                4.25711338               21.55993657                1.61907866
               9.80336176                2.51412710               27.80554633                0.00010000               10.95756113               -4.21198081               -0.64606537                4.15714839               20.02514031               -0.13128171
              10.91435704                2.46735946               27.82375124                0.00010000               10.35728275               -3.41147396               -1.10966228                3.72845306               20.69447896               -1.19834187
              12.01050741                2.41699518               27.84604387                0.50719005                5.02043059                0.46840196               -1.55684029                2.27606412               10.63838942                0.39484314
              13.01476565                2.32099223               27.65675320                1.00000000                0.38344744                0.38083889               -1.27497270               -0.00074567                0.08910776                0.09221298
              14.01817636                2.22489637               27.46771696                1.00000000                0.34107106                0.29861890               -0.99275677                0.00419359                0.09132290               -0.35517473
               3.68653959                3.97533258               28.38486217                1.00000000               -0.14267881               -0.13751578                0.43982645               -0.00210027                0.09465201                0.69041877
               4.68511281                3.89006015               28.20624058                1.00000000               -0.15461035               -0.15735062                0.51773465                0.00808788                0.18793169                0.16359838
               5.68344739                3.80468649               28.02917451                0.32958588               -0.17783662               -0.17918581                0.59557127                0.00818664                0.18546262               -0.28293650
               6.68155607                3.71913216               27.85051488                0.00010000                2.84654248               -0.20255228                0.66640476               -0.41913990                6.50862234               -0.68920170
               7.74037824                3.62493817               27.80014270                0.00010000                6.27599111               -1.79112697                0.04939182                2.85950101               14.23329792                7.01616581
               8.80707590                3.53470582               27.77245430                0.00010000                7.70336589               -2.54786519               -0.31343521                2.93575833               17.02006215                1.88765005
               9.89444555                3.47608262               27.77083790                0.00010000                9.38230010               -3.36559760               -0.65093781                3.27598702               18.81129090               -0.74760888
              10.99472190                3.43062881               27.77447004                0.00010000               10.62166847               -3.30620139               -1.04344080                4.07307577               21.69661885               -3.01376376
              12.10687892                3.42173302               27.82560195                0.23732002                5.82525551               -1.55940947               -1.59060200                0.75231236               12.42104623               -6.20809329
              13.11122701                3.32484119               27.63760033                1.00000000                0.39218311                0.38949226               -1.30703360               -0.00653128                0.33294393                0.34319333
              14.11472259                3.22795254               27.44662936                1.00000000                0.34955782                0.31090109               -1.02811440                0.00291300                0.17381204               -0.29843679
               3.77186879                4.97403495               28.33808660                1.00000000               -0.12713781               -0.12056303                0.38749277               -0.00478659                0.13272669                0.56742866
               4.77059741                4.88855964               28.15694693                0.86933779               -0.13981188               -0.14224998                0.46831148                0.00328827                0.25606611                0.02052938
               5.76907255                4.80295621               27.97800416                0.19664578               -0.16324726               -0.16662696                0.55055165                0.00229271                0.50883525               -0.47140467
               6.76733247                4.71716945               27.80188640                0.00010000                3.31599831               -1.53923963                0.62740674                0.79273700                9.02813792                4.90336350
               7.83539252                4.59994472               27.79357182                0.00010000                6.77220344               -2.23015382                0.04054518               -0.19941696               16.29737207                3.11857230
               8.90277654                4.51391590               27.75682933                0.00010000                6.87829920               -2.04486397               -0.28777578                1.28502592               15.59321363                1.38886433
               9.97295850                4.44681515               27.72851951                0.00010000                7.36958113               -2.54192666               -0.59591783                1.64180775               16.67334374               -1.48364143
              11.05016816                4.40123543               27.70952015                0.00010000                7.91913913               -2.73323175               -0.93344090                2.36747881               16.52364546               -4.50278902
              12.13134129                4.38580699               27.67470337                0.20915982                7.91236711               -4.13196301               -1.18099634                0.40419813               15.02469508               -9.73908146
              13.20841550                4.32878207               27.62225857                0.79394736                4.03353150                0.39947216               -1.33304344                2.02441515                7.15852561                0.40935752
              14.21201192                4.23111439               27.42617395                1.00000000                0.35964147                0.31927709               -1.06313719                0.00266301               -0.03391816               -0.24110124
               3.85739448                5.97292132               28.28950565                1.00000000               -0.11371732               -0.10240027                0.33674150               -0.00491637                0.17467832                0.39792671
               4.85625730                5.88721515               28.10581225                0.70216868               -0.12555208               -0.12865519                0.42267172                0.00083947                0.32028830               -0.23003442
               5.85488344                5.80135395               27.92479858                0.13250604                2.20825031               -1.35685611                0.50145125                0.34840244                6.24402665                4.24093033
               6.90042231                5.68834737               27.85962445                0.00010000                4.23800022               -2.50372182                0.54367675                0.63535833               11.67598952                7.29718872
               7.93964344                5.58033510               27.78326374                0.00010000                4.27418364               -1.65771641                0.23967888               -0.01068943               12.50432459                3.03646860
               8.98590598                5.49380854               27.72982727                0.00010000                5.01593706               -1.70223888               -0.14792556                0.15401478               14.05446564                0.59673735
              10.03996218                5.42524409               27.67992771                0.00010000                5.85868236               -1.85384393               -0.50557015                0.33605904               14.40989092               -1.98684522
              11.10307963                5.37596418               27.63099640                0.00010000                7.37270297               -2.33362454               -0.78853933                0.19234198               14.62425652               -5.02593212
              12.18741624                5.33909376               27.58303048                0.21511375               10.16641393               -3.61077703               -1.01787981                0.49791011               18.30773508               -7.29256452
              13.30640791                5.33283063               27.60434104                0.70319548                6.13474849               -1.71943250               -1.36195718               -4.64279485               11.10301846              -10.38049273
              14.31011121                5.23433808               27.40672664                1.00000000                0.37033017                3.48917342               -1.09545491               -8.39476453                0.14669367               -8.74205742
               3.94318281                6.97198694               28.23907238                1.00000000               -0.10012365                0.14105717                0.29017137                1.53657546                0.08940305                5.17627826
               4.94218157                6.88598654               28.05143708                0.59962645                1.58627882               -0.99914712                0.38351386                0.78755259                5.30790552                5.52164418
               5.97490839                6.77581909               27.96800613                0.09735812                2.94384585               -2.11733452                0.54460311                0.26850566                9.47303044                7.18374106
               7.00105849                6.66709501               27.86133924                0.00010000                2.74045870               -1.70714684                0.54296556               -0.76702094                9.57602639                4.37889455
               8.02971756                6.56679039               27.77567981                0.00010000                2.99446770               -1.18140864                0.30842750               -0.82530760               11.29986737                2.70456062
               9.06094784                6.47987112               27.69894379                0.00010000                3.39032436               -1.10369022               -0.08266069               -0.69755144               12.17938451                0.31887142
              10.09752405                6.40973827               27.62777264                0.00010000                3.96087440               -1.18414018               -0.43045108               -0.76564337               12.46767209               -2.09216497
              11.14016533                6.35456294               27.55560642                0.00010000                4.34544953               -1.44219374               -0.67923303               -1.38790721               12.40256029               -4.70501258
              12.18443304                6.31359145               27.48195659                0.23447261                4.00749741               -1.45433551               -0.85885695               -2.89091877               10.63603974               -8.04431829
              13.22031528                6.29439342               27.37309722                0.65113934                2.83343434               -2.05383186               -0.89946461               -5.84443765                6.53918037              -16.10231917
              14.24110172                6.30089786               27.21676375                1.00000000                2.07864445                2.82626891               -0.79455055               -4.33766407                4.14098328              -15.14241473
               4.06012680                7.97574246               28.28575382                1.00000000                0.80494072               -0.31789651                0.21243870                0.47972356                2.23991116                8.98886681
               5.06817621                7.86723221               28.11526999                0.55020664                0.95091390               -1.34144314                0.34605575                0.68840610                3.78735518                8.89257539
               6.07914508                7.75900726               27.97455873                0.07539456                1.29671946               -1.21531004                0.42338897               -0.57652284                6.71675267                5.16308812
               7.09411060                7.65420443               27.86062602                0.00010000                1.56080480               -0.97333620                0.39909234               -1.10845624                8.80830920                3.72850755
               8.11036117                7.55670692               27.75853360                0.00010000                1.74482395               -0.73459655                0.16512131               -1.24234529               10.05000086                1.98443035
               9.12900707                7.47173473               27.66628912                0.00010000                1.97981634               -0.55978104               -0.14182764               -1.07734913               10.76508722                0.17113517
              10.14995750                7.40156128               27.57681453                0.00010000                2.12306156               -0.47962805               -0.41339287               -0.98695910               10.74710403               -1.82837968
              11.17146831                7.34712030               27.48349941                0.00010000                1.99049399               -0.31904293               -0.60975311               -1.10386497                9.84323160               -4.06929435
              12.18976738                7.31000705               27.37564747                0.26133915                1.53722202               -0.02083006               -0.71436105               -1.24252943                7.77880207               -6.95042176
              13.20221275                7.29175399               27.24105181                0.62541056                1.02908390               -0.07953432               -0.71445210               -1.05618872                4.34822743               -9.24751814
              14.21034906                7.29086346               27.06508304                1.00000000                0.81363120               -1.23100831               -0.58939317               -0.97108090                2.23219751              -10.71922845
               4.16979780                8.96562901               28.30919517                1.00000000                0.28871015               -0.78257463                0.06099119               -0.15235743                1.61327379                6.35674985
               5.17268490                8.85915767               28.12772616                0.54869059                0.33039547               -0.56211652                0.19746334               -0.57818942                3.19549880                5.14191447
               6.17640570                8.75151289               27.97647043                0.05580613                0.42524018               -0.47470447                0.22629395               -1.05342441                5.93073806                3.96922899
               7.18118970                8.64762828               27.84812223                0.00010000                0.54673217               -0.37577522                0.14935103               -1.30443561                7.97119542                2.60991764
               8.18734035                8.55209846               27.73586796                0.00010000                0.66784004               -0.21789347               -0.03168138               -1.24093235                9.27421002                1.38828059
               9.19454650                8.46867550               27.63199117                0.00010000                0.75294737               -0.07464958               -0.25110890               -0.99175882                9.81172014                0.06902445
              10.20239930                8.40014571               27.52953135                0.00010000                0.75478843                0.07855393               -0.45054170               -0.64290632                9.56937383               -1.34643002
              11.20964227                8.34818208               27.42049670                0.01813816                0.62747315                0.27315587               -0.59160562               -0.21168186                8.46129707               -2.89899951
              12.21494876                8.31317485               27.29599678                0.29304223                0.43464104                0.39399539               -0.65574134                0.31383175                6.40941206               -4.45008583
              13.21833509                8.29280274               27.14639927                0.62335866                0.42562068                0.10712887               -0.63264367                0.56469937                3.47665333               -5.78791122
              14.22346117                8.27627769               26.96405279                1.00000000                0.51260816               -1.07433835               -0.51793090                0.44119387                1.78835502               -6.54343594
               4.27002233                9.96009097               28.30055489                1.00000000                0.07062107               -0.31481022               -0.12833809               -0.32869926                1.61867175                3.32939586
               5.27072854                9.85598987               28.11443874                0.57415610               -0.02081751               -0.16712887                0.02629001               -0.60805281                3.16250230                2.61236054
               6.26960598                9.74951317               27.95794110                0.01632754               -0.16461109               -0.02211190                0.03577788               -0.91690030                5.84878953                1.99271500
               7.26743632                9.64668892               27.82448071                0.00010000               -0.25553352                0.11762674               -0.05400852               -0.96367769                7.83036862                1.37563405
               8.26449531                9.55234905               27.70665584                0.00010000               -0.31558346                0.25952250               -0.20197801               -0.84905872                9.05836535                0.71407188
               9.26112465                9.47024174               27.59702152                0.00010000               -0.34512552                0.39449780               -0.37222909               -0.60597289                9.51215943                0.02326101
              10.25759280                9.40313236               27.48792761                0.00010000               -0.34595601                0.51032007               -0.52366301               -0.24666423                9.16790940               -0.71231902
              11.25420553                9.35258342               27.37146780                0.04827023               -0.30847203                0.58354879               -0.62618700                0.22554150                7.99866451               -1.47023109
              12.25142336                9.31788695               27.23939888                0.32735499               -0.19008198                0.53019573               -0.66223226                0.69015667                5.99889957               -2.19442169
              13.25040389                9.29389657               27.08362914                0.63963841                0.03998333                0.18889525               -0.62649609                0.75553683                3.24085741               -2.79253553
              14.25222302                9.26937669               26.89730010                0.98152020                0.18191351               -0.35117396               -0.52246217                0.47984671                1.65762299               -3.30223914
               4.37142600               10.95933281               28.26116067                1.00000000               -0.03243611               -0.07581619               -0.20351355               -0.21140391                2.03423362                1.87040541
               5.37110164               10.85581510               28.07446195                0.82481866               -0.20286762               -0.01747783               -0.04928349               -0.37579763                3.66612619                1.33942833
               6.36736865               10.75107065               27.91940104                0.50716684               -0.60106886                0.15574829               -0.06589765               -0.51544680                6.42821869                1.02787243
               7.35908026               10.64998082               27.78719683                0.36706520               -1.02811467                0.32918949               -0.17405627               -0.52469275                8.37495487                0.70670814
               8.34680636               10.55728891               27.67047423                0.35723181               -1.37182633                0.49398529               -0.32732618               -0.43966326                9.56738441                0.36875152
               9.33164374               10.47656546               27.56172898                0.37303532               -1.58410111                0.63237163               -0.48731467               -0.29493111                9.97872136                0.00926585
              10.31512433               10.41035211               27.45322024                0.41301608               -1.61226140                0.72197472               -0.62186374               -0.08246662                9.57990296               -0.36634400
              11.29939851               10.35985306               27.33697505                0.53746232               -1.38427954                0.72696346               -0.70468910                0.19063074                8.35945179               -0.74702353
              12.28743874               10.32377876               27.20496289                0.68409179               -0.87212105                0.58918096               -0.72082264                0.43791790                6.33917458               -1.10196855
              13.28195609               10.29658064               27.04946094                0.83952671               -0.26704405                0.26840719               -0.66799820                0.42899247                3.53699015               -1.40008454
              14.28209786               10.26925421               26.86258721                0.98591393                0.01417738               -0.01224790               -0.56306195                0.25484094                1.90778281               -1.76804152
               3.60263267                1.03301308               29.53173483                1.00000000               -0.17236658               -0.14984128                0.52194565                0.01455880               -0.29688694                0.34851536
               4.60090900                0.94579066               29.35829160                1.00000000               -0.18818613               -0.18029838                0.61911946                0.02362521               -0.39155064                0.08367773
               5.59886894                0.85847063               29.18270954                1.00000000               -0.21788004               -0.20589847                0.70927467                0.02502343               -0.49538931               -0.01832062
               6.59655140                0.77098345               29.00718040                0.62697886               -0.24289443               -0.23279455                0.79331435                0.02020163               -0.39028909               -0.06830550
               7.59401106                0.68332678               28.83390878                0.71450181                5.92612782               -0.26306976                0.88685066                4.70837064                9.18876636               -0.33442171
               8.71507396                0.68945210               28.85029514                0.79664657               11.15366806               -4.85009571                0.06747818                3.72900001               18.61509310                0.18787472
               9.81708442                0.63627196               28.86367032                0.77330361                9.79002749               -4.24950847               -0.60612241                1.34493923               18.36064712                0.21690567
              10.91087451                0.56535085               28.87082074                0.86269394                9.35197547               -3.81505470               -1.15637467               -0.81728049               17.93317971                0.10853790
              12.00412393                0.43063100               28.86896936                1.00000000                4.87327461                0.48671476               -1.59603084               -1.86654778                8.91707959                0.24941209
              13.00834000                0.33430798               28.68538492                1.00000000                0.36531943                0.37012104               -1.21692181                0.05896474               -0.15412391                0.01298247
              14.01143032                0.23788327               28.50176739                1.00000000                0.30903166                0.25320045               -0.83774821                0.06439373               -0.16691938               -0.22738367
               3.69000068                2.03151467               29.48206946                1.00000000               -0.15842001               -0.14587653                0.47998123                0.00255753               -0.04593898                0.51335146
               4.68841648                1.94398767               29.30852014                1.00000000               -0.17389465               -0.17595404                0.58023068                0.01571583               -0.05832052                0.15426853
               5.68652278                1.85641165               29.13445879                0.89131307               -0.20455652               -0.20299524                0.67562125                0.01737267               -0.04763618               -0.06457467
               6.68432535                1.76865550               28.96104715                0.21317328               -0.23311718               -0.23185362                0.76922787                0.00763809               -0.01312846               -0.19695293
               7.68186044                1.68069608               28.78779564                0.37422367                4.57830108               -0.25891710                0.86007003                2.41528166                9.89574083               -0.31227075
               8.77589137                1.64095114               28.81283779                0.47855678               10.53619978               -4.39221553                0.00922302                3.63333265               19.62028719                0.73581391
               9.89258444                1.59377687               28.83092731                0.37974365               11.48154067               -4.49165446               -0.66998595                2.75175774               19.19364208                0.15308095
              11.00552218                1.52720030               28.84192445                0.50646126               10.41977241               -3.50934328               -1.18641233                1.53159982               18.95693553               -0.05353670
              12.10097988                1.43549815               28.84847043                1.00000000                4.98906661                0.49094084               -1.63001040                0.28372307                9.54363457                0.38126507
              13.10530351                1.33800919               28.66458881                1.00000000                0.37595392                0.37502576               -1.25139872               -0.00007892                0.03598423                0.02380379
              14.10849896                1.24041527               28.48063590                1.00000000                0.31954491                0.25961041               -0.87280881                0.00538277                0.02139467               -0.31924700
               3.77773780                3.03009555               29.43535463                1.00000000               -0.14114669               -0.13776299                0.43122667                0.00431954                0.04408195                0.69103897
               4.77632633                2.94227158               29.25998329                1.00000000               -0.15946168               -0.16613139                0.53811162                0.01951490                0.09164628                0.21664891
               5.77454857                2.85441073               29.08523515                0.55810291               -0.19533011               -0.19747071                0.65210431                0.01850532                0.22966939               -0.15345011
               6.77241973                2.76634638               28.91237104                0.00010000               -0.22637564               -0.23012219                0.76421312                0.01231783                0.45850539               -0.63936670
               7.77002106                2.67814844               28.74235215                0.00010000                5.11200424               -0.73030345                0.84069291                3.71625737               11.36472093                4.81882966
               8.87465982                2.60160779               28.78817188                0.00010000               10.79246790               -3.50113396               -0.28005044                4.20362314               20.62472393                1.49022903
               9.98587041                2.54643887               28.79877015                0.00010000               11.25627053               -4.30516516               -0.69434973                4.07459380               19.26897102               -0.03767935
              11.09978523                2.49516398               28.81228752                0.00010000               10.65595433               -3.45993060               -1.19050771                3.57301239               19.91635033               -1.08313387
              12.19898950                2.44044982               28.82995750                0.50692248                5.18180343                0.50075058               -1.66177782                2.19038966               10.24429476                0.39960525
              13.20342130                2.34180849               28.64394871                1.00000000                0.38681506                0.38397089               -1.28597381               -0.00067016                0.09087476                0.09291261
              14.20672580                2.24307548               28.45819824                1.00000000                0.33045044                0.27336124               -0.90973420                0.00440088                0.09303326               -0.36079902
               3.86573501                4.02875941               29.38895091                1.00000000               -0.12434163               -0.12597350                0.37987684                0.00045846                0.09794676                0.67474239
               4.86449159                3.94066505               29.21133112                1.00000000               -0.14584600               -0.15374950                0.49376367                0.00925314                0.19371072                0.15783114
               5.86281809                3.85246224               29.03526298                0.33724638               -0.18287982               -0.18801035                0.62411344                0.00862246                0.20449452               -0.28104743
               6.86083400                3.76405306               28.85749933                0.00010000                2.90530450               -0.22522234                0.75140161               -0.46514441                6.06635985               -0.68198103
               7.92092418                3.66609001               28.79922246                0.00010000                6.54197004               -1.87100319               -0.75024628                2.85597362               13.82955073                6.69445833
               8.99167340                3.57092846               28.76824809                0.00010000                7.97979690               -2.57761559               -0.37759215                2.85890759               16.54694870                1.97403280
              10.08052012                3.50767357               28.76410941                0.00010000                9.56490410               -3.41951106               -0.67296335                3.16768082               18.12797190               -0.61521294
              11.18297148                3.45800169               28.76376418                0.00010000               10.88115237               -3.34048425               -1.11464774                3.95448227               20.88770729               -2.83706249
              12.29814316                3.44551316               28.80917521                0.23370971                5.98464858               -1.52488495               -1.69613741                0.63035407               11.97681827               -5.96425505
              13.30266445                3.34568861               28.62447241                0.99463932                0.39549234                0.39329262               -1.31876739               -0.00676518                0.33797892                0.34763617
              14.30605301                3.24588250               28.43675531                1.00000000                0.33885605                0.28579483               -0.94558810                0.00353746                0.17645246               -0.30433659
               3.95393569                5.02757608               29.34166735                1.00000000               -0.11271220               -0.10804867                0.32870678               -0.00488123                0.13097717                0.55280923
               4.95280857                4.93919659               29.16154529                0.86040290               -0.13013438               -0.13879834                0.44966354               -0.00186008                0.25783318                0.01503522
               5.95133300                4.85065052               28.98365246                0.19926648               -0.16597498               -0.17222913                0.57134831               -0.00961713                0.51482540               -0.47272115
               6.94948907                4.76184193               28.80853010                0.00010000                3.44660629               -1.59738697                0.69903673                0.80287111                8.61035234                4.77419421
               8.02026513                4.64072837               28.79238623                0.00010000                7.03826708               -2.25858381               -0.32663631               -0.22811441               15.44784344                3.66192366
               9.09025441                4.55005547               28.75308509                0.00010000                7.09428373               -2.06848740               -0.46645934                1.10814070               15.01618122                1.64236638
              10.16215080                4.47804865               28.72224600                0.00010000                7.53904364               -2.56607736               -0.65608651                1.49864294               16.06211046               -1.31359209
              11.24103528                4.42835430               28.69996425                0.00010000                8.08794296               -2.74553939               -0.98606801                2.27413512               15.92010638               -4.29155092
              12.32390966                4.40995212               28.66272558                0.20442029                8.09406862               -4.13307731               -1.22182809                0.28813359               14.52051194               -9.37834588
              13.40291666                4.34967434               28.60886523                0.77439811                4.12495519                0.40446523               -1.34631182                2.02257925                6.92875823                0.41522051
              14.40640877                4.24879137               28.41595141                1.00000000                0.34921106                0.29367302               -0.98047682                0.00304529               -0.03436891               -0.24634805
               4.04239637                6.02659843               29.29258835                1.00000000               -0.10164196               -0.08802811                0.28095279               -0.00588016                0.17167924                0.38619567
               5.04137995                5.93788908               29.10997724                0.69457284               -0.12079820               -0.12463317                0.40851376               -0.00361509                0.31249749               -0.22706969
               6.03998040                5.84901765               28.92995106                0.13349331                2.27168112               -1.38074081                0.52668360                0.34528238                6.12227887                4.21268682
               7.08681357                5.73210532               28.86356802                0.00010000                4.40839726               -2.54836170                0.32803231                0.70765991               11.23403606                7.26246867
               8.12814835                5.62091833               28.78412299                0.00010000                4.48511831               -1.70442248                0.06037365               -0.02529644               11.92864752                3.36414122
               9.17651594                5.52955871               28.72746073                0.00010000                5.20229035               -1.73023626               -0.29050378                0.01193779               13.43390938                0.85189106
              10.23219415                5.45635202               28.67457802                0.00010000                6.00173871               -1.85709488               -0.57673903                0.19995419               13.82173451               -1.79829777
              11.29655071                5.40309090               28.62298284                0.00010000                7.51958160               -2.33200659               -0.82274066                0.07151465               14.08575995               -4.80735953
              12.38258579                5.36285161               28.57282773                0.20994494               10.38630356               -3.63815941               -1.03059623                0.38630047               17.72758239               -7.05515898
              13.50427678                5.35377791               28.59065109                0.68485363                6.26470367               -1.72182027               -1.37696209               -4.84059229               10.77426583              -10.10876005
              14.50787986                5.25175596               28.39617882                1.00000000                0.36030790                3.57897654               -1.01336646               -8.63585640                0.14949148               -8.56597003
               4.13123679                7.02581552               29.24171070                1.00000000               -0.09197471                0.20083600                0.23776104                1.58208022                0.08632370                5.10591489
               5.13031705                6.93670392               29.05524619                0.59327520                1.63928074               -0.98433671                0.37734604                0.83257751                5.26020741                5.47381043
               6.16402241                6.82303571               28.97209593                0.09708082                3.07122693               -2.12177753                0.33814527                0.34150164                9.30342375                7.13147761
               7.19174158                6.71087470               28.86491362                0.00010000                2.91417004               -1.69718189                0.26509192               -0.71442096                9.20593881                4.38693605
               8.22230581                6.60663992               28.77714578                0.00010000                3.16589466               -1.21042437                0.05257882               -0.85193755               10.73337487                2.78741417
               9.25505948                6.51545075               28.69738052                0.00010000                3.51559455               -1.10769212               -0.21511816               -0.80336724               11.55944140                0.45550812
              10.29261770                6.44090675               28.62327296                0.00010000                4.04532533               -1.17284279               -0.48111168               -0.91232507               11.92009016               -1.93575327
              11.33596598                6.38171416               28.54879483                0.00010000                4.41654801               -1.43236641               -0.69224074               -1.54019036               11.93401093               -4.51667739
              12.38094866                6.33718893               28.47349744                0.22953756                4.06172404               -1.44999093               -0.84008115               -3.06247039               10.27884111               -7.80651073
              13.41720047                6.31523794               28.36444982                0.63378765                2.83934411               -2.04524733               -0.83415495               -6.05314442                6.33327002              -15.70285769
              14.43773554                6.32037090               28.20950600                1.00000000                2.05350769                2.91858678               -0.66016607               -4.49555948                4.01322828              -14.85096434
               4.25226116                8.03061515               29.28673234                1.00000000                0.85501512               -0.20833562                0.01477115                0.51714089                2.20708960                8.81928635
               5.26081131                7.91820235               29.11759114                0.54503547                1.01892532               -1.28381868                0.15256451                0.77694391                3.70230163                8.77333069
               6.27263966                7.80658210               28.97747729                0.07384846                1.40548136               -1.17127530                0.20281967               -0.48691277                6.50997702                5.05620468
               7.28892093                7.69816168               28.86299698                0.00010000                1.69469414               -0.94746619                0.14094561               -1.08167771                8.43361522                3.61648622
               8.30653354                7.59670985               28.75913791                0.00010000                1.86304146               -0.71894687               -0.01756680               -1.30518944                9.54160006                1.92852924
               9.32618176                7.50740487               28.66440802                0.00010000                2.05753469               -0.54940571               -0.23661050               -1.20746348               10.23691611                0.20348051
              10.34768424                7.43289517               28.57256953                0.00010000                2.16414792               -0.46397693               -0.44524508               -1.13666254               10.27941695               -1.73088556
              11.36946472                7.37444357               28.47750262                0.00010000                2.00641822               -0.30193752               -0.59861833               -1.24474577                9.46856615               -3.92323809
              12.38781260                7.33385180               28.36879693                0.25727537                1.52835987               -0.00043160               -0.66267390               -1.36400487                7.51299092               -6.76072183
              13.40003192                7.31287296               28.23444938                0.60860967                0.99450692               -0.06699766               -0.61121648               -1.13364473                4.20990311               -9.04879607
              14.40770274                7.31012769               28.06009005                1.00000000                0.76708222               -1.27504314               -0.41472767               -1.01707657                2.16408931              -10.54571153
               4.36640523                9.02164880               29.30833039                1.00000000                0.34837490               -0.67558150               -0.19636095               -0.11947767                1.55492483                6.14944496
               5.36988897                8.91102755               29.12844013                0.54427981                0.39597941               -0.47631588               -0.02395583               -0.52124312                3.06511705                4.99366614
               6.37432481                8.79961020               28.97767138                0.05297831                0.50456554               -0.42310109                0.03361076               -0.99401957                5.67970487                3.82685842
               7.37998029                8.69192537               28.84878008                0.00010000                0.63170100               -0.34683492               -0.01078940               -1.30234395                7.60952093                2.47363590
               8.38695883                8.59226098               28.73502437                0.00010000                0.73723017               -0.20508177               -0.14049730               -1.31355564                8.84184623                1.30887887
               9.39472489                8.50446263               28.62923384                0.00010000                0.79434571               -0.06502463               -0.30720056               -1.10946499                9.37648758                0.06189187
              10.40284575                8.43162721               28.52502342                0.00010000                0.76947761                0.08929671               -0.46028273               -0.76564438                9.18552979               -1.29335190
              11.41011444                8.37567541               28.41477614                0.01955605                0.61967109                0.28380345               -0.56093705               -0.31327106                8.15771965               -2.80582302
              12.41523917                8.33718030               28.28984121                0.29031576                0.40686158                0.40005043               -0.58237035                0.24947551                6.20132526               -4.33821664
              13.41825167                8.31389799               28.14073517                0.60618024                0.38226904                0.09240795               -0.50625010                0.54023366                3.37149435               -5.68154563
              14.42288455                8.29487004               27.95988727                1.00000000                0.46328784               -1.14391183               -0.32220341                0.43387921                1.73715304               -6.47484783
               4.47111411               10.01710352               29.29799038                1.00000000                0.13109385               -0.22782993               -0.36443402               -0.31301489                1.53863888                3.16142461
               5.47242505                9.90867603               29.11368070                0.56884432                0.03736692               -0.09625353               -0.16597906               -0.58280130                3.00583182                2.49854403
               6.47186145                9.79812008               28.95757113                0.01331829               -0.11008885                0.02162759               -0.10927649               -0.89211303                5.57122158                1.89647358
               7.47022327                9.69122499               28.82347614                0.00010000               -0.20681385                0.13757946               -0.15529125               -0.97154107                7.47483184                1.29390664
               8.46772517                9.59260821               28.70436120                0.00010000               -0.27985168                0.26823748               -0.26617688               -0.89801095                8.66950707                0.66369026
               9.46462624                9.50610438               28.59321322                0.00010000               -0.32832991                0.40053679               -0.39979140               -0.67779657                9.13604050                0.01298659
              10.46115857                9.43468110               28.48277831                0.00010000               -0.34900119                0.51494580               -0.51605204               -0.31836323                8.84141219               -0.68941862
              11.45764621                9.38011964               28.36546913                0.05257264               -0.32895163                0.58439981               -0.58245442                0.17229047                7.74619385               -1.42626793
              12.45457954                9.34185280               28.23324154                0.32657400               -0.22496820                0.52100001               -0.57699449                0.66469977                5.83126673               -2.14313415
              13.45314685                9.31472112               28.07808756                0.62066809               -0.00716621                0.15740896               -0.48903857                0.75256397                3.15831040               -2.74920859
              14.45443622                9.28724946               27.89314473                1.00000000                0.12893663               -0.41990493               -0.31708967                0.48216771                1.61888682               -3.28830538
               4.57699992               11.01709221               29.25808549                1.00000000                0.02164732               -0.00113176               -0.41153968               -0.21039168                1.90466502                1.75256820
               5.57721639               10.90910248               29.07318636                0.82170095               -0.15331611                0.04264518               -0.21244529               -0.37333832                3.45637607                1.26857250
               6.57393360               10.80004275               28.91823187                0.50510318               -0.55775293                0.19226717               -0.18017294               -0.51406103                6.09654593                0.97133480
               7.56606133               10.69467696               28.78517591                0.36736152               -0.99071862                0.34519770               -0.24595675               -0.53704471                7.98783136                0.66322909
               8.55411922               10.59762573               28.66710539                0.35740689               -1.34826320                0.50175224               -0.36473375               -0.47077433                9.17095916                0.34406553
               9.53909607               10.51247337               28.55689246                0.37282733               -1.58280011                0.63689931               -0.49655226               -0.33799724                9.61195364                0.00395869
              10.52246322               10.44192613               28.44716444                0.41224316               -1.63537604                0.72450260               -0.60358790               -0.12503318                9.27559402               -0.35448919
              11.50638855               10.38736341               28.33023371                0.54067023               -1.42657692                0.72437695               -0.65547541                0.15794201                8.13809992               -0.72446705
              12.49393168               10.34760030               28.19824406                0.68459429               -0.92411244                0.57474947               -0.63287706                0.41935211                6.20717870               -1.07619370
              13.48790630               10.31704617               28.04351864                0.82926192               -0.32302233                0.23250431               -0.52930900                0.41952717                3.48401608               -1.37896615
              14.48747124               10.28647194               27.85803576                0.98560174               -0.04350627               -0.07775141               -0.35719993                0.24607978                1.89236433               -1.76878791
               3.77259585                1.08634493               30.53665441                1.00000000               -0.16176071               -0.13394024                0.46841886                0.02086470               -0.29977436                0.34072472
               4.77097825                0.99658705               30.36433106                1.00000000               -0.18347074               -0.17140073                0.59218770                0.03115221               -0.40162673                0.08200065
               5.76892644                0.90671788               30.18979243                1.00000000               -0.22501021               -0.20258667                0.70935492                0.03041335               -0.51621766               -0.01745298
               6.76647804                0.81655033               30.01522905                0.62607574               -0.25925284               -0.22900573                0.82659433                0.02383233               -0.41162710               -0.06522346
               7.76374138                0.72612180               29.84303050                0.71572129                5.95177704               -0.26949559                0.94814676                4.69012836                8.69664723               -0.33937850
               8.88551358                0.72894109               29.85092708                0.79860183               11.27123635               -4.92068440                0.05481428                3.67337469               17.64744533                0.17376685
               9.98916611                0.67148138               29.85734301                0.77470791               10.01969106               -4.31973594               -0.67036101                1.27235099               17.44757176                0.20482977
              11.08590741                0.59557029               29.85879346                0.86004118                9.74746389               -3.92495069               -1.25682201               -1.01286759               17.04975978                0.12894637
              12.18411539                0.45380582               29.85248275                1.00000000                5.12983364                0.51963134               -1.70245975               -2.09990284                8.47943682                0.25213439
              13.18850408                0.35540552               29.67316652                1.00000000                0.36827160                0.37311638               -1.22666192                0.07413453               -0.15501963                0.01287089
              14.19148082                0.25690201               29.49381803                1.00000000                0.29767419                0.22623595               -0.75076836                0.07963885               -0.16821594               -0.23046941
               3.86256238                2.08500553               30.48657930                1.00000000               -0.14590872               -0.13101708                0.42764029                0.00647219               -0.05075870                0.49862374
               4.86110329                1.99487304               30.31418711                1.00000000               -0.16567217               -0.16791970                0.55407217                0.02251100               -0.06875470                0.14917226
               5.85924894                1.90469202               30.14122113                0.90289868               -0.20444420               -0.20255690                0.67601195                0.03236260               -0.06353271               -0.05397529
               6.85701441                1.81426027               29.96888465                0.21638788               -0.24008269               -0.22846741                0.78260030                0.01384220               -0.03541448               -0.17470130
               7.85444728                1.72342684               29.79666515                0.38042025                4.62765660               -0.27023860                0.90227041                2.35011687                9.38583798               -0.32960652
               8.94956754                1.67973425               29.81294993                0.48618771               10.70638695               -4.48368047               -0.00297028                3.53129430               18.64245469                0.63269349
              10.06857502                1.62828402               29.82384356                0.38879142               11.75244839               -4.56449847               -0.75019411                2.60229843               18.23704174                0.24653137
              11.18461651                1.55632078               29.82960746                0.51009451               10.73118604               -3.58566198               -1.28480512                1.31537046               18.08409520                0.00736804
              12.28319874                1.45900214               29.83164132                1.00000000                5.15404104                0.52383417               -1.73706634                0.12163147                9.10584967                0.38577003
              13.28769733                1.35913669               29.65202301                1.00000000                0.37909889                0.37806766               -1.26175356                0.00002809                0.03737810                0.02356453
              14.29078072                1.25916437               29.47233340                1.00000000                0.30833913                0.23294828               -0.78641375                0.00562585                0.02238837               -0.32408957
               3.95299026                3.08372459               30.43937405                1.00000000               -0.12482869               -0.12454077                0.37720316                0.00919410                0.03604172                0.67063718
               4.95174198                2.99322866               30.26522006                1.00000000               -0.14018982               -0.16091403                0.51114902                0.02569100                0.08650312                0.20873062
               5.95018647                2.90266675               30.09182101                0.57230702               -0.18609587               -0.20218931                0.64555731                0.04362230                0.23627637               -0.12892899
               6.94802006                2.81198098               29.92037077                0.00010000               -0.24583645               -0.24633939                0.83264557               -0.00201692                0.47275296               -0.59443891
               7.94526974                2.72071703               29.75116145                0.00010000                5.16311161               -0.73167950                0.92727632                3.95298551               10.74971222                3.63741817
               9.05128229                2.63926748               29.78456055                0.00010000               10.96779029               -3.52304918               -0.45481159                4.15173800               19.29301116                1.69873237
              10.16462555                2.58019141               29.79165934                0.00010000               11.51072035               -4.39907562               -0.76177242                3.87517259               18.37219331                0.11859824
              11.28149670                2.52385705               29.79994109                0.00010000               10.95532838               -3.50549786               -1.29561076                3.34424171               18.99933392               -0.95618267
              12.38373211                2.46428251               29.81280831                0.50580405                5.34228529                0.53388482               -1.76936111                2.08090681                9.79380290                0.40445710
              13.38834241                2.36296688               29.63103373                1.00000000                0.39029284                0.38703524               -1.29713891               -0.00061862                0.09302013                0.09338595
              14.39153797                2.26156098               29.44952228                1.00000000                0.31955641                0.24741329               -0.82436380                0.00466660                0.09512555               -0.36653884
               4.04373812                4.08251471               30.39245971                1.00000000               -0.10631679               -0.11354461                0.32503587                0.00111440                0.08648638                0.65459032
               5.04267495                3.99165476               30.21611586                1.00000000               -0.11845300               -0.15072194                0.46863889                0.00802549                0.19383023                0.15461919
               6.04136906                3.90064823               30.04165678                0.34283096               -0.18755834               -0.19265196                0.60714136               -0.00617465                0.23459771               -0.27714432
               7.03892379                3.80933348               29.86554292                0.00010000                3.24257116               -0.26981717                0.95098029               -0.45346473                4.98657000               -0.66983383
               8.10622049                3.70879325               29.78513778                0.00010000                6.71020643               -1.62171872               -3.89107238                2.72322227                9.96916720                6.48978455
               9.17312792                3.60927327               29.76490246                0.00010000                7.76342107               -2.58584451               -0.14374266                2.67336772               15.80618436                1.96159337
              10.26148891                3.54030251               29.75737863                0.00010000                9.71411654               -3.50583570               -0.79635250                2.98167827               17.18244567               -0.48896328
              11.36741025                3.48621083               29.75217709                0.00010000               11.21090723               -3.38356500               -1.20841425                3.79856677               19.91727624               -2.64528903
              12.48570705                3.46967983               29.79167920                0.22989297                6.14981193               -1.48474808               -1.80448998                0.48925013               11.47561432               -5.69073693
              13.49040649                3.36687739               29.61122498                0.97156257                0.39893998                0.39704661               -1.33101393               -0.00723827                0.34313883                0.35118979
              14.49368585                3.26411264               29.42771760                1.00000000                0.32793655                0.26014673               -0.86099665                0.00423477                0.17935155               -0.30892797
               4.13473245                5.08145370               30.34466074                1.00000000               -0.09634802               -0.09564165                0.27557592               -0.00833991                0.12371087                0.53664189
               5.13376897                4.99021422               30.16594020                0.85168657               -0.11740953               -0.13409513                0.42641728               -0.00852014                0.24751299                0.01722760
               6.13238426                4.89881371               29.98943113                0.20082112               -0.14816132               -0.17420060                0.58486132               -0.06302090                0.51424880               -0.47899056
               7.13080574                4.80658463               29.81586714                0.00010000                3.37050703               -1.60601332                0.70697903                1.07381285                7.88529365                4.57577531
               8.19979440                4.68828265               29.78703909                0.00010000                7.12173247               -2.29674408               -0.10079790               -0.54654197               14.77662922                4.61068778
               9.27324039                4.58755059               29.74750014                0.00010000                7.37635756               -2.13611673               -0.71442617                0.63966375               14.38030270                1.53340691
              10.34732155                4.51007470               29.71539778                0.00010000                7.74251596               -2.60256684               -0.72770786                1.40105057               15.33907251               -1.22368948
              11.42809071                4.45618575               29.68979879                0.00010000                8.27644992               -2.76122074               -1.06827130                2.18238572               15.21946813               -4.05968758
              12.51285055                4.43458755               29.65026681                0.19936344                8.28370625               -4.12305596               -1.27916109                0.16573222               13.94444266               -8.97390397
              13.59376484                4.37090781               29.59533233                0.75461854                4.21508132                0.40967249               -1.36098044                2.01560082                6.66768501                0.41936679
              14.59715218                4.26676391               29.40656441                1.00000000                0.33873394                0.26757270               -0.89591555                0.00359625               -0.03452317               -0.24945138
               4.22605028                6.08060188               30.29512470                1.00000000               -0.09057374               -0.07462243                0.23045296               -0.00760831                0.16324386                0.37467762
               5.22514454                5.98897286               30.11398252                0.68713268               -0.11560244               -0.11826884                0.39173255               -0.01030660                0.29810962               -0.21838448
               6.22373823                5.89716422               29.93533225                0.13375004                2.28932785               -1.39456458                0.53864173                0.35827589                5.89749571                4.10925706
               7.27093110                5.77721321               29.86618510                0.00010000                4.52927283               -2.55899301                0.24385094                0.75079114               10.78917484                7.06244608
               8.31432369                5.66285837               29.78447121                0.00010000                4.65990245               -2.03794504               -0.04166414                0.07307402               11.32234698                3.70600814
               9.36412915                5.56655093               29.72401720                0.00010000                5.32755380               -1.77582987               -0.36521760               -0.09190506               12.80175484                1.07812157
              10.42087476                5.48825117               29.66839293                0.00010000                6.12079836               -1.85215038               -0.66501743                0.08127341               13.18086559               -1.65326749
              11.48654511                5.43098641               29.61454159                0.00010000                7.67124375               -2.32380728               -0.87702254               -0.02510499               13.48601866               -4.57270608
              12.57429964                5.38721871               29.56241855                0.20423356               10.59985105               -3.65477531               -1.06002582                0.27943768               17.06837666               -6.78452177
              13.69854214                5.37507084               29.57680180                0.66567362                6.38729666               -1.71849174               -1.39400913               -5.02736689               10.39754146               -9.79924949
              14.70204557                5.26946409               29.38645931                1.00000000                0.35034352                3.66017168               -0.92961194               -8.85558788                0.15131245               -8.36334654
               4.31783832                7.07996125               30.24382760                1.00000000               -0.08378214                0.24533126                0.18957493                1.61379495                0.08275160                4.97552117
               5.31700050                6.98784884               30.05898400                0.58698806                1.67355524               -0.97339961                0.36692383                0.86469583                5.12214768                5.35251367
               6.35130942                6.87092242               29.97476904                0.09612228                3.15634571               -2.13041589                0.22639099                0.38782414                9.00974775                6.98069099
               7.38012741                6.75540477               29.86664108                0.00010000                3.03043695               -1.72727597                0.12001917               -0.66037421                8.80733557                4.35478389
               8.41191816                6.64752375               29.77673139                0.00010000                3.29410397               -1.27297255               -0.08193667               -0.89561634               10.22093949                2.81122014
               9.44600949                6.55203400               29.69464143                0.00010000                3.62966881               -1.12999543               -0.31958081               -0.91537150               10.99112064                0.57595837
              10.48451154                6.47303169               29.61815041                0.00010000                4.13057895               -1.15290298               -0.54462038               -1.03739603               11.36331874               -1.76562392
              11.52862107                6.40970961               29.54176161                0.00010000                4.49216663               -1.41560931               -0.72177087               -1.67362675               11.42349682               -4.30607949
              12.57435487                6.36149204               29.46515496                0.22392355                4.11755255               -1.43849371               -0.83512376               -3.21954152                9.87825699               -7.53082311
              13.61097212                6.33653798               29.35641412                0.61568802                2.84495242               -2.02890615               -0.77745104               -6.24745709                6.09979532              -15.24317428
              14.63125392                6.33996735               29.20356043                1.00000000                2.02817990                3.00519359               -0.53288820               -4.64186583                3.86732354              -14.51913705
               4.44255099                8.08550850               30.28604925                1.00000000                0.89263018               -0.13006870               -0.13090957                0.54156048                2.14467616                8.56295964
               5.45147729                7.96950487               30.11832128                0.53978647                1.06938965               -1.24536991                0.01674957                0.83465732                3.57951908                8.56088759
               6.46393878                7.85455590               29.97861513                0.07170245                1.48224933               -1.14830975                0.05439614               -0.42433708                6.26028104                4.94301760
               7.48112228                7.74266770               29.86344493                0.00010000                1.79216778               -0.93914640               -0.01710705               -1.06286300                8.05966844                3.54728302
               8.49978214                7.63739892               29.75818226                0.00010000                1.95957516               -0.72355019               -0.15205497               -1.34556596                9.07350744                1.92643346
               9.52031378                7.54395102               29.66155691                0.00010000                2.13345485               -0.54629315               -0.32472681               -1.30690494                9.73298350                0.26229953
              10.54245123                7.46519311               29.56790963                0.00010000                2.21492255               -0.44808985               -0.48908444               -1.26103752                9.80093144               -1.61030162
              11.56461223                7.40267423               29.47152705                0.00010000                2.03146017               -0.28052480               -0.60263995               -1.36932350                9.06366408               -3.75063700
              12.58308044                7.35844884               29.36239399                0.25254465                1.52527280                0.02369333               -0.62403140               -1.47600686                7.21646855               -6.53811369
              13.59511769                7.33449272               29.22882748                0.59134006                0.96345372               -0.05021614               -0.51877118               -1.20670381                4.05382860               -8.81687867
              14.60234951                7.32956796               29.05678848                1.00000000                0.72318247               -1.31206422               -0.25248441               -1.06016984                2.08716242              -10.34476274
               4.56067680                9.07735987               30.30526795                1.00000000                0.39694481               -0.59720722               -0.39163286               -0.09866858                1.49119497                5.92095092
               5.56464625                8.96294144               30.12724704                0.53969220                0.44915287               -0.41451679               -0.19239327               -0.48082589                2.93094193                4.83874652
               6.56965986                8.84795622               29.97714265                0.04988916                0.56904418               -0.38368743               -0.11924289               -0.95117053                5.42188529                3.71129990
               7.57602713                8.73662185               29.84790644                0.00010000                0.70318294               -0.32482324               -0.14635290               -1.29414316                7.24729041                2.39612753
               8.58372352                8.63305275               29.73305802                0.00010000                0.80250349               -0.19285417               -0.24335758               -1.35737436                8.41322603                1.27633660
               9.59207720                8.54110813               29.62584716                0.00010000                0.84220352               -0.05540856               -0.36980203               -1.19341423                8.93363503                0.08627106
              10.60056759                8.46406989               29.52032569                0.00010000                0.79508362                0.10049275               -0.48331154               -0.86475630                8.77844631               -1.21780496
              11.60797887                8.40409911               29.40927796                0.02064676                0.62243270                0.29631360               -0.54471536               -0.40250227                7.82388060               -2.69137680
              12.61301624                8.36196591               29.28434938                0.28712764                0.38700241                0.40862890               -0.52242706                0.18921864                5.96651592               -4.20441117
              13.61571892                8.33553365               29.13627427                0.58876386                0.34418978                0.08181055               -0.39266361                0.51546895                3.25118894               -5.55508210
              14.61990004                8.31372606               28.95760872                0.99553325                0.41811143               -1.20529368               -0.14233801                0.42608655                1.67836941               -6.39118313
               4.66941447               10.07356436               30.29326621                1.00000000                0.18499501               -0.15829611               -0.56371490               -0.30294414                1.45960103                3.00906839
               5.67126443                9.96121453               30.11111916                0.56419758                0.09102469               -0.03831100               -0.33305238               -0.56228359                2.84910674                2.40137857
               6.67123497                9.84688215               29.95575557                0.01142675               -0.05607703                0.06098258               -0.24579766               -0.86965719                5.28774016                1.82342126
               7.67014288                9.73617123               29.82137488                0.00010000               -0.15433036                0.16120061               -0.26217496               -0.97020374                7.10619997                1.24026775
               8.66814836                9.63354184               29.70133230                0.00010000               -0.23572669                0.28145454               -0.34145672               -0.92714542                8.25948986                0.63818012
               9.66542835                9.54284285               29.58902569                0.00010000               -0.29916145                0.40890124               -0.44236352               -0.72961570                8.73026061                0.01975574
              10.66216513                9.46720297               29.47760657                0.00010000               -0.33810888                0.52100817               -0.52489164               -0.37574868                8.48021575               -0.65331805
              11.65866617                9.40860050               29.35981872                0.05688664               -0.33674327                0.58677269               -0.55496631                0.12602312                7.45930682               -1.37037269
              12.65543027                9.36662142               29.22785899                0.32576896               -0.24996317                0.51419679               -0.50709192                0.64047912                5.63593807               -2.08065563
              13.65366691                9.33612893               29.07384837                0.60179313               -0.04719220                0.13027549               -0.36701386                0.74832299                3.06025856               -2.69647961
              14.65448642                9.30546209               28.89095830                0.97871867                0.08195132               -0.48148399               -0.13080129                0.48385887                1.57242580               -3.26744932
               4.77931757               11.07419395               30.25292987                1.00000000                0.07652133                0.06295911               -0.61085401               -0.21156329                1.78356619                1.65122681
               5.78008278               10.96217522               30.07021304                0.81963951               -0.10037767                0.09606905               -0.37749268               -0.36906820                3.25131075                1.21129748
               6.77731002               10.84917587               29.91579758                0.50337032               -0.50597062                0.22937194               -0.30878117               -0.50896358                5.76193102                0.92909283
               7.76996337               10.73984586               29.78227770                0.36764854               -0.94005154                0.36746280               -0.34136940               -0.54265304                7.58197140                0.63312630
               8.75850899               10.63868184               29.66317955                0.35757381               -1.30698068                0.51400015               -0.43059437               -0.49192260                8.74136239                0.32899797
               9.74382376               10.54928616               29.55179794                0.37262137               -1.56070095                0.64433071               -0.53371283               -0.37004855                9.20372250                0.00687652
              10.72729497               10.47449006               29.44114848                0.41145484               -1.63714356                0.72870888               -0.61090843               -0.15959641                8.92745257               -0.33603822
              11.71108089               10.41583456               29.32386554                0.54397261               -1.44987887                0.72340656               -0.62892011                0.12946047                7.87711502               -0.69577341
              12.69829739               10.37224984               29.19230535                0.68521432               -0.96180882                0.56284237               -0.56502354                0.40194211                6.04526111               -1.04467034
              13.69184471               10.33813916               29.03887476                0.81917894               -0.36932471                0.20102310               -0.40970518                0.41010694                3.41488540               -1.35292388
              14.69091089               10.30409638               28.85544321                0.98528119               -0.09338145               -0.13657079               -0.17380911                0.23816917                1.86922225               -1.76556652
               3.94128388                1.13997779               31.54110321                1.00000000               -0.15454400               -0.12102904                0.42759596                0.02267755               -0.29793434                0.32908046
               4.93973844                1.04771857               31.37013536                1.00000000               -0.18186417               -0.16364495                0.57131965                0.03043011               -0.40456010                0.07711833
               5.93764660                0.95526418               31.19689664                1.00000000               -0.23288276               -0.19606173                0.71587518                0.02326020               -0.51615435               -0.01506454
               6.93508079                0.86236779               31.02371229                0.62476770               -0.27003142               -0.23480289                0.86631258                0.00951265               -0.40294614               -0.08392120
               7.93224597                0.76926993               30.85287171                0.71823307                5.93147866               -0.32969243                1.00734577                4.65229257                8.17294355               -0.34179671
               9.05371036                0.76888174               30.85139143                0.80127433               11.29617525               -4.89101996                0.04437233                3.69004394               16.56939524                0.16021835
              10.15816948                0.70736744               30.85026310                0.77749064               10.15098020               -4.29762723               -0.74546270                1.12082636               16.42051637                0.17045519
              11.25672996                0.62630176               30.84568430                0.85802344               10.05850613               -4.01017291               -1.36421167               -1.23290840               16.07416568                0.12903062
              12.35933960                0.47735654               30.83492016                1.00000000                5.35871770                0.55314406               -1.81121422               -2.33829347                7.99227253                0.25571799
              13.36390432                0.37685242               30.66085168                1.00000000                0.37116873                0.37608539               -1.23624998                0.08979773               -0.15673831                0.01269139
              14.36676297                0.27624315               30.48675202                1.00000000                0.28586547                0.19860888               -0.66110900                0.09536997               -0.17032690               -0.23444873
               4.03376988                2.13876750               31.49062226                1.00000000               -0.13703321               -0.11749570                0.38624272                0.00559825               -0.05677122                0.47914183
               5.03239955                2.04608212               31.31960159                1.00000000               -0.16076456               -0.16005644                0.53175092                0.02035235               -0.08016554                0.14127357
               6.03055459                1.95330356               31.14797903                0.89592437               -0.21132546               -0.19338406                0.67177356                0.02072125               -0.09340931               -0.05959163
               7.02817304                1.86001976               30.97669916                0.22098914               -0.25213358               -0.22842293                0.79770287                0.00615024               -0.05979678               -0.13231961
               8.02551192                1.76597300               30.80584105                0.38882877                4.66945007               -0.34228804                0.95748147                2.42656669                8.84773728               -0.27131166
               9.12156204                1.71997154               30.81277839                0.49432233               10.75779058               -4.26259193               -0.05001662                3.23649797               17.55394386                0.46041893
              10.24066773                1.66439117               30.81592343                0.39829434               11.89221435               -4.60458363               -0.81824664                2.29963748               17.20551596                0.29314697
              11.35940633                1.58620003               30.81622835                0.51323317               11.00068005               -3.64155282               -1.39201224                1.01948924               17.12466456                0.04623316
              12.46068133                1.48288798               30.81372910                1.00000000                5.29763319                0.55722697               -1.84655327               -0.05767166                8.61819981                0.39101415
              13.46535899                1.38061327               30.63935374                1.00000000                0.38223072                0.38109077               -1.27205100                0.00023330                0.03899735                0.02317928
              14.46832595                1.27822924               30.46490762                1.00000000                0.29669533                0.20586753               -0.69741503                0.00600766                0.02348772               -0.32990898
               4.12676661                3.13762788               31.44289870                1.00000000               -0.11571847               -0.11014907                0.33510939                0.00808415                0.02575705                0.64515042
               5.12560943                3.04451744               31.27020627                1.00000000               -0.13216152               -0.15224150                0.48775671                0.02700986                0.06190360                0.20236543
               6.12412338                2.95139650               31.09814630                0.58124577               -0.15375380               -0.19971640                0.63929429                0.04051421                0.22880559               -0.14252831
               7.12253435                2.85779933               30.92902395                0.00010000               -0.16489310               -0.24298721                0.77896376               -0.00304882                0.41817921               -0.40215038
               8.12082552                2.76242416               30.76089767                0.00010000                4.87438999               -0.29824697                0.79349089                1.06333186                9.81765881                0.08598023
               9.22002215                2.68362990               30.77907565                0.00010000               10.85541085               -3.63754056               -0.49411306                3.34228975               17.96598107                1.96619667
              10.33793374                2.61527577               30.78353470                0.00010000               11.93003907               -4.51176523               -0.89798897                3.30337320               17.50475354                0.18049401
              11.45862293                2.55347070               30.78637530                0.00010000               11.29195904               -3.54809151               -1.41871359                3.04177103               18.01630479               -0.83732013
              12.56377292                2.48850108               30.79457028                0.50388235                5.49723985                0.56759695               -1.87945490                1.94648792                9.30134368                0.40951794
              13.56856773                2.38447424               30.61800593                1.00000000                0.39391423                0.39002600               -1.30861117               -0.00053777                0.09573302                0.09351251
              14.57165120                2.28036050               30.44171097                1.00000000                0.30834726                0.22162865               -0.73701448                0.00506907                0.09775469               -0.37258064
               4.22015244                4.13656452               31.39545163                1.00000000               -0.09813157               -0.09919770                0.28305013                0.00149544                0.07712765                0.63350475
               5.21917113                4.04303729               31.22070389                1.00000000               -0.10347289               -0.14214822                0.44667457                0.00618608                0.15373020                0.15142273
               6.21808299                3.94930923               31.04740580                0.34641737               -0.10433646               -0.20006277                0.59184165               -0.01548091                0.33323198               -0.24207419
               7.21708440                3.85516002               30.87651893                0.00010000                0.14324989               -0.25420388                0.94231589               -0.11242739                1.24762322               -0.67806232
               8.22094798                3.76000806               30.72140101                0.00010000                5.92359180               -1.44077358               -3.23919747                2.76999512                8.50156261                6.30248944
               9.33555623                3.64722073               30.76537324                0.00010000               10.79732067               -3.10105166               -0.64415646                2.18137123               17.54441059                1.85871209
              10.43689440                3.57415586               30.74818236                0.00010000               10.57301010               -3.63576037               -0.93893233                2.83586652               16.03424257               -0.36045842
              11.54701644                3.51523820               30.73959589                0.00010000               11.58565798               -3.43373293               -1.33715802                3.60083694               18.95938163               -2.44094621
              12.66860756                3.49423992               30.77308541                0.22578420                6.32361928               -1.43831987               -1.91575825                0.33338272               10.92056968               -5.39522830
              13.67348882                3.38841379               30.59785214                0.94998811                0.40236246                0.40053148               -1.34396585               -0.00865431                0.34851109                0.35341777
              14.67665481                3.28266181               30.41953537                1.00000000                0.31659837                0.23500719               -0.77475744                0.00494867                0.18265281               -0.31167631
               4.31385099                5.13564392               31.34717887                1.00000000               -0.08625491               -0.08196975                0.23475944               -0.00728680                0.10729558                0.52186531
               5.31298844                5.04167448               31.17007364                0.84355961               -0.10799737               -0.12798488                0.40561278               -0.01426082                0.23117229                0.02265489
               6.31169104                4.94739524               30.99534969                0.20163680               -0.17007297               -0.17221763                0.58271616               -0.06572355                0.45204648               -0.43203426
               7.30958698                4.85271525               30.82266968                0.00010000                3.62368344               -1.62898587                0.72612355                1.12935771                7.56133850                4.26236981
               8.38416471                4.73360869               30.79037027                0.00010000                6.99573990               -2.73309291               -0.02138240                2.23544126               13.74520914                7.33061353
               9.44950178                4.62160887               30.73879656                0.00010000                7.12344468               -2.16204373               -0.75305633                1.10124760               13.38567833                1.31587277
              10.52663360                4.54256056               30.70769185                0.00010000                8.05269194               -2.68109088               -0.86519780                1.57899255               14.71843152               -1.05480999
              11.61055561                4.48479604               30.67859883                0.00010000                8.53156881               -2.77821186               -1.17153332                2.12015726               14.47914295               -3.79550165
              12.69726498                4.45973468               30.63714236                0.19386373                8.47085717               -4.09834473               -1.35129318                0.03871889               13.33177720               -8.52776318
              13.77997276                4.39248487               30.58164562                0.73327335                4.29945857                0.41486690               -1.37701634                2.00119956                6.38227193                0.42097060
              14.78325415                4.28506064               30.39803310                1.00000000                0.32813910                0.24155997               -0.80927881                0.00439194               -0.03425153               -0.24937237
               4.40794561                6.13492513               31.29719741                1.00000000               -0.08110130               -0.06212652                0.19102909               -0.00835144                0.15235496                0.36389518
               5.40713459                6.04047759               31.11781189                0.67993205               -0.11089341               -0.11295187                0.37323245               -0.01150625                0.27422281               -0.20119679
               6.40572774                5.94586488               30.94072390                0.13325543                2.31617548               -1.40142979                0.54010161                0.34859720                5.63308060                3.96486080
               7.45345810                5.82258030               30.86844504                0.00010000                4.55177265               -2.60023555                0.20292946                0.79101476               10.26005757                6.81520833
               8.49676319                5.70534620               30.78328971                0.00010000                4.75856085               -2.22277089               -0.07758137               -0.20204484               10.73314589                3.51023822
               9.54862932                5.60397986               30.72015638                0.00010000                5.42619420               -1.60893351               -0.44556643               -0.04255321               12.13005677                1.35801641
              10.60528707                5.52053405               30.66127767                0.00010000                6.18080692               -1.82414976               -0.74281603                0.09121990               12.50405580               -1.46929839
              11.67224546                5.45967396               30.60544239                0.00010000                7.82030183               -2.30944640               -0.94840576               -0.06926336               12.85824843               -4.28957653
              12.76169311                5.41227303               30.55162722                0.19785984               10.79706990               -3.65688286               -1.10286177                0.18167421               16.35287567               -6.46814219
              13.88818686                5.39671113               30.56277091                0.64478657                6.49489911               -1.70680463               -1.41338194               -5.19809352                9.97796356               -9.45583823
              14.89159109                5.28749301               30.37758659                1.00000000                0.34042376                3.72991730               -0.84385916               -9.04505004                0.15161011               -8.13791272
               4.50257903                7.13440139               31.24550220                1.00000000               -0.07604699                0.27544318                0.15144213                1.63465478                0.07829131                4.80482328
               5.50181856                7.03941544               31.06258466                0.58065474                1.69906252               -0.96602696                0.35007517                0.88332344                4.93435936                5.18313759
               6.53656028                6.91936665               30.97662375                0.09450622                3.20536974               -2.13980173                0.15769629                0.41444974                8.64397427                6.77026588
               7.56592595                6.80071054               30.86731401                0.00010000                3.10819878               -1.73691558                0.03713972               -0.65621528                8.39415315                4.27721348
               8.59872425                6.68915328               30.77550705                0.00010000                3.37684592               -1.32171592               -0.16744899               -0.90759089                9.69985984                2.84384341
               9.63346287                6.58943020               30.69098890                0.00010000                3.70198211               -1.12673636               -0.39528162               -1.02954829               10.41102708                0.67664464
              10.67276389                6.50607757               30.61238055                0.00010000                4.19842483               -1.10100980               -0.60896659               -1.11887131               10.78653869               -1.56381241
              11.71743137                6.43860712               30.53435941                0.00010000                4.55486982               -1.38797397               -0.75996598               -1.77361767               10.88583981               -4.04832534
              12.76386129                6.38659703               30.45679497                0.21749264                4.16797703               -1.41889596               -0.84067089               -3.35549547                9.44998150               -7.20448307
              13.80079091                6.35834877               30.34890079                0.59658007                2.84640533               -2.00179461               -0.72858302               -6.42054465                5.84838734              -14.72290836
              14.82078940                6.35965899               30.19884824                1.00000000                1.99984905                3.08455674               -0.41336017               -4.77233412                3.70718626              -14.15489604
               4.63061061                8.14043399               31.28411415                1.00000000                0.92251949               -0.07752679               -0.24081274                0.55690241                2.06112144                8.24454713
               5.63983581                8.02115705               31.11792613                0.53423995                1.10555078               -1.22054197               -0.08050781                0.87247102                3.42794991                8.28649509
               6.65272163                7.90306885               30.97856521                0.06909009                1.53556800               -1.13354451               -0.04593305               -0.38861112                5.97614211                4.81656827
               7.67054717                7.78784199               30.86265484                0.00010000                1.85850424               -0.93962832               -0.12108544               -1.05360941                7.66534060                3.48634643
               8.68989171                7.67891189               30.75609681                0.00010000                2.02834476               -0.72577985               -0.24487194               -1.39192370                8.60579472                1.93377689
               9.71111406                7.58144513               30.65791348                0.00010000                2.19205096               -0.53554612               -0.39655443               -1.38654952                9.22897014                0.34937757
              10.73373273                7.49851385               30.56278784                0.00010000                2.25697894               -0.42516942               -0.53305825               -1.36553325                9.30973297               -1.45609948
              11.75625364                7.43191448               30.46544982                0.00010000                2.05544051               -0.25254533               -0.61504933               -1.47408693                8.63728048               -3.53810802
              12.77484154                7.38389511               30.35631630                0.24697792                1.52301798                0.05150238               -0.59549408               -1.57636769                6.90113493               -6.27294765
              13.78671400                7.35667524               30.22407396                0.57350007                0.93412199               -0.02866584               -0.43689358               -1.27428838                3.88815100               -8.54862081
              14.79352398                7.34918414               30.05504036                0.99392805                0.68099810               -1.33912157               -0.10402411               -1.09942803                2.00596090              -10.11859726
               4.75227095                9.13285086               31.30049773                1.00000000                0.43621702               -0.54055103               -0.54339761               -0.08514525                1.41909234                5.67330484
               5.75663312                9.01500460               31.12459227                0.53506424                0.49160858               -0.37097274               -0.32106363               -0.45365424                2.78398104                4.67483404
               6.76210312                8.89669576               30.97528652                0.04684508                0.61888029               -0.35676370               -0.23506931               -0.92238614                5.14676336                3.60735970
               7.76901072                8.78191798               30.84585302                0.00010000                0.75897575               -0.30914503               -0.24919470               -1.29173544                6.87301427                2.34935691
               8.77728264                8.67463768               30.73015722                0.00010000                0.85595950               -0.18308041               -0.32686316               -1.39131260                7.97678242                1.28167614
               9.78612991                8.57871928               30.62183780                0.00010000                0.88506207               -0.04482079               -0.42699172               -1.26101911                8.47979245                0.14362264
              10.79498388                8.49757418               30.51535719                0.00010000                0.82192273                0.11390506               -0.51046321               -0.94629697                8.35331677               -1.11071622
              11.80256837                8.43355621               30.40388184                0.02122287                0.62946509                0.31050589               -0.53753420               -0.48104108                7.46876184               -2.54600500
              12.80757318                8.38762707               30.27939267                0.28332237                0.37238674                0.41943035               -0.47380207                0.13231782                5.71411232               -4.04210717
              13.81001610                8.35777546               30.13288190                0.57106003                0.31049265                0.07579013               -0.29228387                0.48940945                3.12212104               -5.40568300
              14.81378303                8.33287656               29.95704051                0.97994899                0.37669273               -1.25590787                0.01960340                0.41715353                1.61529798               -6.29214750
               4.86460023               10.12962297               31.28671608                1.00000000                0.23175969               -0.10307221               -0.73045608               -0.29683932                1.37796980                2.86190673
               5.86691782               10.01373760               31.10701965                0.56123453                0.13801511                0.00680343               -0.47269202               -0.54738067                2.68703626                2.31190977
               6.86736053                9.89593357               30.95265518                0.01021229               -0.00736433                0.09224150               -0.36297064               -0.85370343                4.99386605                1.76788929
               7.86677054                9.78165909               30.81823264                0.00010000               -0.10481855                0.18079440               -0.35822409               -0.96876172                6.72322267                1.21192195
               8.86526416                9.67525028               30.69753207                0.00010000               -0.19066777                0.29367544               -0.41431370               -0.94833898                7.83180195                0.63797567
               9.86295718                9.58054871               30.58436595                0.00010000               -0.26471481                0.41735641               -0.48927765               -0.76933246                8.30238199                0.04910476
              10.85996986                9.50079195               30.47228047                0.00010000               -0.31886298                0.52736794               -0.54288384               -0.42316615                8.09354641               -0.59764132
              11.85657992                9.43812460               30.35436981                0.06104141               -0.33506056                0.58990381               -0.53954047                0.08486860                7.14764505               -1.29695609
              12.85326865                9.39228372               30.22309970                0.32481345               -0.26636069                0.50935507               -0.45114370                0.61604793                5.42147363               -2.00323687
              13.85125271                9.35819104               30.07074728                0.58303067               -0.08018983                0.10797261               -0.26136443                0.74161588                2.95213373               -2.63266938
              14.85166485                9.32406599               29.89052870                0.96451650                0.04121454               -0.53428746                0.03386159                0.48428160                1.52092949               -3.23932377
               4.97810490               11.13078941               31.24586841                1.00000000                0.12699962                0.11664453               -0.78801475               -0.21440699                1.66451138                1.55718051
               5.97937490               11.01514067               31.06563650                0.81878965               -0.04986707                0.14030697               -0.52651626               -0.36673372                3.04395964                1.16057718
               6.97710756               10.89854059               30.91205625                0.50213543               -0.45280574                0.26070139               -0.43261454               -0.50563687                5.41860442                0.89689136
               7.97031879               10.78553386               30.77834852                0.36791169               -0.88406678                0.38747772               -0.44205120               -0.54664520                7.15997682                0.61599316
               8.95942623               10.68051119               30.65849350                0.35773973               -1.25585972                0.52609101               -0.50802505               -0.50716597                8.28875073                0.32752483
               9.94520159               10.58706641               30.54621820                0.37240592               -1.52407803                0.65176924               -0.58638735               -0.39504171                8.76743752                0.02135417
              10.92894467               10.50812154               30.43494627                0.41065091               -1.62138072                0.73295845               -0.63579858               -0.18812561                8.54980802               -0.30740200
              11.91277398               10.44535428               30.31765531                0.54728291               -1.45584868                0.72296849               -0.62082928                0.10403742                7.58978136               -0.65812078
              12.89982769               10.39781418               30.18694359                0.68587192               -0.98539131                0.55304609               -0.51620325                0.38493542                5.86450738               -1.00567113
              13.89306615               10.35993491               30.03532453                0.80928632               -0.40544577                0.17438657               -0.31067864                0.40017570                3.33662750               -1.32131227
              14.89171878               10.32219081               29.85455958                0.98129662               -0.13473728               -0.18751789               -0.01603017                0.23098213                1.84211367               -1.75899449
               4.10857288                1.19388843               32.54520633                1.00000000               -0.14792573               -0.10955558                0.39389772                0.02039614               -0.28793080                0.31599824
               5.10709362                1.09919696               32.37575745                1.00000000               -0.17732271               -0.15693551                0.55319421                0.02312761               -0.38984282                0.07624942
               6.10502642                1.00425180               32.20410994                1.00000000               -0.23247871               -0.20012728                0.72207582                0.01073590               -0.48936673               -0.01408967
               7.10244404                0.90889816               32.03255530                0.62440957               -0.27526552               -0.25959509                0.89489680                0.00601157               -0.37331271               -0.07156217
               8.09952111                0.81334720               31.86317742                0.71892040                5.85330293               -0.33725482                1.05096250                4.60383781                7.62894553               -0.26400933
               9.21951010                0.80937154               31.85181453                0.80314564               11.18812273               -4.81131361                0.05525598                3.61652439               15.40366023                0.07984858
              10.32328357                0.74356982               31.84243375                0.78146640               10.16117752               -4.26944660               -0.78318564                0.97974462               15.28487462                0.11546554
              11.42273365                0.65706281               31.83150922                0.85833665               10.27549480               -4.05083614               -1.45244776               -1.45632869               15.01454178                0.08788102
              12.52879346                0.50130230               31.81625846                1.00000000                5.54018989                0.58700026               -1.92225776               -2.55599082                7.45148331                0.26086199
              13.53353745                0.39865523               31.64844152                1.00000000                0.37400625                0.37907920               -1.24573685                0.10610771               -0.16010660                0.01222433
              14.53627359                0.29590184               31.48059585                1.00000000                0.27361359                0.17054066               -0.56867408                0.11157465               -0.17423007               -0.24049963
               4.20346831                2.19279288               32.49430415                1.00000000               -0.13250993               -0.10451004                0.35184956               -0.00065780               -0.05640435                0.46126334
               5.20214321                2.09762760               32.32482213                1.00000000               -0.15925657               -0.15116495                0.51184726                0.00482418               -0.08429703                0.13728903
               6.20028318                2.00225053               32.15465660                0.88845951               -0.20933755               -0.19311945                0.66769253               -0.02034592               -0.09986702               -0.04696317
               7.19795646                1.90630221               31.98483870                0.22916536               -0.24801907               -0.23899850                0.81601613               -0.05438270               -0.04070098               -0.14100871
               8.19532280                1.80997465               31.81581477                0.39532689                4.63037871               -0.32352652                0.98166998                2.35031528                8.25320471               -0.32505830
               9.29056403                1.76125841               31.81194959                0.50130022               10.69562913               -4.16874903               -0.05346266                2.96777442               16.35049403                0.28439873
              10.40923538                1.70087536               31.80747863                0.40757628               11.93700455               -4.60137313               -0.84285005                1.97167185               16.15765799                0.20513053
              11.52930413                1.61655445               31.80176722                0.51574761               11.16009827               -3.66598530               -1.48201311                0.71752591               16.08121801                0.04276069
              12.63243735                1.50717231               31.79471025                1.00000000                5.39973164                0.59071286               -1.95813724               -0.23867700                8.07947001                0.39763218
              13.63729876                1.40244602               31.62658199                1.00000000                0.38526841                0.38417536               -1.28215515                0.00069350                0.04087537                0.02224877
              14.64014271                1.29760725               31.45838510                1.00000000                0.28439556                0.17898841               -0.60569575                0.00659407                0.02478533               -0.33815934
               4.29889027                3.19179823               32.44607623                1.00000000               -0.11578128               -0.09441193                0.30244542                0.00293477                0.01862538                0.62312776
               5.29773245                3.09617366               32.27497519                1.00000000               -0.14726845               -0.14058775                0.46977849                0.01216758                0.05650540                0.19759197
               6.29594490                3.00038941               32.10460690                0.58875077               -0.20500930               -0.18235841                0.63974853               -0.00599934                0.16471473               -0.12599231
               7.29363227                2.90411819               31.93595004                0.00010000               -0.21868386               -0.20878510                0.71312536               -0.07940784                0.20312838               -0.33683275
               8.29157122                2.80687667               31.76703127                0.00010000                4.71663091               -0.23021037                0.68835184                0.69765038                8.97911443               -0.24928566
               9.38796488                2.72599656               31.77467829                0.00010000               10.79248729               -3.72659083               -0.34634441                2.56682181               17.13556436                1.19765145
              10.50742096                2.65154236               31.77369956                0.00010000               12.14111684               -4.59695791               -0.98222839                2.82311321               16.66232724                0.18453604
              11.63078722                2.58374310               31.77156682                0.00010000               11.53536940               -3.56930354               -1.52715158                2.69824550               17.03119526               -0.76256646
              12.73812835                2.51311656               31.77521921                0.49899609                5.61645780                0.60154396               -1.99175423                1.80102430                8.76625643                0.41499949
              13.74311638                2.40633873               31.60486150                1.00000000                0.39773237                0.39300224               -1.32072301               -0.00034830                0.09934323                0.09296865
              14.74608300                2.29948161               31.43478199                1.00000000                0.29666227                0.19748626               -0.64849367                0.00577403                0.10146360               -0.37982246
               4.39477615                4.19090464               32.39812071                1.00000000               -0.09807649               -0.08265031                0.25311349                0.00104883                0.06643385                0.61326636
               5.39379538                4.09481585               32.22504935                1.00000000               -0.12787444               -0.13071703                0.42851326                0.00939330                0.14166170                0.15174273
               6.39221866                3.99860336               32.05349361                0.35128294               -0.19571694               -0.17672397                0.60950149                0.00974567                0.31185154               -0.22492858
               7.38988105                3.90212651               31.88438923                0.00010000               -0.24106138               -0.21061343                0.75706668                0.00733709                0.62917725               -0.56533968
               8.38739743                3.80537044               31.72035383                0.00010000                5.36768664               -1.69352220                0.25010887                2.58002801               10.35882368                5.50214802
               9.49723478                3.68672659               31.75201933                0.00010000               11.02768368               -3.34558250               -0.95416197                1.96166294               17.52477589                1.88172329
              10.60795111                3.60893620               31.73859998                0.00010000               11.22300279               -3.78295851               -1.03003742                2.64543697               15.64928940               -0.25189009
              11.72169483                3.54516838               31.72543393                0.00010000               11.89555481               -3.46569393               -1.45404752                3.38514119               17.95397793               -2.21956600
              12.84586220                3.51920319               31.75336403                0.22091309                6.46159538               -1.38130449               -2.03053415                0.17243154               10.33903312               -5.08142693
              13.85092674                3.41030606               31.58434567                0.92759589                0.40551155                0.40348597               -1.35808648               -0.01215275                0.35480000                0.35426364
              14.85397243                3.30155698               31.41222245                1.00000000                0.30456917                0.21218204               -0.68769608                0.00555071                0.18684711               -0.31134950
               4.49108882                5.19014522               32.34935593                1.00000000               -0.08672220               -0.06740937                0.20559154               -0.00397750                0.09902785                0.50648614
               5.49022160                5.09355932               32.17405245                0.83582062               -0.11298354               -0.11889726                0.39032257                0.00084154                0.21658383                0.02823341
               6.48882915                4.99685493               32.00108545                0.20198785               -0.16048373               -0.17079917                0.57008196               -0.00526827                0.44010854               -0.40561541
               7.48701192                4.89990592               31.83038961                0.00010000                3.48712731               -1.66267274                0.75949219                0.99183409                6.90626153                4.02069347
               8.55857170                4.77300622               31.78661144                0.00010000                6.83102320               -2.87220389               -0.19571580                2.45284148               12.52807102                7.28909332
               9.62363239                4.65908491               31.73243902                0.00010000                7.16581122               -2.26038340               -0.59672055                1.71922564               12.92031020                1.98704526
              10.70188792                4.57588319               31.69809382                0.00010000                8.22953350               -2.73798509               -0.96453033                1.65315357               14.08233961               -0.82105160
              11.78822306                4.51442922               31.66636813                0.00010000                8.72756893               -2.78670398               -1.26451735                2.06364919               13.78161108               -3.46632842
              12.87643930                4.48549047               31.62324095                0.18757391                8.61482375               -4.04999619               -1.42455615               -0.09271718               12.69245435               -8.03711628
              13.96051953                4.41440845               31.56779201                0.70727020                4.36264432                0.41964212               -1.39390890                1.97250392                6.07593093                0.41950919
              14.96369218                4.30372525               31.39037883                1.00000000                0.31726524                0.21668624               -0.72060628                0.00537932               -0.03345202               -0.24373909
               4.58786841                6.18955645               32.29894528                1.00000000               -0.07659014               -0.05021267                0.16260329               -0.00433442                0.14338783                0.35306384
               5.58710251                6.09243790               32.12144717                0.67282738               -0.10508601               -0.10809836                0.35441867               -0.00122668                0.25725028               -0.18820643
               6.58576669                5.99518737               31.94613428                0.13209569                2.32319621               -1.41842571                0.53803584                0.35327833                5.34369937                3.79708724
               7.63356643                5.86887305               31.87024369                0.00010000                4.57542901               -2.65833375                0.18121960                0.74271203                9.72404150                6.51631528
               8.67727527                5.74792636               31.78291959                0.00010000                4.75879456               -2.07063524               -0.09395157               -0.18426800               10.12683366                3.62043297
               9.72874232                5.64151892               31.71510587                0.00010000                5.41972985               -1.56375646               -0.50556032               -0.00128646               11.36755230                1.55909014
              10.78566987                5.55417650               31.65353661                0.00010000                6.23091055               -1.78189599               -0.79505675                0.14496277               11.85512321               -1.15584939
              11.85336054                5.48943430               31.59557347                0.00010000                7.91793817               -2.28467812               -1.01246686               -0.11364191               12.21130134               -3.93799715
              12.94402863                5.43820326               31.54036132                0.19061728               10.93907515               -3.63885889               -1.14759664                0.08192128               15.59363883               -6.09655826
              14.07214204                5.41869890               31.54853416                0.62143071                6.57088922               -1.68158488               -1.43457915               -5.34727481                9.51574848               -9.08133707
              15.07544642                5.30589070               31.36958212                1.00000000                0.33043769                3.78451975               -0.75595599               -9.19029143                0.14927578               -7.89231324
               4.68523922                7.18914097               32.24685644                1.00000000               -0.06730850                0.29237343                0.12360791                1.63968990                0.07462495                4.60256674
               5.68456614                7.09139735               32.06598550                0.57420929                1.71101702               -0.96053696                0.32805631                0.89140801                4.72334938                4.98113747
               6.71945956                6.96848642               31.97792297                0.09222209                3.22805168               -2.14814411                0.11186567                0.41540626                8.23422628                6.52479371
               7.74912717                6.84673925               31.86738388                0.00010000                3.13904498               -1.75087234               -0.01347385               -0.67809215                7.94788051                4.18795734
               8.78224046                6.73159352               31.77338241                0.00010000                3.41146762               -1.32510367               -0.22685370               -0.97826726                9.15054131                2.81988852
               9.81735653                6.62780979               31.68673580                0.00010000                3.73156689               -1.07146235               -0.45241270               -1.09442092                9.82006417                0.83243383
              10.85687180                6.54024527               31.60597108                0.00010000                4.22834637               -1.05410042               -0.66085254               -1.18172204               10.18447788               -1.31555362
              11.90192345                6.46873566               31.52656229                0.00010000                4.59706571               -1.35223290               -0.79534609               -1.85315651               10.32904491               -3.72572459
              12.94881312                6.41271329               31.44834154                0.21012177                4.19815719               -1.39055389               -0.84898822               -3.47542700                9.00156034               -6.81735277
              13.98588660                6.38077675               31.34184246                0.57638036                2.83448224               -1.95798504               -0.68456079               -6.56415194                5.58426425              -14.14170439
              15.00550276                6.37941565               31.19529322                0.99532525                1.96161642                3.15565237               -0.30110273               -4.88163501                3.53424077              -13.76629262
               4.81614945                8.19540392               32.28123299                1.00000000                0.94357766               -0.04584661               -0.32359440                0.56384176                1.96593482                7.87613989
               5.82558522                8.07322716               32.11671112                0.52854309                1.12917355               -1.20263696               -0.15120438                0.88957557                3.25692461                7.97301595
               6.83873292                7.95222449               31.97769647                0.06614803                1.56561313               -1.12364821               -0.11492057               -0.37483758                5.66550362                4.68038689
               7.85689749                7.83385561               31.86102323                0.00010000                1.89532347               -0.93540309               -0.19044510               -1.06553262                7.24762803                3.42964390
               8.87663939                7.72142429               31.75328482                0.00010000                2.06523337               -0.71712488               -0.30831829               -1.43660027                8.12001753                1.97102674
               9.89820215                7.62008968               31.65362583                0.00010000                2.22350810               -0.51408352               -0.45001395               -1.46066263                8.70547354                0.46678911
              10.92110955                7.53309449               31.55724847                0.00010000                2.28136133               -0.39411663               -0.56986307               -1.44909794                8.80096516               -1.25493764
              11.94382938                7.46238964               31.45922606                0.00010000                2.06847242               -0.22383175               -0.62759147               -1.56535635                8.19244171               -3.27599830
              12.96247900                7.41039218               31.35048411                0.24045693                1.51636321                0.08135345               -0.57228094               -1.66825625                6.57310410               -5.95838627
              13.97415665                7.37953920               31.22008961                0.55518385                0.90284635               -0.00150404               -0.36389074               -1.33807645                3.71790003               -8.24208419
              14.98053593                7.36900375               31.05470800                0.97600415                0.63792804               -1.35104369                0.03114307               -1.13424487                1.92344171               -9.87007493
               4.94086957                9.18822404               32.29440000                1.00000000                0.46675086               -0.49860510               -0.65988831               -0.07707809                1.33915307                5.40615090
               5.94553708                9.06734461               32.12082577                0.53105054                0.52324008               -0.34093339               -0.41741382               -0.43648783                2.62426708                4.50156330
               6.95133437                8.94601345               31.97244126                0.04406008                0.65398221               -0.33771387               -0.31959727               -0.90735224                4.85284034                3.50941232
               7.95861672                8.82803119               31.84292255                0.00010000                0.79700091               -0.29707172               -0.32359311               -1.29647340                6.47990922                2.32308827
               8.96727439                8.71725102               31.72652075                0.00010000                0.89281772               -0.17296123               -0.38878935               -1.42456880                7.52302067                1.31441292
               9.97647308                8.61752811               31.61730733                0.00010000                0.91577466               -0.03225685               -0.47210483               -1.31813285                8.00865367                0.23633408
              10.98558988                8.53236294               31.51011643                0.00010000                0.84227770                0.12832851               -0.53416246               -1.01732153                7.90884590               -0.96657096
              11.99331863                8.46425903               31.39852727                0.02109058                0.63542727                0.32491338               -0.53350110               -0.55260538                7.09576380               -2.36305912
              12.99829843                8.41434036               31.27487333                0.27868854                0.35974371                0.43067866               -0.43311736                0.07454569                5.44922574               -3.84641570
              14.00051350                8.38074667               31.13042859                0.55319041                0.27951728                0.07468519               -0.20419601                0.45891755                2.98827329               -5.23126406
              15.00388877                8.35239477               30.95800079                0.96451304                0.33752686               -1.29236038                0.16382339                0.40512252                1.55013175               -6.17770755
               5.05636674               10.18543182               32.27865709                1.00000000                0.26993160               -0.05955666               -0.86498332               -0.29222989                1.29212696                2.71263450
               6.05906606               10.06640850               32.10166532                0.55884901                0.17662805                0.04042229               -0.58323689               -0.53622697                2.51647304                2.22457955
               7.05989930                9.94547021               31.94849616                0.00959450                0.03321971                0.11490553               -0.45571527               -0.84293034                4.68592097                1.72283180
               8.05973045                9.82791417               31.81421040                0.00010000               -0.06241083                0.19513851               -0.43535298               -0.96981092                6.32298671                1.20151387
               9.05865108                9.71796507               31.69304603                0.00010000               -0.15014339                0.30292218               -0.47501331               -0.96648529                7.38466691                0.66018767
              10.05672758                9.61944454               31.57924014                0.00010000               -0.23094381                0.42403131               -0.53106792               -0.80286741                7.85299513                0.10144435
              11.05403221                9.53566106               31.46674889                0.00010000               -0.29638669                0.53237415               -0.56201582               -0.46462453                7.68475964               -0.51909491
              12.05079985                9.46888791               31.34902791                0.06479638               -0.32749708                0.59210608               -0.53050911                0.04526315                6.81604842               -1.20232214
              13.04748227                9.41900576               31.21883612                0.32348540               -0.27596313                0.50541367               -0.40618932                0.58824418                5.19287539               -1.90804296
              14.04528059                9.38103291               31.06862108                0.56439514               -0.10700465                0.09058694               -0.17132275                0.72992746                2.83734463               -2.55631672
              15.04534217                9.34315654               30.89163554                0.95036532                0.00615880               -0.57700217                0.17716449                0.48207836                1.46608179               -3.20340475
               5.17307161               11.18703291               32.23716958                1.00000000                0.17025282                0.16010894               -0.93514680               -0.21749754                1.54192825                1.46381130
               6.17477414               11.06815306               32.05968272                0.81808747               -0.00507621                0.17445619               -0.64919347               -0.36525873                2.82803645                1.11240646
               7.17297009               10.94831156               31.90714529                0.50117763               -0.40242445                0.28413476               -0.53725470               -0.50387639                5.06007485                0.87135376
               8.16672565               10.83193396               31.77343667                0.36814745               -0.82778862                0.40197839               -0.53102191               -0.55058472                6.71842354                0.60918377
               9.15641431               10.72330947               31.65301905                0.35789965               -1.20029575                0.53443983               -0.58080553               -0.51993766                7.81379364                0.33780572
              10.14271974               10.62600874               31.54007019                0.37219987               -1.47801450                0.65642006               -0.64061847               -0.41573680                8.30723755                0.04816496
              11.12685402               10.54301042               31.42843251                0.40982518               -1.59202711                0.73493618               -0.66757940               -0.21319790                8.14878237               -0.26702420
              12.11087919               10.47610115               31.31144896                0.55048642               -1.44678573                0.72132420               -0.62416438                0.07984538                7.28310036               -0.60969102
              13.09791831               10.42444864               31.18198129                0.68647955               -0.99589615                0.54428787               -0.48290768                0.36646758                5.67146375               -0.95786082
              14.09096127               10.38255841               31.03266118                0.79960447               -0.43176192                0.15255050               -0.23151524                0.38837325                3.25359064               -1.28349070
              15.08928307               10.34085473               30.85512260                0.97439630               -0.16781987               -0.23018098                0.11622359                0.22372179                1.81333375               -1.74919605
               4.27442302                1.24810211               33.54898116                1.00000000               -0.13850442               -0.09792446                0.35686395                0.01949229               -0.27161370                0.30556493
               5.27303798                1.15111420               33.38119924                1.00000000               -0.16808043               -0.15040457                0.53213456                0.02166585               -0.36458073                0.07858252
               6.27106141                1.05388906               33.21133815                1.00000000               -0.22454637               -0.20217208                0.71855213                0.01070294               -0.45239727               -0.00586799
               7.26854705                0.95636974               33.04161022                0.62547816               -0.27478784               -0.25648981                0.90451939                0.00667843               -0.33934171               -0.07273194
               8.26556566                0.85871503               32.87389096                0.71764147                5.69900906               -0.30970441                1.07689949                4.48188876                7.07313280               -0.25793821
               9.38252723                0.85020858               32.85249655                0.80245182               10.93033075               -4.74128218                0.13292494                3.48168193               14.20236598                0.01788462
              10.48417227                0.77958700               32.83459939                0.78515948               10.03344305               -4.23590245               -0.72512100                0.84983967               14.07566292                0.05068322
              11.58319609                0.68754339               32.81663535                0.86264430               10.36323473               -4.05457353               -1.49007251               -1.63554242               13.83752276                0.02621958
              12.69143697                0.52567020               32.79647501                1.00000000                5.65843509                0.62096761               -2.03489682               -2.73447084                6.83538437                0.26855207
              13.69636479                0.42081597               32.63593694                1.00000000                0.37663716                0.38222964               -1.25497199                0.12290927               -0.16678510                0.01044524
              14.69896971                0.31585466               32.47537854                1.00000000                0.26049150                0.14252508               -0.47184648                0.12844110               -0.18174076               -0.25207298
               4.37160585                2.24712286               33.49765925                1.00000000               -0.12446866               -0.09141170                0.31569540               -0.00536116               -0.05120728                0.44878625
               5.37036116                2.14961016               33.32983853                1.00000000               -0.15325869               -0.14360736                0.49011872               -0.00423161               -0.07582935                0.14138911
               6.36854067                2.05186734               33.16133288                0.90365645               -0.20801565               -0.19247084                0.66568536               -0.02119512               -0.09447524               -0.02623613
               7.36620085                1.95380484               32.99301948                0.23817226               -0.25377748               -0.24287980                0.82811187               -0.03119251               -0.04646722               -0.13068600
               8.36346512                1.85561799               32.82547445                0.40011654                4.53536094               -0.29078162                0.98401534                2.25524141                7.67004451               -0.36883575
               9.45690807                1.80279576               32.81170913                0.50590367               10.52690703               -4.13476903                0.04926303                2.75739529               15.18845082                0.15140334
              10.57400326                1.73722797               32.79906643                0.41555050               11.84455002               -4.58709296               -0.78765331                1.71606876               15.02541490                0.10532658
              11.69379907                1.64699765               32.78658809                0.51809638               11.17263493               -3.64953614               -1.52401649                0.45914982               14.91242901                0.01880451
              12.79745596                1.53187987               32.77456636                1.00000000                5.43512936                0.62385476               -2.07159272               -0.39964922                7.46894079                0.40656995
              13.80250165                1.42463827               32.61371064                1.00000000                0.38797342                0.38769786               -1.29202150                0.00135327                0.04332704                0.01966619
              14.80521543                1.31727991               32.45279371                1.00000000                0.27137773                0.15360161               -0.51122141                0.00765385                0.02581575               -0.35304298
               4.46934121                3.24627387               33.44894761                1.00000000               -0.11323351               -0.07863534                0.26979755               -0.00228157                0.02432017                0.60754364
               5.46820887                3.14824206               33.27960184                1.00000000               -0.14491906               -0.13076384                0.45126079                0.00180336                0.06509417                0.20066645
               6.46644283                3.05003964               33.11094127                0.60325796               -0.20181605               -0.17676125                0.62767532               -0.01452267                0.15660286               -0.09331675
               7.46417255                2.95151214               32.94328646                0.00010000               -0.23816285               -0.21955930                0.75364301               -0.02666817                0.16387823               -0.29414973
               8.46167957                2.85289940               32.77466471                0.00010000                4.59462997               -0.25735683                0.84093861                0.65151474                8.38992613               -0.35662781
               9.55606515                2.76751320               32.77214876                0.00010000               10.63060924               -3.78506459               -0.13260057                2.29216367               16.17809484                0.88421503
              10.67429175                2.68784514               32.76389014                0.00010000               12.08310181               -4.62520871               -0.90809520                2.47508908               15.70895372                0.08002523
              11.79772719                2.61455266               32.75583227                0.00010000               11.57558041               -3.54760423               -1.57778224                2.39175172               15.93825361               -0.70053511
              12.90580336                2.53814729               32.75473519                0.48734119                5.66323169                0.63548877               -2.10631508                1.65188927                8.17067757                0.42170850
              13.91099182                2.42856993               32.59159147                1.00000000                0.40180695                0.39651469               -1.33461117                0.00020738                0.10480367                0.09128404
              14.91383950                2.31892670               32.42874109                1.00000000                0.28476805                0.17790314               -0.56083130                0.00681347                0.10649060               -0.38992998
               4.56762385                4.24555016               33.40051390                1.00000000               -0.09923878               -0.06623979                0.22423631               -0.00066333                0.07097295                0.59788290
               5.56663146                4.14699488               33.22927416                1.00000000               -0.13218585               -0.12003669                0.41252386                0.00818363                0.15255625                0.15170605
               6.56498013                4.04833211               33.05959583                0.35650957               -0.19118669               -0.16986860                0.60086004                0.00660024                0.31973639               -0.21387031
               7.56280773                3.94941366               32.89166027                0.00010000               -0.22428840               -0.21187398                0.73312463                0.00762016                0.55340035               -0.51190357
               8.56049436                3.85047085               32.72640319                0.00010000                5.24989360               -1.80372963                0.72999714                2.43389811                9.94039574                5.11921781
               9.66780560                3.72709447               32.74629000                0.00010000               10.79856090               -3.46249833               -0.39984932                1.73066997               17.01369008                1.81497608
              10.77646558                3.64472380               32.72758161                0.00010000               11.17631730               -3.83211161               -1.01193461                2.45053142               14.93877101               -0.14883847
              11.89133195                3.57604557               32.71051494                0.00010000               12.00054493               -3.46113671               -1.50908142                3.15896894               16.93191739               -1.98385493
              13.01647648                3.54458965               32.73247472                0.21392191                6.51972273               -1.30761096               -2.15041018                0.02049121                9.68951344               -4.74133176
              14.02172640                3.43256856               32.57069041                0.89383405                0.40808469                0.40583126               -1.37475138               -0.01950005                0.36380059                0.35531753
              15.02463817                3.32083798               32.40578145                1.00000000                0.29117743                0.19497475               -0.60105655                0.00553888                0.19335000               -0.30558442
               4.66643849                5.24494908               33.35129070                1.00000000               -0.08478999               -0.05321329                0.17976205               -0.00148841                0.10012424                0.49251360
               5.66559059                5.14584132               33.17788009                0.82833337               -0.11412170               -0.11072321                0.37373044                0.00761652                0.21853304                0.02757108
               6.66415605                5.04664227               33.00675132                0.20193940               -0.17021864               -0.16814994                0.56252584                0.01292081                0.44425274               -0.40700784
               7.66218622                4.94727467               32.83785952                0.00010000                3.42603331               -1.67506608                0.74538322                0.92642185                6.42196530                3.77844130
               8.73267672                4.81682480               32.78645596                0.00010000                6.71196918               -2.97434734                0.04790792                2.24659441               11.76163965                7.17610334
               9.79642560                4.69826323               32.72686215                0.00010000                7.08372804               -2.31147940               -0.47256246                1.59679233               12.26658312                2.20293355
              10.87435128                4.61120291               32.68840124                0.00010000                8.23075566               -2.75919952               -0.93892049                1.62615239               13.38479414               -0.50054009
              11.96104071                4.54532993               32.65330848                0.00010000                8.76694529               -2.76628552               -1.31613997                1.95534986               13.02883702               -3.10063148
              13.04969019                4.51199507               32.60865124                0.18001956                8.66563895               -3.96741920               -1.48318539               -0.22573252               12.01430454               -7.49602813
              14.13435349                4.43668656               32.55376744                0.67466649                4.38606334                0.42326866               -1.40957202                1.91928673                5.74285588                0.41655981
              15.13741145                4.32282619               32.38362097                1.00000000                0.30579624                0.19471879               -0.63040626                0.00608870               -0.03254066               -0.22933618
               4.76580959                6.24448589               33.30044947                1.00000000               -0.07189888               -0.03920283                0.13762833               -0.00180148                0.14089381                0.34211187
               5.76509060                6.14478042               33.12490026                0.66570872               -0.10021922               -0.10335445                0.33613010                0.00558252                0.25306382               -0.18452154
               6.76380521                6.04496911               32.95148461                0.13023419                2.30315135               -1.41709658                0.53083439                0.34111440                5.06380311                3.60440745
               7.81115363                5.91591234               32.87206943                0.00010000                4.53162395               -2.67922563                0.18509155                0.66263476                9.12713575                6.20083744
               8.85443768                5.79098390               32.78141068                0.00010000                4.71048585               -2.08194980               -0.12903815               -0.26705094                9.46149563                3.62001201
               9.90536334                5.68086488               32.71004517                0.00010000                5.37421244               -1.53521560               -0.49550762               -0.02971053               10.67471024                1.78045658
              10.96192193                5.58953981               32.64537653                0.00010000                6.21417143               -1.75741367               -0.81411989                0.10653273               11.16218310               -0.82698687
              12.02964677                5.52071986               32.58519305                0.00010000                7.93416346               -2.24449464               -1.04942279               -0.18487297               11.52556951               -3.52604682
              13.12060520                5.46524127               32.52867528                0.18236573               10.98171225               -3.59339488               -1.18021578               -0.03818885               14.77715460               -5.66995930
              14.24928102                5.44103394               32.53407932                0.59610124                6.59377398               -1.63636592               -1.45418433               -5.46689465                9.00495148               -8.67663939
              15.25248068                5.32473235               32.36246747                0.99885355                0.31996635                3.81905342               -0.66686914               -9.27209713                0.14302025               -7.62811973
               4.86581340                7.24416502               33.24797436                1.00000000               -0.05943876                0.29636682                0.09961345                1.61909417                0.07220089                4.37705990
               5.86521902                7.14377423               33.06914579                0.56741061                1.70165100               -0.95016572                0.30451138                0.87777705                4.50698953                4.75653920
               6.89984642                7.01830034               32.97886106                0.08930536                3.21025524               -2.14054109                0.08278999                0.39151570                7.80146923                6.25619447
               7.92942412                6.89369015               32.86704453                0.00010000                3.12683671               -1.75080701               -0.04262816               -0.71783919                7.47651444                4.08810130
               8.96238316                6.77518581               32.77096997                0.00010000                3.39256808               -1.28949144               -0.25449183               -1.04397257                8.57353064                2.85524939
               9.99727548                6.66755892               32.68194065                0.00010000                3.71218999               -1.03277479               -0.48605833               -1.16173153                9.19156766                1.01023548
              11.03662696                6.57605463               32.59916350                0.00010000                4.21831559               -1.01350311               -0.68866374               -1.24445086                9.56454440               -1.02013017
              12.08164180                6.50044004               32.51845249                0.00010000                4.59926851               -1.31451621               -0.81766693               -1.93536981                9.74160474               -3.34934857
              13.12861233                6.44012718               32.43981520                0.20176867                4.19413586               -1.35228361               -0.85188883               -3.58229605                8.52938364               -6.37074777
              14.16552451                6.40395924               32.33520958                0.55548346                2.79801769               -1.88932566               -0.64190238               -6.66764110                5.30591764              -13.50080507
              15.18457268                6.39920726               32.19282618                0.97410549                1.90481704                3.21713628               -0.19609980               -4.96143053                3.34702459              -13.36064684
               4.99897305                8.25041323               33.27764226                1.00000000                0.95377797               -0.03076204               -0.38521068                0.55584112                1.86572274                7.46855023
               6.00851083                8.12577710               33.11490205                0.52259823                1.13732767               -1.18462832               -0.20113792                0.88016236                3.07424669                7.63658320
               7.02171960                8.00215829               32.97626680                0.06303991                1.57002728               -1.11080109               -0.15984671               -0.38320917                5.33377676                4.53986086
               8.03991137                7.88089620               32.85884594                0.00010000                1.89849323               -0.92487940               -0.23240826               -1.09294611                6.80444617                3.38178752
               9.05968946                7.76519407               32.74993045                0.00010000                2.06742594               -0.70105370               -0.34709856               -1.48558507                7.60829783                2.02455563
              10.08125989                7.66020938               32.64891320                0.00010000                2.22311677               -0.48636374               -0.48226554               -1.52462484                8.15894778                0.62456516
              11.10415180                7.56926975               32.55139058                0.00010000                2.28034707               -0.36561485               -0.59291970               -1.52329816                8.26695470               -1.00944864
              12.12686683                7.49442953               32.45289799                0.00010000                2.06441397               -0.19734280               -0.63370147               -1.64946042                7.72745520               -2.96377257
              13.14544008                7.43819559               32.34487068                0.23287694                1.49906411                0.11097881               -0.55012569               -1.75690301                6.23129068               -5.59513659
              14.15684811                7.40324742               32.21679615                0.53651032                0.86579761                0.03297333               -0.29839761               -1.39954574                3.54348413               -7.89848360
              15.16275603                7.38907508               32.05566322                0.95862103                0.59079172               -1.34061949                0.15308337               -1.16380542                1.84016775               -9.60234144
               5.12620247                9.24354978               33.28729996                1.00000000                0.48747259               -0.46535729               -0.74518408               -0.07414847                1.25303021                5.12100986
               6.13107720                9.12008167               33.11624399                0.52720271                0.54303373               -0.32024314               -0.48512575               -0.42840365                2.45345795                4.32097640
               7.13706315                8.99608431               32.96889458                0.04169305                0.67261084               -0.32360541               -0.37607431               -0.90374164                4.54150561                3.41600830
               8.14452942                8.87519256               32.83938116                0.00010000                0.81475603               -0.28604782               -0.37133064               -1.30752753                6.06638404                2.31297575
               9.15335827                8.76116473               32.72238143                0.00010000                0.90889487               -0.16191707               -0.42757115               -1.45613119                7.04729125                1.37451460
              10.16270731                8.65783165               32.61239570                0.00010000                0.92912884               -0.01973240               -0.50035425               -1.36840341                7.51421855                0.36194675
              11.17194085                8.56874233               32.50467394                0.00010000                0.85097122                0.14121131               -0.54817514               -1.08064890                7.44217669               -0.78389238
              12.17972674                8.49649318               32.39321181                0.02003267                0.63577650                0.33634704               -0.52731282               -0.62243758                6.70355494               -2.14115945
              13.18465638                8.44234675               32.27073032                0.27305932                0.34636872                0.44096551               -0.39739272                0.01092169                5.17217403               -3.61577222
              14.18665411                8.40461871               32.12879798                0.53518108                0.24924457                0.07923464               -0.12760794                0.42000934                2.85020507               -5.03115502
              15.18964127                8.37239487               31.96031697                0.94935672                0.29871545               -1.30995000                0.29074065                0.38769342                1.48333570               -6.04788870
               5.24442630               10.24110608               33.26941642                1.00000000                0.29819165               -0.02545599               -0.96577831               -0.28764811                1.20155351                2.55767894
               6.24740822               10.11937224               33.09535491                0.55641502                0.20537838                0.06361686               -0.66300504               -0.52685889                2.33655999                2.13699780
               7.24853387                9.99568618               32.94354087                0.00922349                0.06360914                0.12925415               -0.52074256               -0.83525218                4.36248241                1.68442880
               8.24868040                9.87517524               32.80952558                0.00010000               -0.03030552                0.20362162               -0.48838785               -0.97231871                5.90358541                1.20433523
               9.24792776                9.76195573               32.68803180                0.00010000               -0.11830899                0.30782579               -0.51640640               -0.98250963                6.91601247                0.70047880
              10.24631422                9.65981473               32.57374459                0.00010000               -0.20252362                0.42689762               -0.55944213               -0.83180939                7.38075604                0.17569213
              11.24387729                9.57209397               32.46104016                0.00010000               -0.27502798                0.53357399               -0.57441961               -0.50287802                7.25322404               -0.41716548
              12.24081366                9.50115647               32.34375962                0.06788163               -0.31721493                0.59125900               -0.52175373                0.00407002                6.46483725               -1.08480352
              13.23753299                9.44701490               32.21497591                0.32153617               -0.28067386                0.50099367               -0.36856021                0.55320063                4.95074418               -1.79339485
              14.23520019                9.40483212               32.06732082                0.54590439               -0.12877078                0.07830896               -0.09533887                0.71018539                2.71639780               -2.46606672
              15.23495757                9.36287608               31.89407199                0.93635509               -0.02426122               -0.60810586                0.30060053                0.47546324                1.40801230               -3.15852813
               5.36391719               11.24304066               33.22716547                1.00000000                0.20427273                0.19345797               -1.04667844               -0.21957647                1.41300299                1.36757895
               6.36595992               11.12135400               33.05265263                0.81755834                0.03189565                0.19817647               -0.73947305               -0.36339297                2.60024107                1.06470112
               7.36455511               10.99866940               32.90131115                0.50031140               -0.35732138                0.29832152               -0.61379377               -0.50232672                4.68262573                0.84975211
               8.35881349               10.87926500               32.76772808                0.36836651               -0.77432630                0.40897586               -0.59667787               -0.55409825                6.25427341                0.60972863
               9.34906858               10.76732125               32.64687739                0.35805612               -1.14403033                0.53655182               -0.63587062               -0.53068786                7.31431556                0.35815016
              10.33593289               10.66636960               32.53340583                0.37196894               -1.42635163                0.65548635               -0.68356131               -0.43350532                7.82197267                0.08630810
              11.32054155               10.57941381               32.42159468                0.40897417               -1.55228398                0.73198430               -0.69503678               -0.23613583                7.72437335               -0.21452594
              12.30488721               10.50831836               32.30517202                0.55341593               -1.42484016                0.71618878               -0.63051142                0.05499503                6.95764337               -0.54961943
              13.29204474               10.45236663               32.17728544                0.68689948               -0.99452802                0.53517226               -0.46008439                0.34450177                5.46686124               -0.90020150
              14.28499665               10.40618488               32.03069423                0.79007537               -0.44910664                0.13527670               -0.16997875                0.37295238                3.16621060               -1.23865788
              15.28306261               10.36023275               31.85688405                0.96756621               -0.19340349               -0.26433265                0.22492288                0.21529055                1.78292049               -1.73535820
               4.43870445                1.30264355               34.55234361                1.00000000               -0.12594351               -0.08413906                0.31065548                0.02276395               -0.25717734                0.29817265
               5.43744502                1.20349003               34.38640014                1.00000000               -0.15684783               -0.14372391                0.50581177                0.02586929               -0.34279493                0.08041674
               6.43556749                1.10414498               34.21848098                1.00000000               -0.21703073               -0.20222856                0.70911667                0.02127240               -0.42803237               -0.00174563
               7.43310440                1.00462501               34.05064569                0.62692737               -0.27350264               -0.26127556                0.90787153                0.02193993               -0.32499091               -0.07519840
               8.43009744                0.90502147               33.88471541                0.71481377                5.48722994               -0.31972801                1.09960654                4.32761213                6.54961660               -0.26897638
               9.54284900                0.89130407               33.85447303                0.79809185               10.52802935               -4.66698034                0.29131356                3.32060363               13.09854963               -0.01723266
              10.64065803                0.81564940               33.82793133                0.78544400                9.73797429               -4.19582626               -0.54034898                0.73955251               12.86194969                0.04555622
              11.73760849                0.71768172               33.80170777                0.86776019               10.27707634               -3.99481057               -1.43739792               -1.81350872               12.47532007                0.02781528
              12.84619955                0.55049065               33.77556053                1.00000000                5.68448649                0.65528763               -2.14493954               -2.86884383                6.10899288                0.27511393
              13.85129822                0.44331673               33.62334208                1.00000000                0.37780060                0.38680729               -1.25867264                0.14094426               -0.17964969                0.00456760
              14.85375557                0.33603006               33.47115892                1.00000000                0.24573515                0.11537840               -0.36574199                0.14506499               -0.19913915               -0.27678953
               4.53808561                2.30180216               34.50061806                1.00000000               -0.11326177               -0.07745449                0.27182744               -0.00674935               -0.04516579                0.44187208
               5.53695299                2.20205279               34.33462450                1.00000000               -0.14364431               -0.13693325                0.46603988               -0.00419037               -0.06629100                0.14495576
               6.53521273                2.10212269               34.16797031                0.91731671               -0.20337202               -0.19424254                0.66269246               -0.01078478               -0.08759390               -0.01706262
               7.53288555                2.00201225               34.00140094                0.24727770               -0.25893465               -0.25153009                0.85187404               -0.01082588               -0.04983373               -0.13838143
               8.53003403                1.90182419               33.83549508                0.40408092                4.39277571               -0.31030490                1.03539219                2.15160048                7.13879848               -0.40466072
               9.62074107                1.84463426               33.81293485                0.50787158               10.24153467               -4.11020349                0.24573851                2.56596546               14.13391007                0.08684695
              10.73486473                1.77369114               33.79172556                0.42031315               11.56558536               -4.55108605               -0.58790095                1.51789267               13.80692954                0.09830898
              11.85205278                1.67773361               33.77128689                0.51831483               10.99144413               -3.59380884               -1.48539120                0.22255673               13.64376428                0.01996443
              12.95469361                1.55704352               33.75327840                1.00000000                5.39425880                0.65758600               -2.18756530               -0.54828314                6.75668244                0.41764287
              13.95993795                1.44718481               33.60074156                1.00000000                0.38996416                0.39339547               -1.30463179                0.00243279                0.04486642                0.01140411
              14.96249289                1.33718384               33.44816067                1.00000000                0.25549408                0.13326044               -0.41477640                0.00780393                0.02983195               -0.38138347
               4.63806821                3.30109446               34.45147218                1.00000000               -0.10275294               -0.06414778                0.23038562               -0.00483587                0.03034645                0.59902166
               5.63704068                3.20075136               34.28400041                1.00000000               -0.13379369               -0.12405351                0.42785260               -0.00113772                0.07329861                0.20494923
               6.63539233                3.10026012               34.11716041                0.61823060               -0.19271449               -0.18033985                0.62170032               -0.00712013                0.14984620               -0.07771363
               7.63318639                2.99959441               33.95102290                0.00010000               -0.24424458               -0.23484394                0.79542952               -0.00943064                0.13576034               -0.28816018
               8.63050744                2.89881537               33.78385004                0.00010000                4.45574851               -0.29303179                0.96862809                0.55235859                7.83368985               -0.41511419
               9.72230136                2.80910000               33.77202627                0.00010000               10.37045454               -3.81607716                0.13791079                2.07006993               15.15231156                0.73964283
              10.83791653                2.72462768               33.75553766                0.00010000               11.82029398               -4.61214065               -0.67481616                2.21712020               14.55365942                0.01900868
              11.95870724                2.64580554               33.74001117                0.00010000               11.39330840               -3.48592733               -1.52993650                2.12009905               14.71669867               -0.61868086
              13.06578270                2.56364237               33.73309291                0.45628958                5.62496574                0.67084930               -2.22443749                1.50812492                7.47508707                0.43428751
              14.07120655                2.45118464               33.57816928                1.00000000                0.40654380                0.40258180               -1.35539647                0.00054876                0.11159627                0.08966352
              15.07391357                2.33869527               33.42356536                1.00000000                0.27070239                0.16907814               -0.47852013                0.00928488                0.11845045               -0.40726360
               4.73867509                4.30051920               34.40260544                1.00000000               -0.09105160               -0.05172683                0.18935369               -0.00253274                0.07763203                0.58771471
               5.73776457                4.19957172               34.23329983                1.00000000               -0.12239066               -0.11333638                0.39129617                0.00438237                0.16314513                0.15340236
               6.73622728                4.09851589               34.06551081                0.36066045               -0.18114384               -0.17170650                0.58973401                0.00430493                0.31484588               -0.20040910
               7.73414170                3.99731537               33.89905173                0.00010000               -0.23258313               -0.22644121                0.76172417                0.00039336                0.50252194               -0.47438640
               8.73157561                3.89596355               33.73495377                0.00010000                5.10942289               -1.86472850                0.91277461                2.26458812                9.25871412                4.76244878
               9.83633016                3.76831272               33.74402234                0.00010000               10.54629850               -3.48557904               -0.12821586                1.51010936               15.90181293                1.70778876
              10.94250158                3.68144833               33.71836129                0.00010000               10.95549576               -3.82751069               -0.82062777                2.24616466               13.98358494               -0.10567068
              12.05544007                3.60801507               33.69525230                0.00010000               11.84877111               -3.40335278               -1.49052633                2.94273740               15.68913696               -1.76480312
              13.17947701                3.57046051               33.71035583                0.20332287                6.47279775               -1.21365084               -2.27631078               -0.11474490                8.95400563               -4.35281793
              14.18489603                3.45523644               33.55685064                0.83211840                0.40901680                0.40830436               -1.39423305               -0.03473722                0.37980246                0.36383995
              15.18765734                3.34056541               33.40020132                1.00000000                0.27613173                0.18786247               -0.51597435                0.00393278                0.20227884               -0.29344474
               4.83991252                5.30005992               34.35295117                1.00000000               -0.07808890               -0.04020879                0.14846487               -0.00204816                0.10525098                0.48185175
               5.83913163                5.19848463               34.18152706                0.82102378               -0.10888750               -0.10449709                0.35508324                0.00650723                0.22481355                0.02638648
               6.83773477                5.09682599               34.01233597                0.20107133               -0.16925189               -0.16750524                0.55760985                0.01136274                0.44802123               -0.39859331
               7.83574660                4.99506558               33.84529727                0.00010000                3.35335420               -1.68052894                0.75404420                0.83680935                6.01890609                3.54407253
               8.90480186                4.86152080               33.78756960                0.00010000                6.56360868               -3.00754804                0.15281110                2.06383336               10.95405100                6.79199186
               9.96701877                4.73938842               33.72298777                0.00010000                6.91678103               -2.31315786               -0.32943740                1.42485938               11.46947412                2.23761691
              11.04313748                4.64807747               33.67931541                0.00010000                8.07655163               -2.72869151               -0.87242420                1.48070680               12.50622256               -0.28452248
              12.12854980                4.57773849               33.64004533                0.00010000                8.65644741               -2.71228582               -1.32739986                1.82124943               12.17826797               -2.70721746
              13.21626643                4.53936935               33.59357724                0.17092894                8.59285542               -3.84101992               -1.51416675               -0.35896572               11.26859585               -6.88541615
              14.30040691                4.45935073               33.53960057                0.63872296                4.35339407                0.42437683               -1.41787292                1.83180144                5.37321325                0.41945920
              15.30333431                4.34245252               33.37777071                1.00000000                0.29273968                0.17788473               -0.54217809                0.00383828               -0.03263083               -0.20445583
               4.94178470                6.29971503               34.30169785                1.00000000               -0.06560581               -0.02852707                0.10908260               -0.00193196                0.14210155                0.33382835
               5.94112865                6.19748177               34.12816977                0.65766816               -0.09555610               -0.09791400                0.31825566                0.00691793                0.25453770               -0.18422831
               6.93987358                6.09516579               33.95675097                0.12752665                2.25272171               -1.39989392                0.52629787                0.30392288                4.79306070                3.40165288
               7.98618308                5.96370480               33.87394552                0.00010000                4.43279328               -2.66704055                0.19469073                0.57243778                8.54063800                5.88310881
               9.02852945                5.83581259               33.78033882                0.00010000                4.60437973               -2.06710298               -0.08780302               -0.38210646                8.79761978                3.58665917
              10.07827068                5.72204956               33.70519572                0.00010000                5.26181009               -1.51209771               -0.46125635               -0.14812573                9.92640997                1.91218452
              11.13376565                5.62687450               33.63725421                0.00010000                6.11512505               -1.71244227               -0.79874040                0.01165795               10.39978488               -0.52176175
              12.20057318                5.55376935               33.57458502                0.00010000                7.84598997               -2.18473708               -1.05888347               -0.28401689               10.76514465               -3.08565459
              13.29068545                5.49364011               33.51675700                0.17314120               10.89378555               -3.51332040               -1.18856553               -0.18340489               13.88910198               -5.19618182
              14.41844889                5.46372398               33.51945047                0.57013776                6.54225438               -1.56534501               -1.46242821               -5.54649751                8.44124367               -8.23945808
              15.42153054                5.34412310               33.35624474                0.97329645                0.30816496                3.82772184               -0.57965157               -9.26630097                0.13186586               -7.34876001
               5.04434039                7.29948938               34.24884871                1.00000000               -0.05211561                0.28671459                0.07253961                1.56167869                0.07075792                4.14049812
               6.04381923                7.19652635               34.07207573                0.55967303                1.66249113               -0.93105758                0.28371595                0.83278537                4.29178997                4.51920416
               7.07759021                7.06882812               33.97957877                0.08581940                3.13646592               -2.10887973                0.06790906                0.33947002                7.35711889                5.97788389
               8.10654855                6.94172477               33.86653131                0.00010000                3.06123753               -1.72750350               -0.04949160               -0.77548469                6.97931066                3.98411166
               9.13881496                6.82017874               33.76829257                0.00010000                3.32229002               -1.26543208               -0.26062455               -1.11848391                7.96754522                2.88276332
              10.17299435                6.70914646               33.67701463                0.00010000                3.64179443               -0.99618186               -0.48638972               -1.23499074                8.53696937                1.19804341
              11.21165085                6.61382862               33.59219780                0.00010000                4.15547501               -0.97397082               -0.69363321               -1.32022572                8.90235728               -0.70584185
              12.25610385                6.53404375               33.51020895                0.00010000                4.54964251               -1.27072448               -0.82276283               -2.02002361                9.11223891               -2.93479782
              13.30264370                6.46910294               33.43130377                0.19240990                4.14450603               -1.30328882               -0.84555862               -3.67393516                8.02547395               -5.87764389
              14.33899397                6.42804383               33.32900441                0.53425284                2.72831744               -1.78714224               -0.59841756               -6.71555442                5.01015680              -12.80616908
              15.35721005                6.41900695               33.19137123                0.95425456                1.82160776                3.26715139               -0.09964645               -4.99995832                3.14467649              -12.94342313
               5.17894433                8.30544932               34.27352878                1.00000000                0.95012852               -0.03096489               -0.42926299                0.52621700                1.76382616                7.03724103
               6.18844562                8.17886062               34.11268837                0.51651598                1.12601156               -1.16075381               -0.23253404                0.83656350                2.88452298                7.28946473
               7.20146456                8.05298819               33.97449953                0.05986294                1.54385728               -1.08842839               -0.18256311               -0.41343955                4.98682537                4.39893883
               8.21932276                7.92915473               33.85637506                0.00010000                1.86367576               -0.90568557               -0.24873267               -1.12876221                6.34023676                3.34208796
               9.23873808                7.81050395               33.74634285                0.00010000                2.02991071               -0.67693878               -0.35821912               -1.53190429                7.06987979                2.10151976
              10.25992098                7.70212593               33.64398051                0.00010000                2.18628863               -0.46054027               -0.49103810               -1.58191414                7.58114502                0.80890014
              11.28246385                7.60739508               33.54539007                0.00010000                2.24887028               -0.33965539               -0.59793903               -1.59023056                7.70215000               -0.72856451
              12.30489838                7.52835486               33.44655203                0.00010000                2.03714045               -0.17347688               -0.63133365               -1.72956238                7.23374116               -2.61053991
              13.32320666                7.46757433               33.33948160                0.22407260                1.46677015                0.14083731               -0.52866421               -1.84308390                5.87013917               -5.18970240
              14.33423379                7.42798114               33.21412166                0.51767525                0.81992318                0.07775315               -0.24193841               -1.45856113                3.36189931               -7.52310274
              15.33960512                7.40946613               33.05776967                0.94202321                0.53713381               -1.29893592                0.25910585               -1.18612867                1.75514366               -9.31828545
               5.30804212                9.29887008               34.27949632                1.00000000                0.49695086               -0.43647160               -0.80086147               -0.07705619                1.16240029                4.82384417
               6.31301163                9.17331128               34.11112325                0.52332151                0.54925993               -0.30604055               -0.52516340               -0.42916769                2.27404699                4.13668628
               7.31902732                9.04705955               33.96491977                0.04104503                0.67229620               -0.31229891               -0.40487788               -0.90932499                4.21544217                3.32720173
               8.32645755                8.92361106               33.83549593                0.00010000                0.80891789               -0.27503848               -0.39149896               -1.32155596                5.63331503                2.31590611
               9.33520567                8.80663996               33.71796933                0.00010000                0.90036932               -0.15126336               -0.44076358               -1.48305838                6.54843113                1.45489533
              10.34446494                8.69993566               33.60730024                0.00010000                0.92058143               -0.00888386               -0.50694786               -1.40955423                6.99404522                0.51670377
              11.35361730                8.60703551               33.49915292                0.00010000                0.84342056                0.15009630               -0.54753541               -1.13718208                6.94844816               -0.56686791
              12.36133335                8.53057421               33.38798102                0.01779145                0.62692225                0.34383855               -0.51543866               -0.69266865                6.28726024               -1.88221948
              13.36615575                8.47191969               33.26692548                0.26618085                0.32988029                0.45042058               -0.36581719               -0.06230131                4.87844916               -3.35084773
              14.36793095                8.42959889               33.12787643                0.51708578                0.21808709                0.09170929               -0.06399406                0.36936134                2.70523280               -4.80473989
              15.37051749                8.39302824               32.96381560                0.93459235                0.25865359               -1.30236133                0.39859165                0.36268241                1.41343223               -5.90136716
               5.42852082               10.29671989               34.25934152                1.00000000                0.31519785                0.00081424               -1.03052749               -0.28224562                1.10684672                2.39761641
               6.43167280               10.17273981               34.08840522                0.55422144                0.22287302                0.07701783               -0.71005735               -0.51780066                2.14822310                2.04912739
               7.43297828               10.04674222               33.93808130                0.00885935                0.08192154                0.13532479               -0.55509991               -0.82830088                4.02478346                1.65070398
               8.43331123                9.92365396               33.80444264                0.00010000               -0.01129828                0.20562301               -0.51274137               -0.97381016                5.46582673                1.21695519
               9.43275232                9.80747868               33.68271790                0.00010000               -0.09884431                0.30706610               -0.53210551               -0.99442538                6.42562379                0.75566348
              10.43133434                9.70194825               33.56805130                0.00010000               -0.18353280                0.42383832               -0.56689883               -0.85523584                6.88423378                0.26883025
              11.42908166                9.61039700               33.45526050                0.00010000               -0.25867536                0.52876676               -0.57251789               -0.53793050                6.79673955               -0.29302888
              12.42616084                9.53523163               33.33859283                0.06993985               -0.30728551                0.58548818               -0.50707571               -0.04031497                6.09091528               -0.94394123
              13.42293595                9.47658275               33.21146492                0.31861652               -0.28241854                0.49529359               -0.33447588                0.50806339                4.69172260               -1.65735185
              14.42051247                9.42981532               33.06671430                0.52755474               -0.14679296                0.07197780               -0.03194941                0.67960358                2.58681300               -2.35954899
              15.42000009                9.38341890               32.89764755                0.92250122               -0.05123758               -0.62523964                0.40497165                0.46257518                1.34542437               -3.10191835
               5.55035735               11.29888637               34.21623601                1.00000000                0.22759306                0.21664814               -1.11830273               -0.21982016                1.27763115                1.26803724
               6.55263328               11.17485163               34.04489326                0.81718303                0.05949005                0.21118219               -0.79342146               -0.35996774                2.36094789                1.01692074
               7.55154715               11.04976604               33.89486941                0.49947125               -0.31942017                0.30238291               -0.65631194               -0.49951838                4.28685635                0.83069483
               8.54624488               10.92772352               33.76150311                0.36855752               -0.72621405                0.40695648               -0.63068719               -0.55587293                5.76765928                0.61553936
               9.53702287               10.81278129               33.64030164                0.35820164               -1.09014923                0.53026039               -0.66281602               -0.53849913                6.78948996                0.38610580
              10.52444190               10.70841242               33.52639897                0.37176279               -1.37237822                0.64641746               -0.70366858               -0.44776667                7.30972788                0.13442225
              11.50957531               10.61761085               33.41453177                0.40811742               -1.50502939                0.72138436               -0.70696397               -0.25705770                7.27346319               -0.15049973
              12.49434131               10.54228397               33.29883873                0.55587363               -1.39209910                0.70523393               -0.63043809                0.02878264                6.60941585               -0.47730354
              13.48173333               10.48182556               33.17277960                0.68690287               -0.98272195                0.52428141               -0.44107052                0.31746160                5.24641872               -0.83127215
              14.47468687               10.43103845               33.02926161                0.78071939               -0.45857471                0.12231288               -0.12235437                0.35233444                3.07129354               -1.18479175
              15.47256183               10.38052344               32.85962106                0.96074943               -0.21250364               -0.28954586                0.31276758                0.20467348                1.74832986               -1.71477357
               4.60116640                1.35751665               35.55519427                1.00000000               -0.11216992               -0.06849261                0.25667951                0.02804131               -0.24831689                0.29335920
               5.60004471                1.25627382               35.39131547                1.00000000               -0.14555940               -0.13648117                0.47660532                0.03178040               -0.33036321                0.08041087
               6.59825522                1.15487549               35.22552049                1.00000000               -0.21159524               -0.20288291                0.70089187                0.02978637               -0.41636084               -0.00177753
               7.59581280                1.05335527               35.05976765                0.62790782               -0.27622827               -0.26952702                0.92245247                0.03169349               -0.32054192               -0.08008491
               8.59273065                0.95177616               34.89588309                0.71030640                5.27347491               -0.33860196                1.14227426                4.17690289                6.07984364               -0.27792123
               9.70128230                0.93294027               34.85832282                0.79005680               10.07229324               -4.59608209                0.40960793                3.26402359               12.20503658                0.10683788
              10.79417652                0.85290966               34.82379241                0.78039326                9.18955012               -4.13218300               -0.34304978                0.56138977               11.81369973                0.13861479
              11.88507330                0.74894146               34.78788739                0.86677606                9.89029987               -3.98479166               -1.41676379               -1.85382484               11.34034776                0.04671442
              12.99198251                0.57573673               34.75357622                1.00000000                5.60500494                0.69636158               -2.21425820               -3.02641142                5.21922596                0.27387754
              13.99717340                0.46610837               34.61076349                1.00000000                0.36853641                0.39307838               -1.23390721                0.16326335               -0.22114289               -0.00962615
              14.99935324                0.35631538               34.46806370                1.00000000                0.21798417                0.09304272               -0.25653353                0.18276071               -0.24233730               -0.33659746
               4.70268965                2.35683173               35.50309580                1.00000000               -0.10065580               -0.06248622                0.22116038               -0.00600754               -0.04146398                0.43742399
               5.70168309                2.25490901               35.33915933                1.00000000               -0.13386478               -0.13040515                0.44063590               -0.00215763               -0.06064321                0.14565102
               6.70001236                2.15284666               35.17458673                0.92975239               -0.20018465               -0.19653122                0.66203961               -0.00434863               -0.08429336               -0.01635792
               7.69767940                2.05066000               35.01005696                0.25505453               -0.26525875               -0.26285565                0.88106620               -0.00355992               -0.05137489               -0.14635691
               8.69470718                1.94839014               34.84618229                0.40649275                4.28381923               -0.33188677                1.10015029                2.04693969                6.68467064               -0.41874861
               9.78335578                1.88697945               34.81662390                0.50692012                9.85413195               -4.08608496                0.36235295                2.46695791               13.31962604                0.15880240
              10.89178982                1.81158783               34.78730841                0.42155004               11.08828668               -4.56600366               -0.02198316                1.26588113               13.07623002                0.14509021
              12.00512152                1.70909354               34.75688026                0.51259892               10.56725617               -3.53639116               -1.04695486                0.02725590               11.97198929                0.26090061
              13.10313494                1.58270034               34.73081505                1.00000000                5.16975957                0.70094428               -2.32792230               -0.69449523                5.88239439                0.41737732
              14.10851671                1.47003916               34.58761800                1.00000000                0.39194512                0.40728744               -1.32319525                0.00616765                0.06129723               -0.00456357
              15.11097384                1.35724580               34.44449818                1.00000000                0.24571355                0.12126974               -0.30904785                0.02381958                0.02414650               -0.43995320
               4.80489169                3.35626693               35.45355532                1.00000000               -0.09050687               -0.05031292                0.18366864               -0.00521787                0.03343115                0.59418136
               5.80398662                3.25366572               35.28815889                1.00000000               -0.12372194               -0.11863671                0.40456113               -0.00080852                0.07612652                0.20650179
               6.80241725                3.15094486               35.12337527                0.63420188               -0.18942506               -0.18491449                0.62427588               -0.00273826                0.14308887               -0.07242582
               7.80019812                3.04809816               34.95919505                0.00010000               -0.25336283               -0.25042196                0.83798480               -0.00353152                0.12138827               -0.28917274
               8.79735000                2.94513842               34.79403727                0.00010000                4.36128228               -0.31949371                1.05612630                0.45556331                7.35780567               -0.42534277
               9.88742377                2.85121857               34.77490698                0.00010000               10.00150246               -3.83453498                0.29011769                1.77648595               14.32641347                0.55244830
              10.99738004                2.76158959               34.75039381                0.00010000               11.35410684               -4.63776012               -0.02111843                2.00562832               13.86365212                0.00974476
              12.11450590                2.67821364               34.72523354                0.00010000               10.98834749               -3.41890982               -1.12558124                1.80823286               13.01481082               -0.72173197
              13.21714699                2.58975561               34.71024644                0.43087430                5.41226949                0.71743093               -2.38034691                1.34318990                6.60839188                0.46717681
              14.22275129                2.47425412               34.56448354                1.00000000                0.41346720                0.41874602               -1.39151245               -0.00272984                0.14035386                0.08776837
              15.22541634                2.35874077               34.41917069                1.00000000                0.26650453                0.17589668               -0.39239879               -0.00090800                0.12168748               -0.43354974
               4.90778772                4.35582547               35.40430097                1.00000000               -0.07987277               -0.03866128                0.14686951               -0.00391807                0.08109060                0.58249415
               5.90698899                4.25253627               35.23710008                1.00000000               -0.11312832               -0.10833046                0.36990586                0.00191680                0.16667678                0.15563708
               6.90552515                4.14914837               35.07139051                0.36399417               -0.17868900               -0.17573068                0.59136892                0.00221516                0.30730726               -0.19098237
               7.90341521                4.04565156               34.90689475                0.00010000               -0.24135587               -0.24179176                0.80534285               -0.00077602                0.47704840               -0.45908379
               8.90069803                3.94200026               34.74465868                0.00010000                4.95095658               -1.89294153                1.01266351                2.06772204                8.63940996                4.39874290
              10.00243434                3.81028875               34.74372568                0.00010000               10.21046438               -3.46881880                0.02478572                1.17389331               14.82165059                1.46037064
              11.10490732                3.71883263               34.71116906                0.00010000               10.53429032               -3.74850237               -0.64470237                2.02323619               12.95582290               -0.17305839
              12.21312015                3.64071535               34.68070442                0.00010000               11.45254672               -3.31803869               -1.46245982                2.70273403               14.47302892               -1.56646285
              13.33395825                3.59704896               34.68694851                0.18935026                6.31784042               -1.09350179               -2.38022227               -0.19706976                8.10036170               -3.87612611
              14.33947695                3.47841408               34.54280575                0.75218699                0.40120650                0.41108925               -1.40334950               -0.07061144                0.39493215                0.38871669
              15.34198238                3.36076374               34.39546196                1.00000000                0.25054296                0.19764416               -0.44712693               -0.01492321                0.21267103               -0.27491734
               5.01139172                5.35549370               35.35426000                1.00000000               -0.06896593               -0.02802756                0.11043806               -0.00345644                0.10896715                0.47642150
               6.01070206                5.25149911               35.18498176                0.81423163               -0.10227249               -0.09945434                0.33650716                0.00378970                0.22827638                0.02756519
               7.00934627                5.14743025               35.01790352                0.19932814               -0.16856777               -0.16944973                0.56013005                0.00643677                0.44714907               -0.38953702
               8.00733070                5.04326232               34.85294041                0.00010000                3.23604894               -1.66555446                0.78147426                0.74063349                5.62536144                3.29329523
               9.07406725                4.90727959               34.78951218                0.00010000                6.33692833               -3.00030726                0.22676703                1.85108625               10.13666560                6.36531739
              10.13406927                4.78184219               34.72027341                0.00010000                6.66754620               -2.26035217               -0.23380416                1.19408828               10.56774564                2.15780095
              11.20741817                4.68661954               34.67095275                0.00010000                7.81374884               -2.63052199               -0.79433670                1.28158384               11.47479129               -0.16214384
              12.29034425                4.61185286               34.62676048                0.00010000                8.40443485               -2.59361026               -1.32283712                1.67963838               11.16549819               -2.29224653
              13.37550687                4.56788558               34.57836790                0.16020276                8.36400213               -3.67289310               -1.48694560               -0.49067110               10.45220616               -6.19207511
              14.45762429                4.48247591               34.52540998                0.60251679                4.24558424                0.42134260               -1.40992304                1.69746373                4.96025245                0.44685810
              15.46041855                4.36269366               34.37277741                0.97567831                0.27942635                0.16964465               -0.46598800               -0.00087115               -0.03930076               -0.17637073
               5.11570778                6.35526492               35.30263113                1.00000000               -0.05795408               -0.01748234                0.07484967               -0.00263264                0.14359703                0.32990729
               6.11512824                6.25054719               35.13126538                0.64945408               -0.09085535               -0.09296914                0.30192167                0.00585778                0.25706843               -0.18394936
               7.11389067                6.14575937               34.96201057                0.12417043                2.16251488               -1.36603984                0.52957483                0.24901158                4.52423121                3.19316744
               8.15837853                6.01234047               34.87596325                0.00010000                4.26246068               -2.61597372                0.21557116                0.46002875                7.94736529                5.56174422
               9.19913988                5.88199412               34.77965462                0.00010000                4.42988124               -2.02212733               -0.04428106               -0.50376328                8.10904291                3.49944773
              10.24697616                5.76508171               34.70082004                0.00010000                5.06942224               -1.45536013               -0.41027388               -0.28657814                9.11665579                1.99030488
              11.30052833                5.66622219               34.62940173                0.00010000                5.92353572               -1.64088043               -0.76874633               -0.10884764                9.54740939               -0.23531727
              12.36544687                5.58884314               34.56401538                0.00010000                7.64967293               -2.10378975               -1.04150104               -0.40973628                9.93684083               -2.62513406
              13.45352179                5.52359110               34.50490397                0.16297588               10.65856395               -3.40179384               -1.17039833               -0.35913656               12.93941590               -4.69973654
              14.57861815                5.48684093               34.50483076                0.54373420                6.40038385               -1.46556160               -1.43582212               -5.56992857                7.83666954               -7.76820505
              15.58152946                5.36415663               34.35087443                0.95029405                0.29113122                3.80601068               -0.49837268               -9.15272851                0.11961989               -7.06058165
               5.22077453                7.35514405               35.24942515                1.00000000               -0.04497665                0.26227601                0.04039459                1.46069785                0.07033615                3.90385136
               6.22032476                7.24963972               35.07482011                0.55142651                1.58793452               -0.90141575                0.26749146                0.75338457                4.07764097                4.27779418
               7.25253322                7.12010945               34.98021924                0.08210206                2.99858866               -2.04816568                0.06826700                0.25909327                6.90619841                5.69687659
               8.28029653                6.99094285               34.86605470                0.00010000                2.93587657               -1.67835682               -0.03515801               -0.83890763                6.47009920                3.87860888
               9.31125075                6.86683704               34.76575748                0.00010000                3.19065537               -1.22232057               -0.23510961               -1.19330663                7.33569998                2.90554555
              10.34410964                6.75273499               34.67221285                0.00010000                3.51145180               -0.94899652               -0.46190342               -1.30878519                7.83700940                1.37796218
              11.38147978                6.65380193               34.58529084                0.00010000                4.03354835               -0.92394275               -0.67840405               -1.39314854                8.18700065               -0.38447127
              12.42478061                6.56977707               34.50199723                0.00010000                4.44232828               -1.21982367               -0.81731923               -2.09744848                8.43138507               -2.49977440
              13.47032635                6.49984970               34.42290403                0.18205444                4.04397909               -1.24056339               -0.83387818               -3.74304699                7.48660564               -5.35953687
              14.50566019                6.45316468               34.32324123                0.51279753                2.62031155               -1.64637905               -0.55670230               -6.69279770                4.69859363              -12.07884639
              15.52273258                6.43881387               34.19083325                0.93584171                1.70723913                3.30541809               -0.01286383               -4.98340983                2.93195999              -12.51930419
               5.35593040                8.36051044               35.26905700                1.00000000                0.93001359               -0.04650679               -0.45687934                0.47194778                1.66129709                6.60080735
               6.36523053                8.23251887               35.11025137                0.50995416                1.09195082               -1.12705930               -0.24552455                0.75477737                2.69053719                6.94143918
               7.37776941                8.10479606               34.97261554                0.05661748                1.48211275               -1.05314370               -0.18273847               -0.46397202                4.62993061                4.26049668
               8.39487279                7.97877333               34.85387128                0.00010000                1.78560967               -0.87498718               -0.23833333               -1.16993606                5.85855161                3.30815037
               9.41348161                7.85754771               34.74276607                0.00010000                1.94813916               -0.64747251               -0.34169376               -1.56998606                6.50671901                2.18744854
              10.43383557                7.74610178               34.63909244                0.00010000                2.10708380               -0.43200260               -0.47286961               -1.62546952                6.97045659                1.00985788
              11.45562328                7.64774333               34.53943180                0.00010000                2.18072802               -0.31336888               -0.58429500               -1.64529287                7.09592096               -0.42271735
              12.47745013                7.56444667               34.44027132                0.00010000                1.98249786               -0.14845382               -0.62323535               -1.80223577                6.69909294               -2.22504494
              13.49527324                7.49877983               34.33429740                0.21398313                1.41739500                0.17483894               -0.51522537               -1.92648613                5.47988947               -4.75158382
              14.50579803                7.45391335               34.21195738                0.49861635                0.76448202                0.13832936               -0.20311855               -1.51531918                3.16799965               -7.12245192
              15.51056288                7.43026499               34.06084534                0.92629101                0.47648489               -1.21621116                0.34227225               -1.19988602                1.66498196               -9.01963265
               5.48619661                9.35421392               35.27128274                1.00000000                0.49380729               -0.40958594               -0.82660928               -0.08626586                1.06918290                4.52429149
               6.49113468                9.22709854               35.10574073                0.51922442                0.54013503               -0.29670432               -0.53695849               -0.43824878                2.08907868                3.95334176
               7.49699931                9.09904658               34.96079702                0.04024690                0.65057390               -0.30227175               -0.40491117               -0.92163659                3.87899299                3.24296079
               8.50414616                8.97344310               34.83155118                0.00010000                0.77616366               -0.26330861               -0.38199105               -1.33357133                5.18506113                2.32786112
               9.51252258                8.85388759               34.71356616                0.00010000                0.86292314               -0.14055079               -0.42446493               -1.49990930                6.02856887                1.55040953
              10.52140462                8.74409494               34.60225674                0.00010000                0.88532238               -0.00045799               -0.48746770               -1.43661575                6.44660287                0.69273647
              11.53022903                8.64753455               34.49372323                0.00010000                0.81473819                0.15556069               -0.52780094               -1.18198446                6.42264892               -0.32079214
              12.53769939                8.56680799               34.38290304                0.01421185                0.60504563                0.34866341               -0.49574189               -0.76053256                5.83830257               -1.58765393
              13.54232995                8.50334648               34.26341398                0.25779445                0.30846282                0.46169569               -0.34065088               -0.14519975                4.55836516               -3.04915834
              14.54386864                8.45593126               34.12751809                0.49885422                0.18508125                0.11713068               -0.01907183                0.30494740                2.54633706               -4.54965196
              15.54603157                8.41448965               33.96828881                0.92030991                0.21629252               -1.26163700                0.48098099                0.32767271                1.33802287               -5.73536615
               5.60843584               10.35231872               35.24880587                1.00000000                0.31970577                0.01992557               -1.05656240               -0.27545762                1.00951981                2.23645665
               6.61163290               10.22658478               35.08115376                0.55199511                0.22781371                0.08089050               -0.72232368               -0.50786514                1.95415063                1.96234408
               7.61299212               10.09875062               34.93243887                0.00837637                0.08637217                0.13302501               -0.55599040               -0.81972793                3.67684966                1.62049097
               8.61336034                9.97350716               34.79927075                0.00010000               -0.00802661                0.20058705               -0.50423501               -0.97128211                5.01364420                1.23618243
               9.61283158                9.85473669               34.67738969                0.00010000               -0.09520223                0.29941439               -0.51642581               -0.99873019                5.91637938                0.82115288
              10.61145630                9.74609262               34.56240662                0.00010000               -0.17805208                0.41338821               -0.54635193               -0.86947298                6.36435507                0.37697511
              11.60927054                9.65085455               34.44958980                0.00010000               -0.25143737                0.51633587               -0.54881818               -0.56653324                6.31350841               -0.14885722
              12.60642755                9.57141994               34.33361811                0.07057631               -0.30122845                0.57362515               -0.47982331               -0.08562436                5.68993127               -0.77850251
              13.60324597                9.50801375               34.20828640                0.31432860               -0.28368685                0.48826682               -0.29940071                0.45281613                4.41021523               -1.49526533
              14.60075381                9.45625596               34.06668184                0.50930435               -0.16232030                0.07315858                0.01975710                0.63654576                2.44420889               -2.22990618
              15.59999957                9.40503225               33.90217142                0.90888568               -0.07542468               -0.62496974                0.48845297                0.44156568                1.27523361               -3.02747966
               5.73215532               11.35461243               35.20479942                1.00000000                0.23901513                0.22937129               -1.14651015               -0.21766000                1.13813427                1.16720479
               6.73454548               11.22871635               35.03678420                0.81688478                0.07635258                0.21315630               -0.80814780               -0.35401006                2.11390798                0.96953067
               7.73368238               11.10170708               34.88818491                0.49858049               -0.29055119                0.29564535               -0.66047338               -0.49404919                3.87796955                0.81334632
               8.72873445               10.97745484               34.75511434                0.36873275               -0.68599238                0.39476819               -0.62657495               -0.55414884                5.26339433                0.62474351
               9.71996253               10.85987588               34.63362107                0.35834782               -1.04185702                0.51391909               -0.65287935               -0.54151257                6.24239319                0.41957131
              10.70789731               10.75236270               34.51933246                0.37153549               -1.31957406                0.62700885               -0.69036246               -0.45662935                6.77098793                0.19034606
              11.69357105               10.65786127               34.40745540                0.40725161               -1.45348061                0.70067240               -0.69185271               -0.27406001                6.79362085               -0.07585387
              12.67882770               10.57828049               34.29256326                0.55759217               -1.35104027                0.68605576               -0.61275096                0.00254221                6.23338888               -0.39188604
              13.66655024               10.51311182               34.16846403                0.68626188               -0.96233222                0.50980694               -0.41624773                0.28612386                5.00368420               -0.74791569
              14.65958105               10.45739443               34.02824714                0.77147638               -0.46199697                0.11384716               -0.08106245                0.32664580                2.96385268               -1.11821117
              15.65731030               10.40199025               33.86313940                0.95398408               -0.22707524               -0.30420019                0.38430616                0.19065526                1.70638648               -1.68357485
               4.76149571                1.41270767               36.55747720                1.00000000               -0.09841712               -0.05180801                0.19911292                0.03364368               -0.24429116                0.29039171
               5.76051154                1.30941054               36.39593225                1.00000000               -0.13538054               -0.12881438                0.44695309                0.03722911               -0.32520104                0.07976381
               6.75878810                1.20597693               36.23249882                1.00000000               -0.20902915               -0.20361850                0.69669788                0.03582091               -0.41234943               -0.00273733
               7.75633096                1.10244470               36.06909474                0.62892201               -0.28244762               -0.27869784                0.94585392                0.03754041               -0.31985630               -0.08264917
               8.75313915                0.99886465               35.90756089                0.70512813                5.13547315               -0.35696134                1.19546649                4.12183353                5.59393275               -0.28202215
               9.85904042                0.97683866               35.86266518                0.77995521                9.71141546               -4.56125012                0.28298953                3.32295718               11.35358040                0.15363855
              10.94736746                0.89138969               35.82107034                0.77170375                8.77956051               -4.13981533               -0.26568942                1.06613153               10.65014527                1.30083295
              12.03463163                0.78063026               35.77337250                0.86057350                9.01702589               -3.50247845               -1.52194692               -3.15952914                8.83659488                0.20915877
              13.12770797                0.60149053               35.73127536                1.00000000                4.88781217                0.72303164               -2.11045592               -3.17117555                4.18764724                0.28490396
              14.13238787                0.48941518               35.59866394                1.00000000                0.33002079                0.39582967               -1.18624233                0.25622146               -0.33025341               -0.07548042
              15.13430839                0.37642916               35.46602825                1.00000000                0.19205173                0.08486327               -0.17335280                0.19210581               -0.34575925               -0.38365764
               4.86512928                2.41218959               36.50504127                1.00000000               -0.08800820               -0.04673781                0.16712258               -0.00502116               -0.03999753                0.43425382
               5.86424920                2.30812239               36.34343722                1.00000000               -0.12500276               -0.12349462                0.41493583               -0.00085663               -0.05862515                0.14503407
               6.86262923                2.20394074               36.18121110                0.94167401               -0.19933503               -0.19845513                0.66371433               -0.00174118               -0.08339920               -0.01729725
               7.86026250                2.09965772               36.01902226                0.26190352               -0.27343630               -0.27357682                0.91239678               -0.00122567               -0.05236465               -0.15016519
               8.85716050                1.99529503               35.85749809                0.40738966                4.28724847               -0.35162632                1.16199981                2.01904589                6.17800393               -0.42334891
               9.94600747                1.93122616               35.82018191                0.50383248                9.94862339               -4.18957367                0.29322709                2.40645846               12.75345615                0.15213249
              11.05613297                1.84999154               35.79128590                0.42057796               10.09892243               -4.52138814               -0.07605727                1.59374373               13.35958258                1.04425212
              12.14798592                1.74560547               35.75034779                0.50802897                9.27353934               -3.65417551                0.62876395               -0.83757495               14.28169116               -0.10909726
              13.24160376                1.60872084               35.70671995                1.00000000                4.97474262                0.76809593               -2.55318304               -1.06197194                4.63613954                0.41516910
              14.24748077                1.49337348               35.57427765                1.00000000                0.38058568                0.41685425               -1.25333827                0.06292288                0.07638935               -0.06317111
              15.24921547                1.37727779               35.44197972                1.00000000                0.17346996                0.13156631               -0.25566095                0.02366356                0.03810778               -0.49717147
               4.96952969                3.41177292               36.45514556                1.00000000               -0.07864334               -0.03625924                0.13358530               -0.00475712                0.03412159                0.59100115
               5.96874325                3.30694064               36.29209163                1.00000000               -0.11558686               -0.11303997                0.38224951               -0.00028602                0.07615390                0.20650876
               6.96721795                3.20200783               36.12964592                0.65093768               -0.18955507               -0.18863744                0.63056834               -0.00089796                0.13933444               -0.07093724
               7.96495215                3.09697316               35.96778260                0.00010000               -0.26331612               -0.26346879                0.87768941               -0.00118534                0.11583098               -0.28931782
               8.96195163                2.99183212               35.80497257                0.00010000                4.37604671               -0.34157672                1.12713649                0.32232017                6.83666662               -0.42877994
              10.05247309                2.89304718               35.77782863                0.00010000               10.14556921               -3.95362257                0.23418865                1.46875629               13.82955074                0.46996619
              11.16486301                2.80096193               35.75511529                0.00010000               10.33388680               -4.62816607               -0.09759160                1.15029534               14.16769069               -0.81072939
              12.25915082                2.70754675               35.71749955                0.00010000                9.69187598               -3.52233037                0.69975599                1.85128994               15.77955338                0.12558219
              13.35870053                2.61685245               35.68548597                0.41986799                5.29692797                0.80478425               -2.69340501                1.39923363                5.45802727                0.52025266
              14.36508938                2.49775227               35.55033903                1.00000000                0.41362517                0.43554292               -1.33480379               -0.04957595                0.17940315                0.09804164
              15.36697303                2.37906049               35.41571739                1.00000000                0.18836528                0.20912715               -0.36276127               -0.00003541                0.15206394               -0.50339755
               5.07469869                4.41146441               36.40554283                1.00000000               -0.06901164               -0.02573582                0.10057769               -0.00434837                0.08189602                0.58022425
               6.07400857                4.30586159               36.24069794                1.00000000               -0.10599667               -0.10350013                0.35028134                0.00069858                0.16678555                0.15704290
               7.07257875                4.20016800               36.07733819                0.36677934               -0.17970350               -0.17963146                0.59946914                0.00139516                0.30270779               -0.18646778
               8.07041450                4.09438834               35.91515858                0.00010000               -0.25229350               -0.25550849                0.84658800               -0.00057410                0.46695033               -0.45188733
               9.06753288                3.98846350               35.75520704                0.00010000                4.79191457               -1.90004575                1.09155836                1.80079517                8.02519404                4.02042183
              10.16625279                3.85215370               35.74451805                0.00010000                9.85532143               -3.37985532                0.05258410                0.67123678               13.74470193                1.24828367
              11.26463931                3.75742821               35.70546724                0.00010000               10.14342038               -3.71800033               -0.49321853                1.21441895               11.80262182               -0.91083308
              12.36912120                3.67515887               35.66600310                0.00010000               10.73718003               -2.94820782               -1.45196867                2.63410558               12.33959670               -1.30849118
              13.47938291                3.62481653               35.66275138                0.17359939                5.75800072               -0.96400320               -2.31594227               -0.25570075                7.05775243               -3.39667103
              14.48428121                3.50208434               35.52878365                0.69503913                0.36077071                0.42553061               -1.41279755               -0.16215648                0.37772718                0.44980109
              15.48659833                3.38146033               35.39125878                1.00000000                0.23171130                0.22260739               -0.43128433               -0.02038025                0.19252871               -0.29625640
               5.18064835                5.41125820               36.35515993                1.00000000               -0.05947123               -0.01581954                0.06823137               -0.00428314                0.11051281                0.47488573
               6.18005364                5.30487064               36.18825721                0.80770874               -0.09646227               -0.09485785                0.31926810                0.00194999                0.22911950                0.02899026
               7.17871910                5.19841520               36.02353857                0.19679197               -0.17042353               -0.17272894                0.56912824                0.00369664                0.44519548               -0.38438629
               8.17664517                5.09186299               35.86092676                0.00010000                3.07415329               -1.62814763                0.81848719                0.62439230                5.23337737                3.03251001
               9.24020217                4.95383121               35.79210494                0.00010000                6.01439709               -2.94536289                0.28715419                1.59538587                9.30177664                5.91572630
              10.29693311                4.82545008               35.71831168                0.00010000                6.29720291               -2.11187447               -0.15235814                0.86873036                9.61799547                2.04441357
              11.36614623                4.72660192               35.66342868                0.00010000                7.37557564               -2.47990745               -0.72552833                1.00058526               10.26571881               -0.03211739
              12.44444462                4.64858259               35.61358859                0.00010000                8.02574095               -2.45644738               -1.24656009                1.28285048               10.15577796               -1.82328046
              13.52666105                4.59757238               35.56383833                0.14793218                8.03789129               -3.48536396               -1.44133530               -0.65221181                9.58121450               -5.50350925
              14.60520245                4.50626288               35.51140210                0.56416772                4.05761939                0.42221490               -1.36775375                1.54354284                4.49913176                0.51179029
              15.60781343                4.38351263               35.36845095                0.94756101                0.26109879                0.16976461               -0.43156145               -0.01316161               -0.04037249               -0.14848467
               5.28738814                6.41114802               36.30319484                1.00000000               -0.04975699               -0.00588342                0.03637127               -0.00291548                0.14445568                0.32921640
               6.28689057                6.30396444               36.13420821                0.63976706               -0.08639025               -0.08871959                0.28749919                0.00448628                0.25871878               -0.18364577
               7.28566034                6.19671342               35.96734247                0.12022883                2.02978829               -1.31272599                0.53952904                0.18107192                4.25409336                2.98200455
               8.32748634                6.06182539               35.87825694                0.00010000                4.00965887               -2.52370373                0.25129982                0.33049758                7.34788622                5.23699134
               9.36585351                5.92955624               35.77945320                0.00010000                4.16851740               -1.93265016                0.01331887               -0.63702699                7.39809936                3.39979786
              10.41085668                5.80991621               35.69699024                0.00010000                4.78324937               -1.35083841               -0.34361111               -0.42290518                8.24411057                2.05764871
              11.46151850                5.70783007               35.62187928                0.00010000                5.64755309               -1.52463990               -0.72116502               -0.22130201                8.62564208                0.03077090
              12.52380775                5.62602992               35.55375500                0.00010000                7.35699440               -2.03951378               -1.01828367               -0.50235382                9.04916339               -2.16496513
              13.60865839                5.55510925               35.49334903                0.15171028               10.27020361               -3.25268011               -1.13579833               -0.55152577               11.96367624               -4.23148348
              14.72921182                5.51052864               35.49073403                0.51671092                6.15885987               -1.34612971               -1.33772253               -5.52097247                7.24047808               -7.28274787
              15.73183559                5.38485563               35.34627729                0.92952281                0.26237676                3.75686649               -0.40991186               -8.92471264                0.10360751               -6.77000793
               5.39495720                7.41114053               36.24965660                1.00000000               -0.03792392                0.22299328                0.00463491                1.31524214                0.07055452                3.67582239
               6.39457796                7.30309625               36.07742556                0.54179945                1.47611937               -0.85978236                0.25521699                0.64137007                3.86504253                4.04000200
               7.42447959                7.17216068               35.98094411                0.07809522                2.79171652               -1.95465337                0.08516479                0.15377952                6.45411867                5.41807650
               8.45041229                7.04138892               35.86582815                0.00010000                2.74456082               -1.60020705                0.00154656               -0.90627707                5.95176078                3.77316665
               9.47937080                6.91517820               35.76359038                0.00010000                2.98944444               -1.15559991               -0.18408579               -1.25789086                6.68120793                2.92195245
              10.51020118                6.79843331               35.66777656                0.00010000                3.31178388               -0.88185112               -0.40909798               -1.36306947                7.09497953                1.55259164
              11.54560648                6.69610912               35.57862972                0.00010000                3.84585898               -0.86608634               -0.64341704               -1.44780511                7.40497915               -0.05934000
              12.58711836                6.60779232               35.49386257                0.00010000                4.27626669               -1.15408833               -0.81669996               -2.16917219                7.68197418               -2.05929399
              13.63113182                6.53251878               35.41462620                0.17055505                3.89591295               -1.15382704               -0.84381870               -3.79960127                6.90871806               -4.84871235
              14.66503662                6.47934029               35.31787037                0.49095407                2.47666910               -1.46367022               -0.53125974               -6.60173989                4.37796615              -11.35448542
              15.68066520                6.45864996               35.19111395                0.91882696                1.56285783                3.33811466                0.06702686               -4.90436962                2.71684688              -12.09199480
               5.52978155                8.41560788               36.26439119                1.00000000                0.89162770               -0.07667408               -0.46750608                0.39372039                1.55913988                6.17794989
               6.53869782                8.28676879               36.10777787                0.50282143                1.03308557               -1.08102666               -0.23946489                0.63567114                2.49521787                6.60192413
               7.55044326                8.15762035               35.97084476                0.05295539                1.38227224               -1.00326237               -0.15943534               -0.53152042                4.26908827                4.12629698
               8.56634327                8.02982125               35.85160839                0.00010000                1.66040217               -0.83100495               -0.19973798               -1.20993819                5.36789746                3.27706796
               9.58365130                7.90644424               35.73950898                0.00010000                1.81605533               -0.60768362               -0.29351616               -1.59206860                5.92477107                2.27627925
              10.60266438                7.79227919               35.63452312                0.00010000                1.97760437               -0.39785501               -0.42454908               -1.64485836                6.32538993                1.21796734
              11.62320339                7.69050834               35.53370417                0.00010000                2.06751344               -0.28237258               -0.54892802               -1.67567691                6.43804728               -0.09890550
              12.64401464                7.60294815               35.43408732                0.00010000                1.89575024               -0.11589878               -0.61140788               -1.85926690                6.10306250               -1.80786208
              13.66111839                7.53203271               35.32917709                0.20248951                1.35155962                0.22143714               -0.52796144               -2.00583701                5.03459404               -4.27720899
              14.67104584                7.48125523               35.21005928                0.47932960                0.70052213                0.22705552               -0.20617285               -1.57342713                2.94334349               -6.70994295
              15.67512884                7.45161792               35.06461511                0.91138471                0.40830002               -1.08275661                0.38376785               -1.21016492                1.56767318               -8.71757999
               5.66050980                9.40960705               36.26296413                1.00000000                0.47691208               -0.38377734               -0.82099064               -0.10143964                0.97563544                4.23401972
               6.66527892                9.28147572               36.10038408                0.51487328                0.51434620               -0.29127868               -0.51938311               -0.45433196                1.90242749                3.77612770
               7.67079672                9.15209543               35.95682155                0.03912649                0.60553585               -0.29281049               -0.37471610               -0.93759355                3.53845802                3.16309541
               8.67738963                9.02476882               35.82785611                0.00010000                0.71373844               -0.25034002               -0.34049068               -1.33904354                4.72861253                2.34405008
               9.68507149                8.90302453               35.70948003                0.00010000                0.79251428               -0.12987093               -0.37537452               -1.49999382                5.49386080                1.65233359
              10.69323992                8.79047621               35.59755089                0.00010000                0.81762472                0.00664196               -0.43686931               -1.44029513                5.87462543                0.88130124
              11.70142398                8.69046167               35.48859691                0.00010000                0.75843669                0.15896742               -0.48331152               -1.20324605                5.86103810               -0.05114583
              12.70840865                8.60547434               35.37806618                0.00905924                0.56420075                0.35266071               -0.46406777               -0.81329638                5.34536039               -1.25448039
              13.71270800                8.53694752               35.26011246                0.24761243                0.27871061                0.47973401               -0.32142484               -0.23174066                4.19774736               -2.69884862
              14.71398286                8.48388140               35.12749500                0.48049812                0.15142611                0.16164606               -0.00443246                0.22565444                2.36173082               -4.24525296
              15.71573652                8.43699483               34.97343522                0.90647080                0.17536549               -1.17996042                0.52165747                0.28118120                1.24664466               -5.53623762
               5.78401542               10.40793234               36.23821027                1.00000000                0.31073817                0.03181533               -1.04134531               -0.26687837                0.91187763                2.08026834
               6.78712280               10.28094321               36.07395875                0.54978525                0.21914324                0.07528246               -0.69792710               -0.49605810                1.75859696                1.87878681
               7.78839829               10.15176414               35.92696150                0.00766149                0.07552470                0.12227302               -0.52112542               -0.80745374                3.32545936                1.59281223
               8.78863330               10.02481445               35.79435794                0.00010000               -0.02271264                0.18811994               -0.45953084               -0.96151690                4.55472048                1.25848239
               9.78794403                9.90384683               35.67238938                0.00010000               -0.11059821                0.28427087               -0.46451430               -0.99106469                5.39530904                0.89187593
              10.78642133                9.79241203               35.55712426                0.00010000               -0.19018491                0.39457235               -0.49142977               -0.86858689                5.82612407                0.49467934
              11.78414034                9.69368769               35.44428413                0.00010000               -0.25792342                0.49504451               -0.49566980               -0.58088574                5.80534533                0.01221153
              12.78126287                9.61000137               35.32899637                0.06933268               -0.30319045                0.55408083               -0.43189565               -0.12342443                5.26011946               -0.58681958
              13.77807653                9.54162739               35.20547690                0.30815106               -0.28756239                0.47822302               -0.25649875                0.39509571                4.10088863               -1.29837367
              14.77551162                9.48448815               35.06710944                0.49103992               -0.17754683                0.08311123                0.06572526                0.58485021                2.28404211               -2.06534444
              15.77452559                9.42801871               34.90741661                0.89542734               -0.09860270               -0.60394239                0.55107581                0.41148173                1.19687329               -2.92745244
               5.90915047               11.41024336               36.19330581                1.00000000                0.23754806                0.23110207               -1.12852923               -0.21269447                0.99868860                1.06869791
               6.91152595               11.28298137               36.02873030                0.81678510                0.08129711                0.20381501               -0.78151014               -0.34480871                1.86570407                0.92353979
               7.91077641               11.15454089               35.88165995                0.49760108               -0.27246702                0.27767514               -0.62319050               -0.48469510                3.46543468                0.79707937
               8.90607661               11.02853122               35.74897162                0.36889857               -0.65619001                0.37167672               -0.57954930               -0.54721603                4.75131431                0.63538127
               9.89765261               10.90870995               35.62724405                0.35849569               -1.00246449                0.48631230               -0.59907638               -0.53732036                5.68168354                0.45561945
              10.88602732               10.79836766               35.51259172                0.37131642               -1.27178395                0.59556238               -0.63416156               -0.45677087                6.21189683                0.25131654
              11.87221693               10.70036256               35.40069472                0.40634667               -1.40134284                0.66748735               -0.63785657               -0.28292530                6.28760277                0.00763505
              12.85800046               10.61655596               35.28658371                0.55826389               -1.30469024                0.65545907               -0.56387734               -0.01876922                5.82891475               -0.29255325
              13.84612313               10.54651198               35.16445464                0.68463583               -0.93559581                0.48845941               -0.37121333                0.25404309                4.73669232               -0.64676481
              14.83928855               10.48554362               35.02764036                0.76231526               -0.46090464                0.10554682               -0.03383699                0.29789284                2.84251674               -1.03171825
              15.83690503               10.42491598               34.86730718                0.94724504               -0.23835119               -0.31027287                0.44631115                0.17518066                1.65543349               -1.63536434
               4.91937048                1.46819634               37.55917653                1.00000000               -0.08514150               -0.03479019                0.14096345                0.03901282               -0.24290892                0.28869902
               5.91851906                1.36285915               37.40025454                1.00000000               -0.12623715               -0.12088458                0.41785091                0.04216065               -0.32377920                0.07917932
               6.91684574                1.25739617               37.23945444                1.00000000               -0.20827341               -0.20425665                0.69535770                0.04076288               -0.41159133               -0.00330053
               7.91435360                1.15184723               37.07868473                0.63071646               -0.29034379               -0.28783993                0.97300184                0.04241026               -0.32013629               -0.08364158
               8.91103886                1.04626133               36.91979242                0.70088196                5.02454336               -0.37498431                1.25140140                4.06349242                4.91534010               -0.28330193
              10.01484446                1.02097958               36.86398261                0.77011213                9.27166234               -4.61209276                0.13504210                3.59095600                9.93843012                0.04558997
              11.09647211                0.93849519               36.81847862                0.76263809                6.83778561               -4.00672692               -0.34061443                2.14407141                8.85663014                0.55015466
              12.15160018                0.79917404               36.75744845                0.85370876                7.69859548               -3.63894950               -1.01761187                6.97463303                7.20715212                3.08996584
              13.25044402                0.63054562               36.71136710                1.00000000                5.21076315                0.62474900               -1.97583628               -2.14175008                3.34429140               -0.19979996
              14.25581544                0.51337133               36.58703864                1.00000000                0.36327044                0.37293105               -1.09690643                0.20661352               -0.52122727                0.05244247
              15.25770943                0.39673930               36.46459665                1.00000000                0.18939873                0.08739385               -0.19231482                0.19904221               -0.42085769               -0.45258122
               5.02509780                2.46784844               37.50643825                1.00000000               -0.07570412               -0.03054771                0.11233941               -0.00423849               -0.03975833                0.43206005
               6.02434076                2.36165031               37.34745804                1.00000000               -0.11692366               -0.11619928                0.38933673               -0.00022836               -0.05847675                0.14427285
               7.02275933                2.25535360               37.18786102                0.95342017               -0.19978186               -0.19985736                0.66659632               -0.00071195               -0.08373231               -0.01791761
               8.02034512                2.14896883               37.02830490                0.26859573               -0.28258573               -0.28358755                0.94417356               -0.00038094               -0.05306934               -0.15150841
               9.01710761                2.04251149               36.86942229                0.40772488                4.21459865               -0.37037307                1.22259280                1.94441301                5.56435415               -0.42479210
              10.10463709                1.97485865               36.82248845                0.49997778               10.58539901               -4.23489145                0.22140706                2.74720166               11.28662479                0.09854263
              11.22881559                1.89842792               36.78578726                0.41987025               13.53420983               -5.36507670               -0.66737692                1.62583636               12.86128624                0.55580335
              12.37532129                1.76278455               36.76945554                0.50799639                7.15561406               -1.70520378                0.93176337                4.32456507               11.24231093                1.44643365
              13.37192787                1.63679311               36.67975139                1.00000000               -0.02682775                0.67918071               -2.21351746               -0.13299330                1.82391953                0.10881276
              14.37478473                1.51710064               36.56255124                1.00000000                0.22020037                0.41688132               -1.18658861                0.05563154                0.14321822               -0.01340499
              15.37633188                1.39761324               36.43938496                1.00000000                0.15471447                0.13272248               -0.29771114                0.05083341               -0.09692195               -0.56240061
               5.13168198                3.46758539               37.45622702                1.00000000               -0.06726447               -0.02164297                0.08257288               -0.00414166                0.03391826                0.58878168
               6.13100933                3.36053517               37.29580388                1.00000000               -0.10845042               -0.10693757                0.36018251                0.00011070                0.07543699                0.20602961
               7.12951297                3.25339902               37.13598664                0.66760804               -0.19106190               -0.19136195                0.63754327               -0.00001719                0.13729250               -0.07046167
               8.12718810                3.14617548               36.97674884                0.00010000               -0.27378350               -0.27495893                0.91470036               -0.00024551                0.11354144               -0.28916737
               9.12403730                3.03885387               36.81658000                0.00010000                4.33419828               -0.36175804                1.19310927                0.24205510                6.21096760               -0.42993635
              10.21387206                2.93628175               36.77959075                0.00010000               10.85128200               -4.00436441                0.16509515                0.73854370               12.32672784                0.43386519
              11.34106294                2.83119366               36.74844198                0.00010000               14.29271116               -5.30626746               -0.80377592                0.97236657               13.79365836               -0.58390501
              12.49972628                2.76506997               36.73922866                0.00010000                7.62025581               -2.21640333                1.06734645               -2.98788840               12.59204669               -1.59262564
              13.49346806                2.64412924               36.65637834                0.41754002               -0.18091714                0.69850375               -2.42330352               -0.14780613                2.47232084                0.73575649
              14.49610794                2.52170896               36.53778747                1.00000000                0.21164220                0.46231905               -1.29156812               -0.04980615                0.29985325               -0.00908551
              15.49770090                2.39939375               36.41191546                1.00000000                0.15929583                0.22459050               -0.41957238               -0.00398028               -0.00139431               -0.58207568
               5.23911541                4.46741558               37.40631253                1.00000000               -0.05860731               -0.01229931                0.05308242               -0.00413057                0.08176288                0.57909948
               6.23852934                4.35951155               37.24410571                1.00000000               -0.09983716               -0.09832584                0.33132563                0.00036290                0.16609770                0.15758980
               7.23711867                4.25152637               37.08337990                0.36861093               -0.18219853               -0.18303872                0.60920265                0.00128776                0.30037038               -0.18439202
               8.23488537                4.14346966               36.92382651                0.00010000               -0.26381121               -0.26806610                0.88648851               -0.00031294                0.46268303               -0.44886559
               9.23184244                4.03527633               36.76648985                0.00010000                4.60914065               -1.87529545                1.16287281                1.49911329                7.33859454                3.62998633
              10.32706818                3.89477137               36.74477737                0.00010000                9.38161324               -3.30117361                0.07169870               -0.08701864               12.44045313                1.28348855
              11.41947471                3.79230257               36.70130469                0.00010000                8.77798809               -3.08142523               -0.41268527                0.00389105               10.32773347               -0.65026383
              12.50262794                3.71845648               36.65166504                0.00010000                9.64290256               -3.87173046               -1.05274673               -2.41077547               10.65839602               -2.63144453
              13.61233276                3.65076319               36.64062966                0.15841171                5.79480785               -0.84557480               -2.27179926               -0.81299368                6.04987158               -2.75240779
              14.61852410                3.52634703               36.51454979                0.65581001                0.42749657                0.45261857               -1.41859650               -0.08858872                0.24024695                0.40013379
              15.62088269                3.40210505               36.38683628                1.00000000                0.23585919                0.26558534               -0.52427053               -0.03357159                0.19466452               -0.35608263
               5.34740742                5.46733940               37.35562462                1.00000000               -0.05016121               -0.00315044                0.02418819               -0.00433735                0.11090719                0.47478421
               6.34690581                5.35856865               37.19136712                0.79813708               -0.09133974               -0.09028173                0.30303808                0.00122507                0.22896289                0.02985672
               7.34558063                5.24973825               37.02928609                0.19325014               -0.17369655               -0.17662195                0.58124598                0.00253218                0.44370917               -0.38178586
               8.34343188                5.14081416               36.86931015                0.00010000                2.85686147               -1.56453765                0.85920599                0.49749336                4.83714988                2.76840219
               9.40271785                5.00134796               36.79525526                0.00010000                5.58367825               -2.83858417                0.36050205                1.29851277                8.43422714                5.48433335
              10.45510544                4.87025828               36.71722624                0.00010000                5.73688951               -1.90007825               -0.04965222                0.52906525                8.61197496                2.06801129
              11.51745564                4.76956515               36.65644219                0.00010000                6.89723583               -2.03330033               -0.58048210                0.70893919                9.12278771                0.06111721
              12.59305016                4.68763536               36.60182928                0.00010000                7.59309976               -2.65933126               -1.13742977                1.49925190                8.97941989               -1.43445738
              13.66931764                4.62721774               36.54954119                0.13487437                7.49720733               -3.12948167               -1.43084045               -0.66952532                8.70334557               -4.90150591
              14.74299431                4.53076133               36.49805491                0.52899148                3.80978880                0.41853428               -1.32468856                1.47315406                4.08570531                0.62306260
              15.74551342                4.40470546               36.36414618                0.92664120                0.25191111                0.19942088               -0.47942521               -0.02396657               -0.04877425               -0.13482274
               5.45657017                6.46735257               37.30335855                1.00000000               -0.04151768                0.00623762               -0.00428967               -0.00265106                0.14475645                0.32970143
               6.45615499                6.35770592               37.13701536                0.62787805               -0.08231842               -0.08492773                0.27444194                0.00368246                0.25940243               -0.18344921
               7.45492380                6.24799393               36.97280115                0.11568976                1.85352662               -1.23847830                0.55373144                0.10526740                3.98559710                2.77449155
               8.49322552                6.11217890               36.88098925                0.00010000                3.67223885               -2.38797149                0.30484097                0.18821576                6.74918872                4.91644707
               9.52836858                5.97850464               36.77992100                0.00010000                3.81033837               -1.80638205                0.09571309               -0.76002291                6.68162186                3.30967337
              10.56943229                5.85676980               36.69394782                0.00010000                4.39539178               -1.20021696               -0.24376540               -0.55018157                7.35625939                2.11503559
              11.61627641                5.75163657               36.61497843                0.00010000                5.27640488               -1.43874573               -0.61271778               -0.27311141                7.63512350                0.28852115
              12.67496039                5.66526986               36.54364971                0.00010000                6.97699338               -1.96882495               -1.04149678               -0.70447816                8.02644208               -1.78955150
              13.75581628                5.58817356               36.48218801                0.13942658                9.77695366               -3.00851715               -1.18491911               -0.76884377               11.07960815               -3.83160436
              14.87049946                5.53471771               36.47807631                0.48963053                5.83494114               -1.20058089               -1.07809161               -5.41713138                6.74974729               -6.83787200
              15.87251510                5.40609347               36.34267620                0.91129995                0.20156409                3.69653443               -0.26990261               -8.60897774                0.07115131               -6.49485873
               5.56664770                7.46746415               37.24951785                1.00000000               -0.03095999                0.17046643               -0.03287893                1.12907710                0.07093529                3.46453155
               6.56633810                7.35687009               37.07992445                0.53163973                1.32826441               -0.80535469                0.24548932                0.50154283                3.65742193                3.81404093
               7.59321299                7.22496868               36.98192254                0.07357475                2.51736866               -1.82746868                0.11898595                0.02907479                6.01069248                5.14741808
               8.61668548                7.09305473               36.86608563                0.00010000                2.48567529               -1.49460837                0.06238354               -0.97036830                5.43603864                3.66858725
               9.64292650                6.96522032               36.76207577                0.00010000                2.71422053               -1.06605023               -0.10206507               -1.30535328                6.02240131                2.93166053
              10.67096989                6.84625394               36.66403089                0.00010000                3.02834316               -0.80415023               -0.31730508               -1.38570989                6.32281079                1.71301742
              11.70349336                6.74079024               36.57242250                0.00010000                3.57268590               -0.79192651               -0.57528795               -1.47257339                6.54228461                0.26075323
              12.74242361                6.64825886               36.48566323                0.00010000                4.04997755               -1.05920220               -0.82093490               -2.23323811                6.81237729               -1.60804208
              13.78449291                6.56704740               36.40602766                0.15798021                3.71540794               -1.02120796               -0.95586797               -3.86661323                6.20508493               -4.31141078
              14.81673176                6.50674971               36.31261603                0.46891302                2.30447170               -1.23139258               -0.61331420               -6.48419168                4.01114387              -10.80721520
              15.83058235                6.47863615               36.19217379                0.90321815                1.38505813                3.37493261                0.10947019               -4.79687737                2.52514970              -11.73863623
               5.70033983                8.47076190               37.25970688                1.00000000                0.83414898               -0.11944621               -0.45995240                0.29477835                1.45930301                5.78686476
               6.70868132                8.34159883               37.10546207                0.49546333                0.94904152               -1.02149378               -0.21373981                0.48351820                2.30294203                6.28144111
               7.71932066                8.21144455               36.96942683                0.05086274                1.24426018               -0.93884661               -0.11205012               -0.61143202                3.91272850                3.99774049
               8.73356652                8.08228673               36.84987652                0.00010000                1.48708199               -0.77400879               -0.13171582               -1.24432299                4.87981408                3.24495023
               9.74906230                7.95718364               36.73689574                0.00010000                1.62908253               -0.55832284               -0.21138595               -1.59107042                5.33708140                2.35859408
              10.76614817                7.84068680               36.63060146                0.00010000                1.78788629               -0.35670561               -0.33949241               -1.62876150                5.65548749                1.42044878
              11.78482002                7.73579804               36.52845324                0.00010000                1.89451455               -0.24292817               -0.47971738               -1.65799212                5.72413487                0.23484935
              12.80403846                7.64408581               36.42804316                0.00010000                1.75865681               -0.07247593               -0.58439441               -1.86906020                5.40973476               -1.34240976
              13.81999316                7.56774940               36.32373817                0.18952281                1.25942074                0.30111492               -0.55964855               -2.08163945                4.48651009               -3.72959924
              14.82922688                7.51008986               36.20783392                0.45985581                0.64057626                0.36131657               -0.31907337               -1.65542696                2.63212416               -6.20105282
              15.83280469                7.47359212               36.06852070                0.89736509                0.35778078               -0.88363741                0.30343551               -1.22469068                1.39682195               -8.36208037
               5.83086942                9.46507523               37.25486292                1.00000000                0.44563964               -0.35897452               -0.78238152               -0.12167004                0.88440099                3.96549129
               6.83532582                9.33644022               37.09535306                0.51050165                0.47135118               -0.28922611               -0.47139369               -0.47555907                1.71890625                3.61067575
               7.84029644                9.20619175               36.95330270                0.03762320                0.53670583               -0.28380394               -0.31328183               -0.95421089                3.20207766                3.08742122
               8.84605993                9.07757455               36.82474137                0.00010000                0.62042919               -0.23627134               -0.26553879               -1.33387727                4.27466664                2.35902678
               9.85270503                8.95405386               36.70605867                0.00010000                0.68601635               -0.11867244               -0.29061616               -1.47727867                4.95577988                1.75096380
              10.85978026                8.83911983               36.59351936                0.00010000                0.71147373                0.01292880               -0.34984630               -1.40931663                5.28787064                1.06995602
              11.86693450                8.73593167               36.48405700                0.00010000                0.66553904                0.16014636               -0.40541087               -1.18125864                5.26755866                0.23277089
              12.87309104                8.64680934               36.37362169                0.00218437                0.49607876                0.35401001               -0.40794372               -0.82316337                4.80496272               -0.88167202
              13.87685608                8.57306970               36.25698548                0.23546469                0.23447298                0.49773480               -0.29721794               -0.28378943                3.77748060               -2.27147229
              14.87778050                8.51397605               36.12742944                0.46194510                0.11139657                0.23569257                0.00323685                0.15808872                2.13712146               -3.85565983
              15.87908401                8.46096340               35.97872196                0.89312329                0.13035083               -1.04904389                0.52950795                0.22463635                1.14596154               -5.28833862
               5.95517645               10.46358241               37.22797896                0.99758492                0.28771666                0.03600467               -0.98298006               -0.25627610                0.81676566                1.93600416
               6.95805362               10.33581430               37.06719522                0.54756295                0.19628281                0.06019086               -0.63552595               -0.48171669                1.56691904                1.80101665
               7.95910211               10.20576847               36.92201636                0.00664052                0.04866250                0.10300077               -0.44916333               -0.78998425                2.97954778                1.56677850
               8.95902687               10.07756131               36.79008013                0.00010000               -0.05653277                0.16802860               -0.37679888               -0.94207937                4.09997247                1.27990746
               9.95797145                9.95481019               36.66809940                0.00010000               -0.14714197                0.26125340               -0.37346875               -0.96724322                4.87420741                0.96120914
              10.95608403                9.84094537               36.55257802                0.00010000               -0.22330555                0.36671432               -0.39742031               -0.84524517                5.28082833                0.61390920
              11.95350534                9.73900096               36.43967640                0.00010000               -0.28234272                0.46305635               -0.40590616               -0.56913765                5.28169029                0.18255427
              12.95043717                9.65116601               36.32498020                0.06564868               -0.31773352                0.52226982               -0.35375260               -0.13709206                4.80738710               -0.37221646
              13.94715067                9.57770409               36.20315642                0.29948873               -0.29711112                0.45756691               -0.19334740                0.35045303                3.77006707               -1.06469627
              14.94449495                9.51480371               36.06799634                0.47274504               -0.19139826                0.08610952                0.11457099                0.53527499                2.11215819               -1.85437299
              15.94332270                9.45261124               35.91319294                0.88217780               -0.11722466               -0.57307958                0.59456860                0.38081889                1.11242063               -2.79370080
               6.08128011               11.46579532               37.18222883                1.00000000                0.22253088                0.22129132               -1.06259664               -0.20476274                0.86454929                0.97689367
               7.08350542               11.33764404               37.02115400                0.81652001                0.07348224                0.18297323               -0.71223963               -0.33199768                1.62474550                0.88023160
               8.08274975               11.20825177               36.87572110                0.49646627               -0.26643943                0.24832926               -0.54292673               -0.47068068                3.06186063                0.78134921
               9.07817663               11.08093513               36.74352335                0.36901367               -0.63868286                0.33738188               -0.48716425               -0.53366553                4.24582979                0.64529375
              10.06997610               10.95927893               36.62163954                0.35862701               -0.97460240                0.44687406               -0.49724913               -0.52358588                5.12224904                0.49084905
              11.05868458               10.84645412               36.50664923                0.37109762               -1.23224949                0.55087432               -0.52827397               -0.44425095                5.64672651                0.31292189
              12.04533111               10.74519280               36.39469827                0.40545158               -1.35192564                0.61918385               -0.53479130               -0.27739210                5.76785944                0.09579335
              13.03164607               10.65725474               36.28128571                0.55748968               -1.25518337                0.60887247               -0.46994975               -0.02769866                5.40647383               -0.18274897
              14.02022744               10.58222104               36.16103976                0.68159373               -0.90336103                0.45169432               -0.29017964                0.22985194                4.45238933               -0.52830573
              15.01357885               10.51569824               36.02757040                0.75321245               -0.45710599                0.08945249                0.03554350                0.27242841                2.71087050               -0.93001865
              16.01108532               10.44950181               35.87206563                0.94049293               -0.24935281               -0.31094353                0.50803246                0.15661888                1.59888082               -1.57440194
               5.07448152                1.52395821               38.56029647                1.00000000               -0.07234791               -0.01779060                0.08351088                0.04419137               -0.24252278                0.28760993
               6.07375804                1.41658711               38.40428927                1.00000000               -0.11777221               -0.11285996                0.38948992                0.04686385               -0.32377365                0.07873537
               7.07212608                1.30909777               38.24640597                1.00000000               -0.20838961               -0.20475695                0.69540721                0.04538689               -0.41221602               -0.00355502
               8.06959025                1.20153154               38.08855478                0.63376557               -0.29890042               -0.29680929                1.00114601                0.04701553               -0.32101840               -0.08394608
               9.06614807                1.09393888               37.93258892                0.69848103                4.47662879               -0.39272695                1.30782307                3.77195898                4.19757810               -0.28374989
              10.15912283                1.06073879               37.86536603                0.76204316                8.24430757               -4.31499161                0.42986188                3.31704643                8.20642003               -0.20381919
              11.23103422                0.96777549               37.81425805                0.75461001                6.33816813               -3.66312490               -0.25191021                1.41956827                7.27526429               -0.68574846
              12.28588619                0.81841539               37.75302026                0.84811054                6.69846944               -2.56614542               -0.57957218                3.94570475                6.39865631                3.85876405
              13.36500361                0.66072594               37.69175864                1.00000000                4.14237951                0.51599121               -1.77511623               -1.95054345                2.26364355                0.07655995
              14.36873378                0.53943884               37.57672581                1.00000000                0.28858068                0.29177115               -0.99671831                0.05152723               -0.49824128                0.00926364
              15.37077522                0.41780091               37.46218196                1.00000000                0.20414441                0.09100519               -0.29879405                0.11964342               -0.46080841               -0.42739725
               5.18229454                2.52378030               38.50728806                1.00000000               -0.06376354               -0.01419641                0.05789951               -0.00353846               -0.03988477                0.43041792
               6.18165690                2.41545851               38.35122395                1.00000000               -0.10934027               -0.10867664                0.36401672                0.00021165               -0.05893942                0.14357155
               7.18010773                2.30705020               38.19454303                0.96573960               -0.20085267               -0.20090248                0.66998515               -0.00011492               -0.08462454               -0.01818945
               8.17763985                2.19856344               38.03790574                0.27572558               -0.29218483               -0.29316701                0.97592478                0.00003920               -0.05395812               -0.15180842
               9.17426403                2.09001161               37.88194994                0.40843880                3.88675699               -0.38865251                1.28268923                1.81032123                4.89706345               -0.42509720
              10.25537499                2.01758887               37.82461005                0.49649700                9.60637828               -4.06516095                0.45062552                2.45777327                9.43764540                0.01370026
              11.36639160                1.93114424               37.77793836                0.42018006               11.17465109               -4.70045429               -0.40588228                1.26145585               10.34122673               -0.44284301
              12.47886801                1.79275394               37.76898306                0.51032340                5.92974255               -1.24653290               -0.62612281                2.59554101                5.00894647                2.28465660
              13.48498645                1.66588586               37.66244960                1.00000000                0.59217793                0.49816802               -1.61881654               -0.29064293                0.29481319                0.17968223
              14.49071157                1.54235655               37.55054588                1.00000000                0.43115676                0.30665795               -1.15613925               -0.01796737               -0.01227738               -0.04070912
              15.49360959                1.41871096               37.43602549                1.00000000                0.28980186                0.10833710               -0.40644065                0.03113783               -0.07553542               -0.55124184
               5.29105434                3.52367428               38.45679702                1.00000000               -0.05619627               -0.00657511                0.03141306               -0.00341836                0.03368230                0.58696296
               6.29049238                3.41441357               38.29929528                1.00000000               -0.10177500               -0.10041769                0.33806381                0.00058455                0.07482957                0.20539717
               7.28901884                3.30507972               38.14239679                0.68439970               -0.19313805               -0.19347443                0.64444626                0.00061243                0.13598916               -0.07020480
               8.28662962                3.19566820               37.98607661                0.00010000               -0.28448869               -0.28568624                0.95045386                0.00022384                0.11219396               -0.28874743
               9.28332907                3.08616583               37.82883475                0.00010000                4.02580234               -0.38118243                1.25726919                0.14286275                5.52804631               -0.43020916
              10.36714566                2.97943557               37.78113053                0.00010000                9.88846008               -3.87004440                0.39325949                0.62362987               10.39921129                0.43014382
              11.48109827                2.87376640               37.73903977                0.00010000               11.79548645               -4.73607551               -0.48681973                0.59819355               11.29025372                0.14164995
              12.60305539                2.79348473               37.73884648                0.00010000                6.42449341               -1.64122913               -0.71876672               -1.94904832                5.83159043               -3.09231331
              13.60958814                2.67068930               37.63701990                0.41465483                0.62469656                0.53598327               -1.82688823                0.22982021                0.80318790                0.50404276
              14.61554932                2.54557200               37.52450767                1.00000000                0.45505098                0.37315106               -1.29316091                0.07231584                0.15470288               -0.04588499
              15.61868916                2.41996765               37.40732594                1.00000000                0.31398322                0.16984999               -0.50515259                0.05501851                0.00827689               -0.62758013
               5.40074758                4.52364880               38.40660448                1.00000000               -0.04844270                0.00167910                0.00510651               -0.00350640                0.08161342                0.57801016
               6.40026315                4.41345015               38.24732446                1.00000000               -0.09411120               -0.09277252                0.31237956                0.00054817                0.16563958                0.15766243
               7.39886536                4.30318071               38.08952225                0.36972929               -0.18524722               -0.18607450                0.61935558                0.00154896                0.29905307               -0.18327097
               8.39655821                4.19284972               37.93288835                0.00010000               -0.27557185               -0.27999478                0.92564693               -0.00016881                0.46043113               -0.44720285
               9.39335392                4.08238796               37.77846450                0.00010000                4.18444028               -1.80395543                1.23112375                1.24899068                6.65037050                3.24830866
              10.48024701                3.94018798               37.74595203                0.00010000                8.54761924               -3.08978593                0.27531756               -0.25626086               11.00095670                1.43406140
              11.56430630                3.83642273               37.69721354                0.00010000                8.13585641               -2.98079393               -0.29965850                0.13210244                9.06837883                0.08357604
              12.64296414                3.75992936               37.64494817                0.00010000                8.65946436               -3.27879768               -0.73425076               -1.59692954                9.40626843               -3.41644174
              13.73749559                3.67660552               37.61731540                0.14432915                4.99576970               -0.63526922               -2.25026714               -0.75977962                4.84759334               -2.36957111
              14.74287954                3.54981957               37.50041172                0.62630333                0.42115289                0.48128094               -1.45865822                0.11323393                0.24256279                0.39535309
              15.74591865                3.42210796               37.38077337                1.00000000                0.30391125                0.25043038               -0.64270873                0.02715111                0.18907678               -0.41118215
               5.51138151                5.52370786               38.35564369                1.00000000               -0.04100741                0.01000106               -0.02070152               -0.00387041                0.11103483                0.47454418
               6.51097143                5.41255812               38.19431797                0.78806266               -0.08656260               -0.08560148                0.28725324                0.00116165                0.22874763                0.03034426
               7.50965025                5.30135823               38.03516349                0.18930261               -0.17762232               -0.18069553                0.59462402                0.00216080                0.44267128               -0.38023123
               8.50741899                5.19006830               37.87811088                0.00010000                2.56601823               -1.47354327                0.90130992                0.37602764                4.45218156                2.51186972
               9.56097062                5.05008672               37.79931498                0.00010000                5.02833485               -2.67293786                0.47144204                1.03725019                7.58462813                5.06657739
              10.60798568                4.91763985               37.71731864                0.00010000                5.15141628               -1.73878522                0.09610719                0.33706150                7.68431047                2.12917738
              11.66399894                4.81415052               37.65181904                0.00010000                6.14741648               -1.94012755               -0.38458666                0.52408562                8.12481713                0.15928154
              12.73093401                4.72790878               37.59083999                0.00010000                7.02516921               -2.67622091               -0.72627156                0.89981297                7.91977730               -1.49468913
              13.80450233                4.65798392               37.53522152                0.12188863                7.06887751               -2.73074101               -1.45058934               -0.71914021                7.24439726               -4.38332971
              14.87231156                4.55519762               37.48490833                0.49942540                3.50765354                0.46952495               -1.39872748                1.39156893                3.67461362                0.74173529
              15.87465540                4.42497626               37.35886244                0.91109865                0.23438368                0.24114420               -0.60665209               -0.11512635                0.04966557               -0.09963048
               5.62296965                6.52384882               38.30310905                1.00000000               -0.03336288                0.01874863               -0.04596244               -0.00200929                0.14479214                0.32998375
               6.62263602                6.41173812               38.13969704                0.61507695               -0.07856272               -0.08138803                0.26219827                0.00341303                0.25954609               -0.18314666
               7.62139839                6.29956680               37.97841709                0.11066923                1.63571225               -1.14374344                0.57028370                0.02613668                3.72615942                2.57825562
               8.65535026                6.16337885               37.88435376                0.00010000                3.25644909               -2.20974589                0.37717492                0.04616296                6.17465095                4.60429529
               9.68652738                6.02892921               37.78136746                0.00010000                3.37870896               -1.66250276                0.20598322               -0.85318146                5.99068498                3.21386623
              10.72292444                5.90541228               37.69211493                0.00010000                3.89958544               -1.07999144               -0.09820098               -0.64920232                6.52241203                2.14562815
              11.76451908                5.79762018               37.60962493                0.00010000                4.71012819               -1.31505756               -0.44751592               -0.40932252                6.59276750                0.42705156
              12.81712701                5.70640494               37.53292506                0.00010000                6.56524330               -1.83353810               -0.89688827               -0.84013709                6.81681861               -1.45109637
              13.89582395                5.62199070               37.46965065                0.12664687                9.32957838               -2.66217588               -1.94885005               -1.17082405                9.76900655               -3.36896189
              15.00371857                5.55921007               37.46917220                0.46403307                5.41174432               -1.08796239               -0.43288932               -5.41290275                6.57274783               -6.97397993
              16.00405884                5.42693085               37.34087923                0.89575090                0.03402617                3.65282387               -0.03445448               -8.35805855                0.08838702               -6.53716901
               5.73556271                7.52408283               38.24899902                1.00000000               -0.02410003                0.10756433               -0.07110891                0.90913215                0.07118570                3.27871224
               6.73532171                7.41093036               38.08233534                0.52164733                1.14847713               -0.73845636                0.23734565                0.34006098                3.46057793                3.60896848
               7.75853226                7.27848336               37.98332383                0.06858250                2.18290606               -1.66858988                0.16902473               -0.10859993                5.59015257                4.89159105
               8.77897983                7.14587338               37.86707582                0.00010000                2.16706546               -1.36571698                0.14662704               -1.02631560                4.93982609                3.56225582
               9.80187357                7.01683667               37.76154908                0.00010000                2.36654150               -0.96479909                0.01220729               -1.33463713                5.38770044                2.92470622
              10.82631066                6.89604002               37.66143046                0.00010000                2.64731340               -0.71062870               -0.18273698               -1.38475545                5.55959817                1.84096892
              11.85481983                6.78784937               37.56712396                0.00010000                3.17250419               -0.70246781               -0.43861452               -1.45383513                5.62033480                0.52235736
              12.88976075                6.69123802               37.47744387                0.00010000                3.67304399               -0.91317163               -0.77641904               -2.16557840                5.68773620               -1.06534460
              13.92828071                6.60474040               37.39550884                0.14459558                3.46763067               -0.77539012               -1.04018326               -4.12828792                5.17512802               -3.63473394
              14.95911336                6.53343837               37.30560408                0.44710924                2.18859822               -0.83946542               -1.28678705               -6.57602236                3.15037705              -10.03369901
              15.97205268                6.49803274               37.19330336                0.88897387                1.29393157                3.54486500               -0.39773596               -4.65891895                1.93536661              -11.09144018
               5.86745723                8.52600011               38.25519214                1.00000000                0.75794798               -0.17190178               -0.43310668                0.17962997                1.36448017                5.44572760
               6.87503671                8.39696899               38.10350308                0.48830973                0.84130702               -0.94871415               -0.16800020                0.30452244                2.11915169                5.99189058
               7.88428337                8.26619500               37.96860376                0.04863326                1.07169640               -0.86145171               -0.04096596               -0.69933848                3.57096062                3.87659977
               8.89647064                8.13606451               37.84897408                0.00010000                1.26923112               -0.70638198               -0.03485705               -1.27073068                4.40958112                3.20754426
               9.90966800                8.00963323               37.73528126                0.00010000                1.38729942               -0.49982606               -0.09498127               -1.56646402                4.76538661                2.42357565
              10.92421663                7.89119970               37.62773327                0.00010000                1.52881931               -0.30706272               -0.21151580               -1.56870353                4.98956373                1.59563565
              11.94024438                7.78357082               37.52410983                0.00010000                1.63538906               -0.19777247               -0.35821003               -1.56026023                4.97420974                0.55825387
              12.95692441                7.68814150               37.42239944                0.00010000                1.54067292               -0.01670752               -0.49950276               -1.76346229                4.63174165               -0.82798909
              13.97105784                7.60648290               37.31798412                0.17525950                1.09906907                0.36797113               -0.57059933               -1.97758022                3.74441560               -2.97567939
              14.97890579                7.54242076               37.20367782                0.44035789                0.53169406                0.65837041               -0.36545688               -1.63896478                2.18641079               -5.45590229
              15.98169172                7.49782815               37.07068382                0.88414355                0.27859296               -0.57384598                0.19850993               -1.25835920                1.21538225               -7.93629875
               5.99721753                9.52064480               38.24731650                1.00000000                0.39997329               -0.33567994               -0.70954294               -0.14582287                0.79824427                3.73142660
               7.00121727                9.39195608               38.09095621                0.50591547                0.41162167               -0.29031925               -0.39230240               -0.50017033                1.54361044                3.46325044
               8.00544997                9.26125432               37.95055591                0.03568401                0.44548639               -0.27568482               -0.22056626               -0.96946891                2.87890423                3.01636677
               9.01012700                9.13174574               37.82254534                0.00010000                0.49795639               -0.22169500               -0.15753530               -1.31675537                3.83604220                2.36750576
              10.01540910                9.00684015               37.70366771                0.00010000                0.54360009               -0.10715465               -0.16996952               -1.42923407                4.43174446                1.83468612
              11.02099900                8.88989876               37.59055396                0.00010000                0.56318658                0.01803191               -0.22321771               -1.33509766                4.70733353                1.24067860
              12.02667283                8.78389392               37.48048869                0.00010000                0.52902151                0.15633390               -0.28396505               -1.09336553                4.66673877                0.50609015
              13.03157943                8.69090387               37.36990731                0.00010000                0.38885117                0.33757549               -0.30759315               -0.73939599                4.23497575               -0.48808317
              14.03444985                8.61209982               37.25416810                0.22122749                0.17046957                0.48981426               -0.22765634               -0.24471033                3.33663755               -1.78293667
              15.03498882                8.54660578               37.12755973                0.44332978                0.08104380                0.24194871                0.02691411                0.16342328                1.90876059               -3.33505324
              16.03607073                8.48655582               36.98402538                0.88023931                0.10819081               -0.95135602                0.52026948                0.22945843                1.04393289               -4.94685949
               6.12191821               10.51928651               38.21855067                0.99305996                0.25055666                0.03183411               -0.88046115               -0.24371034                0.72709948                1.81083286
               7.12442378               10.39116261               38.06124823                0.54492859                0.15930588                0.03561789               -0.53444485               -0.46469394                1.38464116                1.73197602
               8.12510433               10.26068130               37.91797823                0.00525513                0.00629649                0.07520380               -0.34003066               -0.76688453                2.64867313                1.54189382
               9.12454971               10.13163061               37.78682197                0.00010000               -0.10870188                0.14024553               -0.25643108               -0.91217005                3.66208893                1.29656160
              10.12293029               10.00749013               37.66492001                0.00010000               -0.20444050                0.23032513               -0.24355450               -0.92538284                4.36850081                1.02147809
              11.12046090                9.89156034               37.54917585                0.00010000               -0.27791624                0.32924552               -0.26336371               -0.79442552                4.74665809                0.72215968
              12.11737197                9.78669750               37.43616601                0.00010000               -0.32651545                0.41703823               -0.27593642               -0.52012555                4.76209256                0.34512198
              13.11393059                9.69489301               37.32192131                0.05909916               -0.34551221                0.46930425               -0.23728004               -0.11046463                4.35408672               -0.15693483
              14.11046172                9.61627918               37.20160995                0.28788938               -0.31061630                0.40396821               -0.09980019                0.34015478                3.43451787               -0.81630943
              15.10771826                9.54725974               37.06940086                0.45445774               -0.20404572                0.05946763                0.18094878                0.50065572                1.93823182               -1.63188328
              16.10638081                9.47880103               36.91930798                0.86911074               -0.13374548               -0.54366249                0.62607125                0.34520245                1.02994100               -2.64997648
               6.24859112               11.52128148               38.17205387                1.00000000                0.19374699                0.19949724               -0.94812495               -0.19401343                0.74107972                0.89630578
               7.25052859               11.39266844               38.01448551                0.81622760                0.05265759                0.15058265               -0.60005863               -0.31567278                1.39971561                0.84107143
               8.24964427               11.26275840               37.87080141                0.49518685               -0.27269132                0.20770960               -0.42006794               -0.45189484                2.68079598                0.76578808
               9.24507476               11.13455065               37.73922833                0.36913407               -0.63362811                0.29200403               -0.35026318               -0.51308191                3.76364373                0.65233756
              10.23697171               11.01144665               37.61729907                0.35876663               -0.95858232                0.39565176               -0.34798508               -0.49920709                4.58367990                0.52098079
              11.22590312               10.89648368               37.50202624                0.37085806               -1.20170342                0.49233341               -0.37191420               -0.41637617                5.09734758                0.36860693
              12.21293764               10.79223469               37.38999889                0.40454020               -1.30573334                0.55371882               -0.37929441               -0.25311864                5.25771931                0.17865198
              13.19978845               10.70028995               37.27718472                0.55491673               -1.20257097                0.53969386               -0.32492906               -0.01698887                4.98720346               -0.07492920
              14.18888622               10.62017919               37.15865105                0.67682720               -0.86541805                0.39000052               -0.16484347                0.21770883                4.16856378               -0.41055499
              15.18248009               10.54779513               37.02835123                0.74410630               -0.44970130                0.05353934                0.13313687                0.25135157                2.57852126               -0.82023219
              16.17989220               10.47568257               36.87746783                0.93380485               -0.25878931               -0.31184579                0.57426546                0.13988256                1.54102804               -1.50745042
               5.22653442                1.57996536               39.56084675                1.00000000               -0.06003370               -0.00091102                0.02696114                0.04930092               -0.24219072                0.28661118
               6.22593409                1.47056448               39.40804433                1.00000000               -0.10992585               -0.10487607                0.36215182                0.05157102               -0.32410720                0.07831875
               7.22433591                1.36105096               39.25336259                1.00000000               -0.20919052               -0.20519608                0.69651884                0.05000977               -0.41383117               -0.00366712
               8.22175028                1.25146639               39.09870765                0.63805388               -0.30783673               -0.30555566                1.02942649                0.05154312               -0.32308593               -0.08400614
               9.21817917                1.14186429               38.94594888                0.69828122                3.77767304               -0.41005791                1.36350918                3.36397648                3.72837920               -0.28430811
              10.29730374                1.09841514               38.87257985                0.75602722                6.80719934               -3.90469865                0.93991861                2.78754953                7.14105348               -0.23946034
              11.35432316                0.99741959               38.81344041                0.74731263                5.23844894               -3.26302526                0.10322500                0.99482520                6.41178511               -0.60483917
              12.40207272                0.84442373               38.74585700                0.84300278                5.88440897               -2.17722584               -0.81581215                3.55539082                4.61218622                3.69424120
              13.47201134                0.69069489               38.67586477                1.00000000                3.66772874                0.44306045               -1.48970464               -1.50036561                1.54711111                0.19861666
              14.47542729                0.56591646               38.56710427                1.00000000                0.27848123                0.25881422               -0.92892769                0.04407091               -0.38968395               -0.05286842
              15.47758096                0.44050429               38.45862077                1.00000000                0.21536722                0.09401330               -0.38733778                0.08688134               -0.38676343               -0.36601185
               5.33642831                2.57995625               39.50759625                1.00000000               -0.05213106                0.00214331                0.00378632               -0.00281904               -0.03987349                0.42892382
               6.33590700                2.46951572               39.35473838                1.00000000               -0.10216286               -0.10109383                0.33913327                0.00074060               -0.05926054                0.14281299
               7.33438505                2.35899900               39.20126072                0.97919589               -0.20239785               -0.20176246                0.67386798                0.00053146               -0.08583609               -0.01833573
               8.33185904                2.24841083               39.04782339                0.28368164               -0.30202451               -0.30242366                1.00748012                0.00042244               -0.05534631               -0.15169829
               9.32834456                2.13776371               38.89507607                0.41022102                3.27712698               -0.40645806                1.34180450                1.61612263                4.42395355               -0.42512675
              10.39740158                2.05936815               38.83150096                0.49398018                8.14612790               -3.74362430                1.14292299                2.06865821                8.54989092               -0.06136600
              11.49126712                1.96478934               38.77766962                0.42093060                9.67936987               -4.13340562                0.24966344                0.90561117                8.61774249               -0.16782378
              12.59098898                1.82265147               38.75693308                0.51234469                5.24970973               -0.85825659               -1.51138616                2.33206962                4.44155484                2.07667385
              13.59626131                1.69512549               38.64737506                1.00000000                0.49871601                0.43247070               -1.47918443               -0.11437892                0.05421717                0.20989073
              14.60096330                1.56850460               38.53942845                1.00000000                0.38003185                0.25044804               -1.05697598               -0.01061984                0.00381422               -0.06131415
              15.60386195                1.44144442               38.43125615                1.00000000                0.28986521                0.07949901               -0.50859860                0.02642809               -0.03559789               -0.44635844
               5.44735910                3.58000823               39.45685529                1.00000000               -0.04529440                0.00864288               -0.01992928               -0.00259120                0.03385448                0.58506535
               6.44690615                3.46854261               39.30256516                1.00000000               -0.09538348               -0.09368037                0.31595730                0.00124220                0.07487326                0.20464309
               7.44545143                3.35701571               39.14887556                0.70078741               -0.19560705               -0.19523755                0.65145578                0.00130441                0.13514378               -0.06994392
               8.44299401                3.24541792               38.99575791                0.00010000               -0.29535613               -0.29597530                0.98560942                0.00060576                0.11100044               -0.28799567
               9.43954430                3.13373513               38.84172539                0.00010000                3.43286305               -0.40007216                1.32011808                0.07831769                5.03851679               -0.42994438
              10.51165127                3.02354266               38.78745594                0.00010000                8.48038837               -3.60518345                1.13806604                0.59765226                9.55599302                0.42503134
              11.60915207                2.91475148               38.73870559                0.00010000               10.33633439               -4.17972586                0.19381194                0.71474804                9.47736722               -0.09227800
              12.71837796                2.82725859               38.72485332                0.00010000                5.73592757               -1.22586674               -1.65830398               -1.78723558                5.33473682               -2.55070462
              13.72387062                2.69934430               38.61984058                0.40932668                0.52590016                0.50223306               -1.61221116                0.06132954                0.54276637                0.38726687
              14.72889596                2.57092542               38.51192425                1.00000000                0.41796348                0.26744083               -1.17858128                0.08520238                0.17382381               -0.03951945
              15.73222989                2.44209427               38.40181241                1.00000000                0.33339290                0.04502421               -0.58107619                0.12083281                0.05749135               -0.48188588
               5.55930772                4.58012911               39.40641466                1.00000000               -0.03833620                0.01587439               -0.04337214               -0.00267555                0.08191758                0.57629020
               6.55892436                4.46764212               39.25035330                1.00000000               -0.08859457               -0.08698305                0.29336078                0.00099756                0.16589380                0.15749624
               7.55753583                4.35509425               39.09576701                0.36916812               -0.18863121               -0.18884659                0.62974162                0.00194630                0.29839698               -0.18227311
               8.55515174                4.24249133               38.94233945                0.00010000               -0.28748271               -0.29158862                0.96451937               -0.00009875                0.45849176               -0.44555183
               9.55178618                4.12976227               38.79111232                0.00010000                3.65932691               -1.69792933                1.29784766                1.02157558                6.07237941                2.89695700
              10.62833827                3.98726449               38.75028372                0.00010000                7.50299829               -2.84318648                0.57956016               -0.19655593                9.91702648                1.31370025
              11.70184614                3.88119482               38.69531152                0.00010000                7.11565874               -2.72060434               -0.17162871                0.40741058                8.15442067                0.04775681
              12.77065145                3.79813413               38.63698003                0.00010000                7.59874663               -2.87469546               -0.75312813               -1.31797038                7.95721485               -2.69065341
              13.85382107                3.70517015               38.59562432                0.13094051                4.46329643               -0.60642031               -2.23361530               -1.40070446                3.82876509               -2.07927793
              14.85991738                3.57385342               38.48537663                0.59955083                0.50599208                0.29550673               -1.46988796                0.05622226                0.27099471                0.47790395
              15.86394092                3.44234491               38.37398210                0.99658436                0.40235391                0.02563598               -0.64121749                0.16757920                0.21374978               -0.17144458
               5.67227957                5.58032571               39.35521059                1.00000000               -0.03186030                0.02339056               -0.06632651               -0.00316171                0.11135027                0.47331890
               6.67196096                5.46680295               39.19711218                0.77626373               -0.08192135               -0.08082520                0.27162235                0.00132858                0.22887584                0.03071558
               7.67064114                5.35323878               39.04117857                0.18483917               -0.18184755               -0.18477716                0.60869529                0.00188180                0.44180505               -0.37861820
               8.66832401                5.23958614               38.88733635                0.00010000                2.22807579               -1.35957330                0.94396490                0.25771020                4.09735075                2.27280989
               9.71520266                5.09977654               38.80468410                0.00010000                4.39817919               -2.46071965                0.60103189                0.78638568                6.82887965                4.63704884
              10.75628760                4.96667893               38.71914839                0.00010000                4.56139900               -1.58469713                0.27046136                0.19238233                6.82675607                2.01536539
              11.80643064                4.86033939               38.64875046                0.00010000                5.58778136               -1.81610746               -0.22688646                0.42806235                7.39115544                0.24245107
              12.86804322                4.76976468               38.58730385                0.00010000                5.68533037               -2.42450403               -0.57954310                0.37480418                7.41630951               -1.43450460
              13.92013724                4.68721589               38.52052941                0.10926259                6.24012145               -2.23315797               -0.51851488               -1.59004634                9.12873313               -3.81383183
              14.99284565                4.57683556               38.47008036                0.47338616                3.92306318                0.03444710               -2.20539333                1.30997766                3.13153826                1.71157584
              15.99859851                4.44260699               38.35201314                0.89722704                0.57528538               -0.07178645               -0.86511726               -0.07646429               -0.12633222                0.71842935
               5.78629002                6.58059692               39.30243930                1.00000000               -0.02521537                0.03147961               -0.08836762               -0.00117024                0.14467875                0.32929250
               6.78603787                6.46602561               39.14225933                0.60262753               -0.07498768               -0.07797579                0.25050642                0.00328393                0.25927947               -0.18235744
               7.78479027                6.35139870               38.98420683                0.10506056                1.38651525               -1.03124692                0.58824522               -0.05456648                3.48346184                2.40082134
               8.81376817                6.21529986               38.88853274                0.00010000                2.78154197               -1.99533055                0.46228611               -0.09590463                5.64642165                4.30332622
               9.84042111                6.08054787               38.78404066                0.00010000                2.89274475               -1.49879477                0.33462491               -0.93030519                5.35755790                3.08650503
              10.87162307                5.95557054               38.69198380                0.00010000                3.34502613               -0.96119744                0.06630213               -0.76879158                5.74712105                2.13932656
              11.90732163                5.84487267               38.60602811                0.00010000                3.98239824               -1.17934550               -0.25022186               -0.62352401                5.76030835                0.53798237
              12.95127103                5.74964405               38.52571194                0.00010000                5.38138216               -1.61435451               -0.60292625               -1.23077309                5.06288265               -1.63374864
              14.01494927                5.66050699               38.44321101                0.11388063                8.97274010               -2.05983201               -1.49900826               -1.77018358                7.79264164               -2.67295274
              15.13072584                5.57454236               38.46941852                0.44024435                5.79597480               -0.26327213               -4.68116638               -6.52493366                1.85019485               -6.49531493
              16.13086877                5.44090918               38.34198711                0.88179877                0.01429346                4.21978840               -1.98392110               -8.59868749               -4.47099563               -2.86979224
               5.90139878                7.58095531               39.24809567                1.00000000               -0.01739170                0.03810267               -0.10981927                0.66468954                0.07115754                3.12777006
               6.90122486                7.46524343               39.08467136                0.51175950                0.94383927               -0.66049205                0.23064180                0.16367000                3.28053582                3.43431728
               7.92027556                7.33261384               38.98530303                0.06371603                1.80159448               -1.48271221                0.23308082               -0.25426463                5.20584310                4.65824319
               8.93725675                7.19967953               38.86901817                0.00010000                1.80251548               -1.21658770                0.24965599               -1.07503586                4.47847988                3.45205777
               9.95632587                7.06980065               38.76231991                0.00010000                1.96651088               -0.85056787                0.15025932               -1.35174147                4.79943834                2.89805770
              10.97658697                6.94745498               38.66037615                0.00010000                2.17803885               -0.60472671               -0.01390900               -1.37801756                4.86958184                1.92658804
              11.99988665                6.83675248               38.56365021                0.00010000                2.56032397               -0.56371449               -0.23244169               -1.38304783                4.75438394                0.71427475
              13.02779344                6.73747759               38.47013485                0.00010000                2.99743061               -0.72907281               -0.53241189               -1.96026305                4.52527187               -0.65970942
              14.05983526                6.64601925               38.38522399                0.13077265                2.70756749               -0.54652209               -1.05906892               -3.36268296                3.42529316               -2.01614633
              15.08194479                6.57157012               38.28688029                0.42594106                1.70279355                0.22368993               -1.14518384               -6.47434705                1.92286990               -9.16916170
              16.09389113                6.52700276               38.18421907                0.87578083                1.19463357                4.16174709               -0.99401538               -4.84515843                1.43999293              -10.65912890
               6.03100756                8.58135897               39.25104475                1.00000000                0.66451726               -0.23050365               -0.38595850                0.05348568                1.27721633                5.17319707
               7.03765274                8.45281577               39.10210206                0.48081213                0.71306549               -0.86416759               -0.10203556                0.10596204                1.94852515                5.74645688
               8.04526887                8.32174446               38.96860751                0.04589735                0.87139556               -0.77346106                0.05235222               -0.79189120                3.25246778                3.76642428
               9.05508065                8.19096811               38.84917938                0.00010000                1.01709806               -0.63013762                0.08723119               -1.28978532                3.97065943                3.16361447
              10.06561083                8.06353652               38.73499612                0.00010000                1.10151163               -0.43459064                0.05049117               -1.52433383                4.23470856                2.46404685
              11.07711088                7.94347601               38.62637114                0.00010000                1.20136113               -0.24820764               -0.04478873               -1.47095741                4.37516525                1.72716646
              12.08963806                7.83359838               38.52128904                0.00010000                1.28440618               -0.13775965               -0.17480445               -1.36920644                4.27420526                0.81496559
              13.10279900                7.73506260               38.41805311                0.00010000                1.19825181                0.00241035               -0.32528832               -1.38520698                3.85690145               -0.33287739
              14.11360309                7.64957655               38.31232618                0.16001022                0.87281938                0.38829384               -0.41057091               -1.49726461                3.09609123               -2.21758950
              15.12025539                7.57901616               38.20052478                0.42104313                0.47486131                0.49909097               -0.33025523               -1.06393971                1.82684638               -4.19869627
              16.12310032                7.52414412               38.07249090                0.87163077                0.28449284               -0.68003511                0.15136713               -0.83019257                1.06142925               -7.13119447
               6.15955489                9.57634523               39.24067206                1.00000000                0.34037218               -0.31486376               -0.60146338               -0.17272704                0.71944062                3.54479904
               7.16295861                9.44796008               39.08750701                0.50108471                0.33652547               -0.29456219               -0.28157849               -0.52672342                1.38059309                3.34112581
               8.16628540                9.31714462               38.94889137                0.03318862                0.33551850               -0.26918021               -0.09750801               -0.98251701                2.57637495                2.95209398
               9.16966898                9.18707678               38.82159066                0.00010000                0.35229459               -0.20792803               -0.01916821               -1.28947809                3.42457168                2.36648782
              10.17333129                9.06110883               38.70265928                0.00010000                0.37184838               -0.09640646               -0.01742562               -1.36046044                3.94101154                1.89422827
              11.17710595                8.94249082               38.58905500                0.00010000                0.37923201                0.02201406               -0.06063479               -1.22256186                4.16523480                1.37100281
              12.18091593                8.83399729               38.47837770                0.00010000                0.35025950                0.13974062               -0.11833435               -0.93006762                4.10585110                0.72664660
              13.18411114                8.73752580               38.36746982                0.00010000                0.25102342                0.28436557               -0.14927280               -0.54680997                3.71281607               -0.15481620
              14.18593640                8.65378513               38.25243235                0.20508614                0.09936459                0.36592029               -0.09769961               -0.06077403                2.92396296               -1.32287114
              15.18609843                8.58155193               38.12796773                0.42477581                0.05474829                0.11791934                0.10918954                0.24615478                1.70187273               -2.91058516
              16.18703137                8.51340205               37.98912735                0.86784335                0.09329343               -0.89874280                0.50808529                0.23536054                0.95721621               -4.64249047
               6.28432333               10.57506170               39.21036974                0.98856124                0.19955525                0.01849026               -0.73329426               -0.22953961                0.64524138                1.71190235
               7.28631888               10.44692453               39.05650632                0.54211543                0.10892499                0.00154135               -0.39438273               -0.44536304                1.21611753                1.67515754
               8.28650183               10.31636085               38.91521575                0.00346334               -0.04960078                0.03882745               -0.19479713               -0.73887644                2.34064977                1.51864641
               9.28532687               10.18680955               38.78495151                0.00010000               -0.17571244                0.10461843               -0.10126610               -0.87348018                3.25217474                1.30580202
              10.28298758               10.06160839               38.66322831                0.00010000               -0.27778413                0.19157919               -0.07924407               -0.86863801                3.89356379                1.06536774
              11.27977119                9.94391629               38.54731075                0.00010000               -0.34929270                0.28173290               -0.09451457               -0.71947149                4.24423943                0.80448394
              12.27600173                9.83639320               38.43415768                0.00010000               -0.38481100                0.35513926               -0.11043763               -0.43776505                4.27405931                0.47160013
              13.27207497                9.74074991               38.32023460                0.04931664               -0.38201246                0.38517745               -0.08599557               -0.04357006                3.92814238                0.01524452
              14.26836148                9.65689496               38.20116042                0.27306060               -0.32567016                0.30713050                0.02399938                0.35602224                3.12400644               -0.61897342
              15.26556156                9.58137455               38.07161532                0.43621002               -0.21270937               -0.00795385                0.26089532                0.47541828                1.77670806               -1.43673590
              16.26410729                9.50616926               37.92571436                0.85633672               -0.14542708               -0.51844829                0.65088997                0.31153659                0.94886045               -2.51974069
               6.41123844               11.57671504               39.16326634                1.00000000                0.15137565                0.16533416               -0.78530245               -0.18090258                0.63267667                0.83118493
               7.41275219               11.44799091               39.00915283                0.81578835                0.01922071                0.10663787               -0.44540621               -0.29636254                1.19764204                0.80771696
               8.41162285               11.31792117               38.86731974                0.49369771               -0.29001746                0.15603119               -0.25684153               -0.42898573                2.33349171                0.75048442
               9.40695184               11.18916915               38.73651809                0.36922123               -0.63855317                0.23596026               -0.17335738               -0.48653971                3.31952655                0.65485748
              10.39885179               11.06494042               38.61467984                0.35889238               -0.95100668                0.33320300               -0.15799991               -0.46576272                4.08471729                0.54197637
              11.38793171               10.94812548               38.49921095                0.37062375               -1.17623868                0.42091921               -0.17364732               -0.37596449                4.58678179                0.40997922
              12.37532701               10.84110008               38.38711239                0.40362071               -1.25968654                0.47068794               -0.18130137               -0.21227795                4.78194840                0.24200158
              13.36273798               10.74522935               38.27478713                0.55022834               -1.14474058                0.44794433               -0.13971694                0.00768467                4.59429720                0.00758722
              14.35243220               10.65992774               38.15774289                0.67000868               -0.82027447                0.30327842               -0.00784004                0.21524782                3.89809288               -0.31594245
              15.34633249               10.58139286               38.03023314                0.73502452               -0.43797659                0.00183088                0.24800685                0.23236031                2.45053891               -0.73915715
              16.34367267               10.50303309               37.88355094                0.92716231               -0.26598197               -0.31361741                0.63737652                0.12056105                1.48677035               -1.45374491
               5.37524254                1.63619144               40.56083569                1.00000000               -0.04824763                0.01588019               -0.02914721                0.05442152               -0.24172352                0.28576568
               6.37476006                1.52476539               40.41153230                1.00000000               -0.10281995               -0.09714473                0.33642406                0.05655100               -0.32456163                0.07804082
               7.37318614                1.41322815               40.26033635                1.00000000               -0.21089123               -0.20576476                0.69916017                0.05471311               -0.41682512               -0.00363253
               8.37054224                1.30161993               40.10914330                0.64335701               -0.31713406               -0.31407202                1.05788478                0.05604349               -0.32705769               -0.08393109
               9.36684346                1.18999835               39.95985911                0.70018182                3.19550655               -0.42657706                1.41709649                3.04657978                3.43514393               -0.28560219
              10.43445237                1.13810736               39.88416440                0.75193399                5.95746549               -3.66219036                1.33190277                2.79378652                6.65665411                0.62418089
              11.48599277                1.02722030               39.81632255                0.74015547                4.06265924               -2.46977030                0.11856875               -0.66580969                4.84576837               -0.60962256
              12.51570555                0.87014806               39.73670402                0.83684862                4.43528978               -1.48569615               -0.53333847                2.95168167                5.85190831                2.51932479
              13.57469856                0.72167770               39.66196454                1.00000000                3.12392785                0.44301625               -1.41347320               -0.93306049                1.16019800                0.30862454
              14.57818411                0.59373312               39.55814726                1.00000000                0.26542049                0.25771755               -0.84845906                0.04887625               -0.31583325               -0.02813451
              15.58000697                0.46520991               39.45443520                1.00000000                0.18228631                0.13822340               -0.48326425                0.07120643               -0.30635966               -0.28541747
               5.48721280                2.63635024               40.50736378                1.00000000               -0.04055858                0.01828676               -0.05082919               -0.00217188               -0.03931631                0.42779055
               6.48680721                2.52379394               40.35800662                1.00000000               -0.09534005               -0.09369387                0.31487293                0.00148858               -0.05900514                0.14207156
               7.48530600                2.41117051               40.20802039                0.99453062               -0.20448194               -0.20268004                0.67863969                0.00140453               -0.08715282               -0.01848459
               8.48271757                2.29847921               40.05805534                0.29294932               -0.31202287               -0.31138555                1.03877576                0.00098201               -0.05768370               -0.15140284
               9.47906554                2.18573258               39.90878603                0.41371173                3.05308422               -0.42338273                1.39844254                1.42820841                4.36155047               -0.42526934
              10.54377926                2.10148546               39.84746851                0.49280629                6.71243909               -3.44769650                1.30671649                2.18114870                8.82131267                0.58251437
              11.61331432                2.00252259               39.78293163                0.42143126                7.71072028               -3.64706751                1.18763452                0.05305496               10.24242597               -0.66279543
              12.69799366                1.85529110               39.73875534                0.51214380                4.51305526               -0.38621794               -2.11932968                1.82474304                3.13116389                1.81218849
              13.70357543                1.72610787               39.63286592                1.00000000                0.44565516                0.42538387               -1.39138051               -0.01534133                0.02449001                0.27131423
              14.70690677                1.59631029               39.52940636                1.00000000                0.28334063                0.25501570               -0.96334509               -0.03229309                0.01629773                0.00099150
              15.70924224                1.46659215               39.42585352                1.00000000                0.23354728                0.11970319               -0.59271373                0.03096991               -0.02363346               -0.30978639
               5.60031169                3.63655717               40.45639843                1.00000000               -0.03421247                0.02345272               -0.07192330               -0.00177350                0.03496116                0.58326144
               6.59996957                3.52289151               40.30561443                1.00000000               -0.08913661               -0.08704466                0.29406198                0.00194223                0.07612365                0.20381041
               7.59852896                3.40917455               40.15542590                0.71899961               -0.19848804               -0.19691312                0.65910591                0.00209280                0.13516986               -0.06974799
               8.59599981                3.29539222               40.00578880                0.00010000               -0.30637893               -0.30594825                1.02064190                0.00106477                0.10961837               -0.28695897
               9.59240138                3.18153069               39.85523712                0.00010000                3.26427601               -0.41820956                1.38069596                0.07764550                5.00985724               -0.42915639
              10.66128533                3.06915343               39.80389185                0.00010000                7.04234244               -3.33579601                1.19750483                0.16786718                9.78508537               -0.40761992
              11.73324823                2.95427894               39.74291601                0.00010000                8.36649061               -3.75947978                1.53854707                1.03271755               11.52177095                1.06232084
              12.82861514                2.86242370               39.70568040                0.00010000                5.00621551               -0.58126667               -1.93445375               -1.01457954                3.94807592               -2.06017975
              13.83337254                2.73018538               39.60477568                0.40145739                0.42194146                0.41116331               -1.42565075               -0.07457025                0.44767779                0.10434259
              14.83705397                2.59883343               39.50093604                1.00000000                0.33450608                0.24556249               -1.08410019                0.02267376                0.11844473               -0.01509116
              15.84006266                2.46760398               39.39570442                1.00000000                0.30086935                0.09430968               -0.64841801                0.06407751                0.00448170               -0.18447692
               5.71450865                4.63681929               40.40573704                1.00000000               -0.02799692                0.02962099               -0.09264530               -0.00194215                0.08293628                0.57368673
               6.71422868                4.52205305               40.25319167                1.00000000               -0.08307511               -0.08125540                0.27434531                0.00121795                0.16731157                0.15712511
               7.71284714                4.40723224               40.10211708                0.36804317               -0.19229741               -0.19142532                0.64045350                0.00202142                0.29859272               -0.18134517
               8.71038273                4.29236025               39.95217874                0.00010000               -0.29949519               -0.30305091                1.00358687               -0.00016006                0.45667042               -0.44376548
               9.70685724                4.17736839               39.80442145                0.00010000                3.20028102               -1.58156655                1.36372349                0.78720415                5.59369853                2.57532703
              10.77438835                4.03476954               39.75754323                0.00010000                6.69205832               -2.64531802                0.78256010               -0.54331304                8.89345150                0.47585061
              11.84069841                3.92733300               39.69378096                0.00010000                6.37036432               -2.29979949               -0.00366960                0.96572931                6.86457380                0.16050267
              12.90179564                3.84366576               39.62988561                0.00010000                6.24879414               -2.59684621               -0.55422894               -0.70678753                6.66772382               -1.77382804
              13.96567429                3.73433113               39.57264309                0.11777741                3.40730055                0.19676077               -1.76042406                1.42418605                2.80715587               -0.93158399
              14.96994165                3.60122154               39.47101396                0.57277067                0.36542038                0.32769057               -1.28469873                0.02759167                0.37993625               -0.07966719
              15.97298270                3.46847834               39.36794902                0.98041193                0.30410504                0.18679334               -0.74886659                0.13570633                0.25528294                0.12642595
               5.82980533                5.63714959               40.35431716                1.00000000               -0.02243590                0.03651480               -0.11281804               -0.00259240                0.11190852                0.47053720
               6.82958098                5.52126641               40.19975041                0.76172316               -0.07715729               -0.07606275                0.25593043                0.00109308                0.22935744                0.03114285
               7.82826219                5.40534605               40.04733739                0.17951191               -0.18602567               -0.18867418                0.62314471                0.00059339                0.44084949               -0.37653345
               8.82586046                5.28933120               39.89699018                0.00010000                1.87369922               -1.22983458                0.98648638                0.13077232                3.77098706                2.05472054
               9.86573617                5.14989936               39.81133562                0.00010000                3.72969958               -2.21724423                0.71403780                0.51430515                6.16243892                4.20219149
              10.90045445                5.01624707               39.72272787                0.00010000                3.89652089               -1.38992482                0.41063701               -0.00626692                5.99489604                1.81466193
              11.94366659                4.90828296               39.64728131                0.00010000                5.35133983               -1.69264613               -0.04572046               -0.02307973                6.41055474                0.37707387
              13.00748125                4.81048677               39.57924913                0.00010000                8.03169446               -2.63834005               -0.81790571                0.26218841                7.03755561               -1.17676188
              14.10430048                4.73412060               39.52485122                0.09704484                4.79886712               -1.52470350                0.35255119               -3.14018100                7.13057796               -2.53109861
              15.10345859                4.60538724               39.44080047                0.44865814                0.19813547                0.56411489               -2.06265068               -4.53880150                1.39031801               -1.84728017
              16.10826319                4.47133984               39.34156010                0.88301761                0.48045968                3.44253660               -1.14778592               -3.57878700                0.53740206               -0.36634052
               5.94622317                6.63754959               40.30134170                1.00000000               -0.01690871                0.04415981               -0.13154480               -0.00032170                0.14416509                0.32702125
               6.94605409                6.52053180               40.14470717                0.59082489               -0.07144797               -0.07462178                0.23930965                0.00266326                0.25811681               -0.18050289
               7.94479421                6.40345876               39.99018200                0.09869486                1.11953873               -0.90492566                0.60705224               -0.13640588                3.25942926                2.24851058
               8.96844486                6.26776356               39.89359949                0.00010000                2.27166315               -1.75316526                0.55075350               -0.23815850                5.17013762                4.02090249
               9.99022748                6.13302350               39.78805996                0.00010000                2.37172790               -1.30284972                0.46382791               -1.00121700                4.77082254                2.94736042
              11.01587942                6.00697104               39.69344097                0.00010000                2.78848170               -0.80313167                0.23064184               -0.88129373                5.05699961                2.11170389
              12.04599711                5.89348007               39.60462049                0.00010000                3.26611720               -1.07045086               -0.05750231               -0.97949292                4.99039234                0.68994841
              13.08120176                5.79089896               39.52086654                0.00010000                3.09865459               -1.23920556               -0.25206885               -1.92159288                4.51628432               -1.20145652
              14.10797020                5.70383706               39.43967049                0.10135362                3.03723042               -1.94091491               -0.27916054               -5.13272328                3.51491877               -3.27279743
              15.14194637                5.61250384               39.37554887                0.41759128                3.07657761                0.67808166               -5.88866829               -3.56954518               -0.63618682               -4.38541117
              16.16950175                5.53732907               39.30120081                0.86821126                2.75553837                4.15032633               -4.45587956               -2.62188725               -1.15454109               -2.71850121
               6.06383449                7.63803279               40.24680264                1.00000000               -0.01094188               -0.03309673               -0.14906980                0.40730579                0.07069809                3.02161297
               7.06372507                7.51977397               40.08694818                0.50179879                0.72339099               -0.57346591                0.22579661               -0.01974459                3.12149370                3.29988258
               8.07830231                7.38724753               39.98798544                0.06007787                1.39037401               -1.27618069                0.30827197               -0.40224368                4.86525835                4.45683911
               9.09153255                7.25426790               39.87206894                0.00010000                1.41010193               -1.04996235                0.36437118               -1.11773999                4.05668043                3.34556095
              10.10650435                7.12384237               39.76455426                0.00010000                1.54197274               -0.72243510                0.30024084               -1.35702649                4.27212455                2.85724152
              11.12237201                7.00018444               39.66115228                0.00010000                1.68222326               -0.49534301                0.16950710               -1.37104175                4.27553632                1.99397467
              12.14014881                6.88687394               39.56247513                0.00010000                1.81601987               -0.41687160                0.00427657               -1.32161825                4.13476748                0.88466812
              13.15869240                6.78570266               39.46679563                0.00010000                1.99461613               -0.33749879               -0.18271682               -1.48740524                3.69177765               -0.43209992
              14.18004114                6.69530230               39.37432747                0.11693380                1.99416380               -0.44571594               -0.73444155               -1.21079993                2.95485628               -1.87091851
              15.19857568                6.61894888               39.28270040                0.40547844                1.30669214                0.24277814               -0.74912175               -1.38121465                1.45999372               -4.98562337
              16.20617498                6.55434637               39.17342305                0.86309910                0.75992994                0.64834544               -1.05134984               -1.98593424                0.29875985               -8.89442966
               6.19088693                8.63688766               40.24747297                1.00000000                0.55575235               -0.29085002               -0.31692332               -0.07742009                1.19902348                4.98899104
               7.19644445                8.50906248               40.10146237                0.47297653                0.56842423               -0.76998176               -0.01527315               -0.10338792                1.79317425                5.55971194
               8.20225541                8.37793515               39.96965080                0.04246556                0.65253882               -0.67797837                0.16598892               -0.88533280                2.96127173                3.67428468
               9.20949523                8.24676431               39.85071870                0.00010000                0.74574984               -0.54822642                0.22922375               -1.30211875                3.57036772                3.11710792
              10.21717041                8.11857480               39.73629108                0.00010000                0.79658935               -0.36749246                0.21519968               -1.47197459                3.75892084                2.48251763
              11.22542701                7.99706418               39.62683750                0.00010000                0.84380569               -0.19026119                0.14306066               -1.36094469                3.85300210                1.81407922
              12.23404652                7.88514264               39.52061374                0.00010000                0.87991417               -0.06578589                0.04108950               -1.13444900                3.72930487                0.96855083
              13.24302530                7.78414899               39.41589367                0.00010000                0.82307351               -0.00383030               -0.08491300               -0.85656030                3.34917704               -0.09948812
              14.25050799                7.69492274               39.30977270                0.14412853                0.61263550                0.07529342               -0.14947498               -0.71997565                2.64109068               -1.66110869
              15.25527801                7.61735940               39.19707271                0.40213063                0.42400440               -0.08226675               -0.16684327               -0.54355806                1.60059802               -3.93634788
              16.25898808                7.55029598               39.07371117                0.85961916                0.37100731               -0.69319145                0.05153740               -0.37030045                1.03058318               -6.48319676
               6.31793644                9.63221579               40.23528724                1.00000000                0.26733774               -0.29786868               -0.45638115               -0.20099836                0.64920447                3.41912702
               7.32060982                9.50437433               40.08532464                0.49569262                0.24786880               -0.30212652               -0.13817332               -0.55360785                1.23159621                3.25307244
               8.32289382                9.37368797               39.94860575                0.03003243                0.21203507               -0.26546434                0.05470160               -0.99271179                2.29797034                2.89945050
               9.32485052                9.24330337               39.82216197                0.00010000                0.19355821               -0.19725414                0.14534439               -1.25550151                3.04638261                2.35742362
              10.32676498                9.11649252               39.70331920                0.00010000                0.18673728               -0.08989378                0.15889097               -1.28261160                3.49573858                1.92717934
              11.32858527                8.99637921               39.58934127                0.00010000                0.18050223                0.02149467                0.12496800               -1.09724928                3.68772668                1.44786763
              12.33037503                8.88555822               39.47812200                0.00010000                0.15979129                0.11260884                0.07287762               -0.74351860                3.63428642                0.85071201
              13.33178109                8.78562606               39.36692185                0.00010000                0.10280883                0.18658068                0.03998072               -0.31423261                3.29250328                0.03276570
              14.33243121                8.69680817               39.25221411                0.18733127                0.02750932                0.18332170                0.06414994                0.13653120                2.61645891               -1.09910619
              15.33233128                8.61730354               39.12974352                0.40641559                0.02323031               -0.05498970                0.20507342                0.35474238                1.53649526               -2.58064596
              16.33289581                8.54048254               38.99418709                0.85589892                0.05645309               -0.81566792                0.49712549                0.22649246                0.84605693               -4.39051422
               6.44254987               10.63093028               40.20388479                0.98423671                0.13502494               -0.00519048               -0.54034303               -0.21427228                0.57245313                1.64635095
               7.44390011               10.50301995               40.05336057                0.53880023                0.04611364               -0.04222846               -0.21460441               -0.42431102                1.06332452                1.63482478
               8.44347214               10.37262586               39.91408229                0.00114760               -0.11597361               -0.00639310               -0.01487745               -0.70728458                2.05916719                1.49908480
               9.44158064               10.24281923               39.78479664                0.00010000               -0.25149035                0.06056397                0.08429223               -0.82971303                2.87583927                1.30757096
              10.43844233               10.11677692               39.66333513                0.00010000               -0.35821588                0.14453017                0.11166447               -0.80584700                3.45809049                1.08947840
              11.43441633                9.99749408               39.54728556                0.00010000               -0.42565122                0.22518232                0.09754606               -0.63805817                3.78664894                0.85073184
              12.42992931                9.88739482               39.43395726                0.00010000               -0.44628144                0.28035406                0.07519318               -0.34940376                3.83438707                0.53991374
              13.42549070                9.78788060               39.32020140                0.03620118               -0.41840876                0.28552877                0.08127275                0.02285773                3.54863509                0.10344896
              14.42156113                9.69858918               39.20208994                0.25502696               -0.33961084                0.19436121                0.15699930                0.36749380                2.84365261               -0.51061748
              15.41869848                9.61625961               39.07461877                0.41820702               -0.22006028               -0.07635967                0.34029109                0.43724942                1.62958537               -1.33367996
              16.41715993                9.53398262               38.93232578                0.84391303               -0.15385536               -0.47740080                0.66340811                0.27711124                0.87545021               -2.41839206
               6.56947167               11.63211198               40.15634783                1.00000000                0.09563551                0.11816970               -0.57392790               -0.16604097                0.54188335                0.78528769
               7.57042802               11.50352977               40.00557738                0.81506584               -0.02614104                0.05098189               -0.24859720               -0.27480284                1.02216851                0.78208352
               8.56894885               11.37356010               39.86566458                0.49201091               -0.31614127                0.09342445               -0.05638400               -0.40308477                2.02566415                0.73623487
               9.56410520               11.24451465               39.73576118                0.36929152               -0.64878257                0.16954230                0.03652490               -0.45639352                2.92101051                0.65246022
              10.55597320               11.11938312               39.61413907                0.35901010               -0.94494944                0.26061983                0.06094616               -0.42850290                3.63498537                0.55166015
              11.54520621               11.00088286               39.49855329                0.37040161               -1.14863834                0.33887860                0.04936230               -0.33190254                4.12638914                0.43151402
              12.53300043               10.89116530               39.38637287                0.40268447               -1.20811602                0.37704826                0.03605966               -0.17019912                4.35154129                0.27469608
              13.52104389               10.79133663               39.27439038                0.54320641               -1.07991789                0.34560332                0.05726700                0.03182384                4.23334438                0.05051392
              14.51140207               10.70069539               39.15849425                0.66095303               -0.76805324                0.21062133                0.14990585                0.20607979                3.64244012               -0.26831723
              15.50568282               10.61577635               39.03331137                0.72605506               -0.42050321               -0.04832619                0.35024945                0.21039121                2.32187403               -0.68175889
              16.50299201               10.53093453               38.89021536                0.92066161               -0.26908167               -0.30480976                0.68070100                0.09902607                1.42748757               -1.41315956
               5.52030673                1.69262448               41.56026381                1.00000000               -0.03645311                0.03248344               -0.08547053                0.06017656               -0.24278783                0.28694662
               6.51994219                1.57917667               41.41477282                1.00000000               -0.09591625               -0.09016361                0.31249420                0.06209682               -0.32700049                0.07834475
               7.51838840                1.46561023               41.26734579                1.00000000               -0.21279157               -0.20704810                0.70271212                0.05983914               -0.42176754               -0.00279622
               8.51568636                1.35196370               41.11986535                0.64952700               -0.32637217               -0.32264153                1.08667063                0.05974387               -0.33308817               -0.08320448
               9.51186096                1.23829839               40.97429081                0.70408172                2.91435062               -0.44180772                1.46701666                3.04648507                3.27684774               -0.28723869
              10.57397338                1.18429053               40.89921790                0.74971507                4.34189748               -3.29995385                1.23098139                3.25641513                5.61881399                0.10883658
              11.59869891                1.05200898               40.81581179                0.73284067                4.97477564               -2.70690036                0.79442412                5.93384351                5.88135311               -0.00560678
              12.67346889                0.89070758               40.73519024                0.82819956                3.75365760               -0.07887227               -0.00405978               -1.82630889                4.17845919                0.45965391
              13.67377206                0.75506463               40.64759531                1.00000000                0.15855387                0.26760056               -1.06046673               -0.16079817                0.47770801                0.44424547
              14.67663997                0.62283556               40.55013509                1.00000000                0.25529097                0.29000898               -0.84554903                0.01090170               -0.20952856               -0.01550777
              15.67887788                0.49195930               40.44895548                1.00000000                0.22379122                0.20201766               -0.63526593                0.07408297               -0.33949157               -0.21738975
               5.63435631                2.69294932               41.50657966                1.00000000               -0.02860186                0.03378585               -0.10737953               -0.00144885               -0.03893677                0.42889678
               6.63407029                2.57827503               41.36103584                1.00000000               -0.08815174               -0.08714520                0.29138307                0.00246914               -0.05823545                0.14176208
               7.63259328                2.46353975               41.21483352                1.00000000               -0.20652854               -0.20430861                0.68425030                0.00271536               -0.08883670               -0.01814067
               8.62993972                2.34873729               41.06859891                0.30404612               -0.32154401               -0.32041828                1.07007987                0.00146856               -0.05999202               -0.15088946
               9.62616239                2.23388032               40.92304492                0.41964305                3.48712573               -0.43909051                1.45120815                1.61655688                3.96862920               -0.42612789
              10.69968223                2.15129099               40.85763529                0.49343232                8.93332101               -3.94874939                1.27782104                1.83801839                8.16352656               -0.19411313
              11.80482882                2.02493997               40.80142231                0.42135471                5.19978689               -1.34302050                0.92169106                3.88639542                7.17060123                0.36076920
              12.80367797                1.88991886               40.71454649                0.50826605                0.06356365                0.21085736               -1.62315797               -0.25942100                1.06406490                0.89654617
              13.80610009                1.75774064               40.61954745                1.00000000                0.23118375                0.32946718               -1.13889791               -0.01933685                0.28106775                0.32358387
              14.80830165                1.62573565               40.52016155                1.00000000                0.21974388                0.30902215               -0.93385324               -0.00325018               -0.02672878               -0.00851468
              15.81049497                1.49397948               40.41940187                1.00000000                0.21933180                0.21749623               -0.72663632                0.01962775               -0.07517125               -0.19996217
               5.74962633                3.69330020               41.45541682                1.00000000               -0.02251769                0.03673949               -0.12535640               -0.00160072                0.03657565                0.58293156
               6.74940115                3.57743376               41.30844640                1.00000000               -0.08229366               -0.08132006                0.27275671                0.00220555                0.07927677                0.20331616
               7.74798045                3.46152406               41.16205768                0.73806456               -0.20129911               -0.19919478                0.66774208                0.00244568                0.13685263               -0.07038269
               8.74537517                3.34555534               41.01617075                0.00010000               -0.31710306               -0.31613242                1.05674773                0.00167878                0.10974015               -0.28631092
               9.74163839                3.22951658               40.86933930                0.00010000                3.71494592               -0.43550067                1.43776022               -0.40532677                4.49258705               -0.42806779
              10.81967409                3.10531554               40.81140604                0.00010000                9.80802770               -3.66727528                0.87380278                0.63987711                9.10249544               -0.57806041
              11.93779895                3.02514857               40.76947653                0.00010000                5.79028600               -2.24501986                1.39648528               -2.42121918                8.63919334               -0.20442364
              12.93547981                2.89492473               40.68616425                0.00010000               -0.01152073               -0.04150105               -1.56784861               -2.10143843                1.39651640               -1.31867925
              13.93756853                2.76165397               40.59132756                0.39096366                0.24281575                0.43611469               -1.33058184               -0.15864879                0.42611749                0.13410541
              14.94033612                2.62901600               40.49024225                1.00000000                0.26071218                0.33300017               -1.02991726               -0.07181128                0.04367361                0.00490326
              15.94278277                2.49630923               40.38884405                1.00000000                0.24466543                0.25191323               -0.78585419               -0.03660348                0.00416871               -0.09777852
               5.86605717                4.69368411               41.40456175                1.00000000               -0.01666266                0.04157965               -0.14261541               -0.00230262                0.08442346                0.57064421
               6.86589055                4.57664863               41.25584021                1.00000000               -0.07682792               -0.07617302                0.25517584               -0.00007630                0.16970295                0.15643672
               7.86452062                4.45955585               41.10857608                0.36669937               -0.19548888               -0.19404346                0.65079451                0.00019617                0.30111608               -0.18185206
               8.86198077                4.34241464               40.96241119                0.00010000               -0.31124802               -0.31477628                1.04373533               -0.00075950                0.45702385               -0.44380865
               9.85829566                4.22517030               40.81838679                0.00010000                2.74335111               -1.46673595                1.43005622                0.33030991                5.12919138                2.26635096
              10.91684779                4.07794548               40.76593492                0.00010000                5.42497935               -1.91205586                0.75341094               -1.22824904                7.96299811                0.44298533
              11.96679524                3.98003958               40.69523812                0.00010000                5.41480019               -3.40536100                0.26862193               -2.42675614                6.16653014               -1.04898866
              13.02514380                3.88908884               40.62589545                0.00010000                5.10202980               -1.98381063                0.17257619               -0.89160133                6.82085921               -1.65810441
              14.06883584                3.76646293               40.56041584                0.10462500                2.35331869                0.39562754               -1.24179822                0.34678746                1.96458329               -0.11619127
              15.07221017                3.63239565               40.45968266                0.54484077                0.31703046                0.31695205               -1.05365908               -0.19190855                0.10471981                0.01582381
              16.07517645                3.49901774               40.35900477                0.96148145                0.29662777                0.28595809               -0.94318709               -0.08556547                0.08672931                0.06295882
               5.98365123                5.69413179               41.35295423                1.00000000               -0.01233530                0.04838802               -0.15975015               -0.00288929                0.11187251                0.46614355
               6.98352788                5.57591030               41.20223079                0.74925934               -0.07164324               -0.07154198                0.23988387               -0.00096258                0.22927204                0.03160710
               7.98221837                5.45764319               41.05364146                0.17317122               -0.18911765               -0.19174922                0.63632453               -0.00422838                0.43885937               -0.37426761
               8.97974553                5.33925981               40.90706608                0.00010000                1.52476878               -1.08877473                1.02615044               -0.00745654                3.45862793                1.85589365
              10.01271374                5.20018186               40.81896486                0.00010000                3.02471515               -1.94469293                0.80164826                0.27575139                5.49747077                3.82589317
              11.04023983                5.06707442               40.72736113                0.00010000                3.27033622               -0.92826382                0.50644747               -0.18928877                5.25185479                1.67767303
              12.07812047                4.95704135               40.64783605                0.00010000                4.54922971               -1.82808754                0.13525737                0.05413826                5.36760808                0.31322852
              13.13122442                4.85524852               40.57094573                0.00010000                6.15384983               -2.55102098               -0.45730888               -0.30359483                5.79404932               -0.76508923
              14.20119746                4.76956653               40.52758043                0.08512273                3.63593561               -1.04440662               -0.19755743               -2.90819977                2.85710586               -2.88758628
              15.20394314                4.63535504               40.42882735                0.42400042                0.33149098                0.62692743               -1.09063562               -4.16382670                0.21381898               -2.36941591
              16.20782728                4.50202839               40.32905742                0.86750024                0.38841480                2.78292298               -1.15778818               -4.26778469                0.06701344               -2.23620254
               6.10244237                6.69465187               41.29980841                1.00000000               -0.00824703                0.05622472               -0.17488227                0.00011301                0.14246262                0.32271170
               7.10235990                6.57521779               41.14704552                0.57829689               -0.06779166               -0.07122071                0.22844545                0.00065227                0.25450657               -0.17660794
               8.10108654                6.45572087               40.99634787                0.09156841                0.84665298               -0.76806865                0.62546886               -0.21685268                3.05148894                2.12646912
               9.11929296                6.32063914               40.89954781                0.00010000                1.74547649               -1.48941364                0.63610764               -0.36842076                4.73113524                3.77265258
              10.13599607                6.18627644               40.79331722                0.00010000                1.84547851               -1.07337531                0.58431360               -1.06438269                4.23866751                2.82879136
              11.15620253                6.05938021               40.69659664                0.00010000                2.18539217               -0.65682387                0.39444063               -0.94308103                4.43088602                2.10167523
              12.17970391                5.94347783               40.60487806                0.00010000                2.51720937               -0.92943742                0.14268566               -1.12468057                4.40640531                0.86767038
              13.20654672                5.83806842               40.52067056                0.00010000                2.54307007               -1.07200268                0.00123386               -1.96753965                4.17544250               -0.51787075
              14.23056532                5.74557480               40.43762780                0.08916619                2.49625261               -1.55339282               -0.26889953               -4.56520347                3.68055088               -3.84636832
              15.25647177                5.64493420               40.35164516                0.39545513                1.29543745                0.74893815               -1.72369560               -4.13963217                2.16668630               -4.69391362
              16.25647406                5.55467620               40.25286952                0.85421129                0.00022912                3.72877110               -3.36137806               -3.49611196                0.07349230               -6.15848374
               6.22252165                7.69525629               41.24511428                1.00000000               -0.00497253               -0.09988379               -0.18844154                0.15130350                0.06958774                2.97108714
               7.22247193                7.57448589               41.08918729                0.49109968                0.49691546               -0.47921208                0.22320184               -0.19979942                2.98555922                3.21607157
               8.23245996                7.44228181               40.99146847                0.05559085                0.96748045               -1.05555143                0.39215787               -0.54314587                4.56922951                4.29924910
               9.24182154                7.30947154               40.87630559                0.00010000                1.01125319               -0.87109525                0.48467963               -1.15063478                3.67358172                3.25505316
              10.25268503                7.17871436               40.76832473                0.00010000                1.11776455               -0.59272537                0.45253200               -1.34296050                3.80197964                2.81719960
              11.26417683                7.05393794               40.66376629                0.00010000                1.21268101               -0.39057993                0.34762190               -1.33080127                3.78081108                2.04588061
              12.27693865                6.93845260               40.56373574                0.00010000                1.27999156               -0.30776493                0.21220135               -1.23327063                3.70379266                1.04675864
              13.28977666                6.83380846               40.46648052                0.00010000                1.30444832               -0.25609018                0.05968720               -1.29385352                3.43948242               -0.42298948
              14.30302761                6.73849867               40.37053516                0.10331038                1.11362149               -0.35535333               -0.24995456               -1.43970531                2.80577515               -2.21088517
              15.31204909                6.65033381               40.27189786                0.38556385                0.76967151                0.41559420               -0.85140445               -1.50188723                1.52809120               -4.56072999
              16.31842104                6.57660381               40.16319207                0.85051976                0.63719541                0.95199696               -1.10057290               -0.67494899                0.77756283               -6.85483250
               6.34700925                8.69265419               41.24470628                1.00000000                0.43291434               -0.34701653               -0.22271186               -0.20493865                1.13021331                4.91486238
               7.35133839                8.56563355               41.10179660                0.46443366                0.41143637               -0.66812833                0.09387563               -0.31221321                1.65221909                5.44820066
               8.35523797                8.43460984               40.97192729                0.03817524                0.42546673               -0.57898350                0.29860257               -0.97343990                2.69658520                3.61073388
               9.35984772                8.30321724               40.85376386                0.00010000                0.47162392               -0.46621135                0.38613374               -1.30631231                3.20730300                3.07749949
              10.36467045                8.17442194               40.73930011                0.00010000                0.50002709               -0.30529902                0.38853625               -1.41334417                3.33598916                2.48671116
              11.36984827                8.05156861               40.62923236                0.00010000                0.52487654               -0.14689141                0.33016548               -1.26092789                3.41637898                1.86378475
              12.37516798                7.93732253               40.52211083                0.00010000                0.53876564               -0.03922944                0.24116622               -0.97697817                3.33947119                1.03043640
              13.38062358                7.83294661               40.41635485                0.00010000                0.50389407                0.00324599                0.13333428               -0.63811787                3.05173548               -0.07069053
              14.38524586                7.73846773               40.30933668                0.12811874                0.38526536                0.04935486                0.02153387               -0.36421181                2.48157720               -1.58291991
              15.38832889                7.65324609               40.19718792                0.38368695                0.25946059                0.10295763               -0.02057474               -0.09726588                1.47837807               -3.55335654
              16.39043508                7.57371614               40.07352164                0.84791705                0.21061896               -0.48133267               -0.03482615               -0.12077766                0.75881127               -5.84619988
               6.47246417                9.68831596               41.23154444                0.99776930                0.18078473               -0.28630340               -0.27026136               -0.22868489                0.58753472                3.36899862
               7.47427202                9.56112332               41.08474355                0.48939624                0.14716520               -0.31326343                0.04047108               -0.57821647                1.09569908                3.20980584
               8.47540747                9.43070214               40.94998540                0.02608385                0.08055878               -0.26630572                0.23578124               -0.99824407                2.04222214                2.86650911
               9.47588319                9.30014731               40.82449755                0.00010000                0.03296485               -0.19277406                0.33205486               -1.21753389                2.69970292                2.34665312
              10.47606677                9.17260838               40.70583710                0.00010000                0.00872427               -0.09219279                0.35016721               -1.20785849                3.09330445                1.93933613
              11.47605768                9.05100012               40.59155436                0.00010000               -0.00228475                0.00751467                0.31719336               -0.99533011                3.27031061                1.47881195
              12.47602108                8.93766801               40.47983525                0.00010000               -0.00942911                0.08090405                0.26084556               -0.62605456                3.24322138                0.88930076
              13.47586910                8.83387338               40.36826944                0.00010000               -0.02885856                0.12018719                0.21154402               -0.19454189                2.96416971                0.07855312
              14.47544390                8.73948577               40.25371535                0.16841419               -0.05068682                0.09673675                0.20301523                0.20454386                2.36552457               -1.02679176
              15.47485536                8.65239296               40.13206920                0.38854759               -0.01892647               -0.10564890                0.26533433                0.35399684                1.38960602               -2.46229414
              16.47506538                8.56697716               39.99906986                0.84434462                0.02100157               -0.59714985                0.46274288                0.24677981                0.76873756               -4.07350891
               6.59682082               10.68692813               41.19956288                0.97950791                0.05670514               -0.04106204               -0.29810248               -0.19834369                0.50872862                1.62146051
               7.59738787               10.55936828               41.05221424                0.53450145               -0.02858598               -0.09621826                0.00725975               -0.40188045                0.92538607                1.61626738
               8.59624910               10.42928372               40.91491820                0.00010000               -0.18985302               -0.06104334                0.19933768               -0.67308308                1.80278003                1.48713409
               9.59359081               10.29936176               40.78663736                0.00010000               -0.32943140                0.00709833                0.29633551               -0.78456375                2.53105046                1.30506832
              10.58966048               10.17257808               40.66546160                0.00010000               -0.43543916                0.08786756                0.32118026               -0.74751191                3.05887292                1.09707875
              11.58488203               10.05171890               40.54926167                0.00010000               -0.49434249                0.16100920                0.29990810               -0.57347249                3.36898981                0.86489708
              12.57977363                9.93894061               40.43566154                0.00010000               -0.49835232                0.20473873                0.26214140               -0.29344328                3.43498649                0.55629843
              13.57491498                9.83535036               40.32186005                0.01985423               -0.44782307                0.19941482                0.24094197                0.04381230                3.20277572                0.12163166
              14.57081716                9.74040247               40.20430040                0.23395207               -0.34987762                0.11335049                0.27328567                0.33494307                2.58525122               -0.48004919
              15.56791743                9.65113311               40.07842114                0.40064916               -0.23074441               -0.10102371                0.40148570                0.37820882                1.48723986               -1.25915054
              16.56620228                9.56177315               39.93898253                0.83189549               -0.17151559               -0.39932165                0.66408954                0.23145628                0.79192974               -2.30350371
               6.72361699               11.68749472               41.15178778                0.99980693                0.02618209                0.05665923               -0.31170741               -0.14995970                0.46904338                0.76184804
               7.72387881               11.55919896               41.00418088                0.81403804               -0.08323264               -0.01693234               -0.00856141               -0.25157859                0.87286935                0.76644113
               8.72195234               11.42948128               40.86619206                0.49005965               -0.34906233                0.01975530                0.17899257               -0.37516081                1.75603838                0.72469946
               9.71689756               11.30028928               40.73724859                0.36933948               -0.65964740                0.09275202                0.27266441               -0.42510267                2.56536548                0.64656669
              10.70875939               11.17436573               40.61589876                0.35913963               -0.93359309                0.17876480                0.29677262               -0.39355765                3.22946222                0.55140208
              11.69822570               11.05422030               40.50019819                0.37016901               -1.11193168                0.25013988                0.27868088               -0.29578024                3.70740268                0.43530740
              12.68652075               10.94176278               40.38783358                0.40171279               -1.14711088                0.28221763                0.24776061               -0.14321833                3.95326965                0.28039213
              13.67528348               10.83786168               40.27593247                0.53391569               -1.00803685                0.25113205                0.23569667                0.03634943                3.88711150                0.05876115
              14.66636002               10.74175278               40.16074101                0.64980736               -0.71173128                0.13503094                0.27775866                0.17982550                3.37935746               -0.25092039
              15.66104886               10.65037249               40.03723813                0.71736531               -0.39727955               -0.07606227                0.41411694                0.17503991                2.17606795               -0.65149503
              16.65841443               10.55899072               39.89716496                0.91430690               -0.26344318               -0.27824211                0.69057811                0.08303884                1.35497269               -1.35866778
               5.66136876                1.74929866               42.55912628                1.00000000               -0.02306939                0.04765026               -0.14040533                0.06605359               -0.25210833                0.29327247
               6.66113806                1.63380624               42.41778219                1.00000000               -0.08552514               -0.08506367                0.28960441                0.06996433               -0.33954358                0.08180790
               7.65965826                1.51819678               42.27439059                1.00000000               -0.21013075               -0.21009764                0.69976305                0.06491811               -0.43325300               -0.00067074
               8.65693545                1.40248873               42.13087672                0.65649980               -0.33152005               -0.33327075                1.11042992                0.06451692               -0.33471870               -0.07855407
               9.65302785                1.28674536               41.98919944                0.70990493                2.41861112               -0.45838304                1.51275836                2.68541909                2.81441303               -0.28348496
              10.70530767                1.22344933               41.90878403                0.74935328                5.73098208               -3.80342647                1.72995230                0.79356099                6.68144808               -1.66175059
              11.76764750                1.05588712               41.83221103                0.72530447                3.10917703                0.01861191                0.87803266               -1.92427064                4.68359319               -1.25692465
              12.76749121                0.92062862               41.73662282                0.81626890                0.08301840                0.16193807               -0.04654186               -0.09557850                0.01239606                0.13570958
              13.76930786                0.78665833               41.64075521                1.00000000                0.25710772                0.21889579               -0.66802173                0.06445703               -0.10773460                0.13838110
              14.77263337                0.65337005               41.54123628                1.00000000                0.31342504                0.26627972               -0.86775627                0.05399043               -0.30494564                0.01731683
              15.77557637                0.51996934               41.44172988                1.00000000                0.29429980                0.27349955               -0.81911000                0.02810950               -0.27759399               -0.20066088
               5.77752171                2.74977516               42.50521619                1.00000000               -0.01330619                0.04675284               -0.16386685               -0.00119080               -0.04149772                0.43516821
               6.77738865                2.63295561               42.36383428                1.00000000               -0.07777575               -0.08263865                0.26672748                0.00484076               -0.06181676                0.14387149
               7.77596620                2.51609580               42.22170539                1.00000000               -0.20411597               -0.20862202                0.68809044                0.00419054               -0.08772102               -0.01693126
               8.77330633                2.39915602               42.07945694                0.31767950               -0.32822254               -0.33175017                1.10368766                0.00216312               -0.06125118               -0.14762223
               9.76940174                2.28216153               41.93781020                0.42876937                2.76830367               -0.45589463                1.50262084                1.01245146                3.80947662               -0.42642917
              10.82867240                2.18541506               41.87302493                0.49642479                6.52066989               -3.70783690                1.95580283                0.59010248                8.15760593               -0.80269650
              11.89981514                2.05607324               41.80136545                0.42063689                3.62387090                0.02437688               -0.12317524                0.02296633                1.38687161                0.12222940
              12.90114982                1.92224801               41.70629218                0.49950261                0.18832906                0.20362653               -0.69084637               -0.00113644                0.25639279                0.15353506
              13.90358172                1.78884729               41.61008796                1.00000000                0.26839752                0.26703837               -0.89405302                0.11469332                0.02269919                0.04923950
              14.90651777                1.65603285               41.51072930                1.00000000                0.28382243                0.30201709               -0.93740744                0.08173113               -0.10888377                0.01352736
              15.90925817                1.52270433               41.41132079                1.00000000                0.27404013                0.30380846               -0.90199467                0.03545160               -0.07362091               -0.18461108
               5.89498405                3.75023371               42.45389130                1.00000000               -0.00698130                0.04598026               -0.17769343               -0.00209971                0.03710314                0.58782759
               6.89491424                3.63215347               42.31106956                1.00000000               -0.07211992               -0.07791076                0.25004318                0.00051916                0.08123290                0.20322622
               7.89354165                3.51402434               42.16878075                0.75624376               -0.20006268               -0.20421886                0.67611250                0.00162709                0.14720296               -0.07255226
               8.89091299                3.39585372               42.02692375                0.00010000               -0.32619078               -0.32836328                1.09787460                0.00046459                0.11378719               -0.29006601
               9.88701784                3.27762747               41.88399232                0.00010000                2.61425133               -0.45458396                1.49168841               -0.50227695                4.07028027               -0.43441515
              10.94319801                3.14929259               41.82136791                0.00010000                7.21280217               -2.88704553                2.43107773                0.34358839               10.01926918                0.84456290
              12.03127388                3.05637466               41.77084571                0.00010000                4.57482087               -1.40397667               -0.25021305               -1.01690485                2.40723342               -1.87446720
              13.03469443                2.92470116               41.67432342                0.00010000                0.32715047                0.17370915               -0.93824060                0.37548659                0.33064879               -0.50556882
              14.03781689                2.79199910               41.57816404                0.37759173                0.28582601                0.34535737               -1.11103199                0.11531300                0.27812583                0.01179966
              15.04041095                2.65941039               41.48033770                1.00000000                0.25627661                0.34600367               -1.00413786                0.04878722                0.07058549                0.02698679
              16.04294242                2.52604551               41.37998733                1.00000000                0.25314737                0.34099065               -0.96527480                0.00425558               -0.02660812               -0.12458272
               6.01364021                4.75069477               42.40288473                1.00000000               -0.00317975                0.04960470               -0.19093313               -0.00445667                0.08373003                0.56985472
               7.01360841                4.63139739               42.25829519                1.00000000               -0.06708613               -0.07301180                0.23550779               -0.00591962                0.17001605                0.15469497
               8.01229848                4.51201142               42.11513297                0.36407007               -0.19479584               -0.19677171                0.65518073               -0.00731002                0.30747775               -0.18603604
               9.00971249                4.39258875               41.97305345                0.00010000               -0.31905734               -0.32706354                1.08301928               -0.00724703                0.47156087               -0.45403361
              10.00591734                4.27306985               41.83302258                0.00010000                2.35422438               -1.30703339                1.49985205                0.17290500                4.54863588                1.94670424
              11.05679698                4.12767415               41.77261145                0.00010000                4.90755718               -1.50768883                0.69778735               -0.58268962                6.64037448                0.90553288
              12.10406848                4.02799370               41.69915340                0.00010000                5.81190632               -2.57335337                0.34251937               -1.28958510                6.01423170               -1.15545203
              13.17303511                3.92572219               41.63333713                0.00010000                3.35551340               -1.21456409                0.39106307               -1.16579212                4.60624997               -1.64645646
              14.17117875                3.79575444               41.54780713                0.09138157                0.02060021                0.35789069               -1.06982022                0.14874126                0.96242732                0.17025875
              15.17344711                3.66295292               41.44994078                0.51479110                0.24471512                0.33130166               -0.96759135               -0.01916321                0.17373190                0.00685452
              16.17607305                3.52952415               41.34908528                0.93945229                0.26259409                0.33527716               -0.99562757               -0.03283339                0.01843921               -0.02107040
               6.13348967                5.75122581               42.35112216                1.00000000               -0.00104809                0.05745076               -0.20435423               -0.00535800                0.10906245                0.46140335
               7.13347919                5.63069323               42.20454809                0.73666599               -0.06427892               -0.06771275                0.22292300               -0.00702807                0.22502843                0.03261441
               8.13220409                5.51008890               42.06006389                0.16559607               -0.18847840               -0.19251457                0.64416540               -0.01787836                0.43261751               -0.37306411
               9.12970962                5.38931245               41.91751318                0.00010000                1.15932232               -0.93058302                1.05391812               -0.11081915                3.14885444                1.67657748
              10.15539054                5.25148680               41.82736859                0.00010000                2.34553720               -1.64151942                0.88788439                0.09305142                4.80563812                3.52210539
              11.17662036                5.11913881               41.73285682                0.00010000                2.60218037               -0.75373874                0.64340377               -0.52199460                4.64587580                1.70995259
              12.20743414                5.00490759               41.64998646                0.00010000                3.34987436               -1.65299578                0.33114680               -0.63730656                4.62698434                0.33668258
              13.24361785                4.90040987               41.57010295                0.00010000                4.80634206               -2.03577115               -0.00914875               -2.34124503                5.12030331               -1.14212276
              14.30356099                4.79915692               41.52090007                0.07348081                3.13200640               -0.58997356               -0.76844540               -2.74727856                2.69777029               -2.64190690
              15.30625798                4.66603642               41.41898775                0.39850716                0.27911582                0.63010687               -0.93414785               -3.49073001                0.09302274               -2.37967462
              16.30914330                4.53275105               41.31840433                0.85016853                0.28853229                2.52503010               -1.00371080               -3.70604586                0.08358133               -2.68660405
               6.25459820                6.75184378               42.29784405                1.00000000                0.00065562                0.06654243               -0.21568983               -0.00053735                0.13777382                0.31672072
               7.25460475                6.63004314               42.14927608                0.56467965               -0.06382494               -0.06744563                0.21744476               -0.00398879                0.24564964               -0.16904845
               8.25332170                6.50816113               42.00269138                0.08598022                0.57467307               -0.62179051                0.63957016               -0.28507672                2.85489716                2.04062588
               9.26609821                6.37397709               41.90632164                0.00010000                1.23151524               -1.20797663                0.71534406               -0.47416828                4.32474227                3.56727068
              10.27795200                6.24023946               41.79974623                0.00010000                1.34190412               -0.86416645                0.69670069               -1.08425063                3.76078853                2.73209734
              11.29293630                6.11259938               41.70132979                0.00010000                1.60496435               -0.53362405                0.54031791               -0.96744094                3.87954235                2.12477348
              12.31005129                5.99493379               41.60747420                0.00010000                1.95122908               -0.71656225                0.31628714               -1.17581561                3.92337096                0.99866220
              13.33196088                5.88500677               41.52089121                0.00010000                2.02776690               -0.94256421                0.05594864               -1.69570199                3.78411795               -0.42362267
              14.35060663                5.78395497               41.43429250                0.07746175                1.90387488               -0.98906036               -0.30106015               -4.11366992                2.99500751               -3.76819987
              15.37003838                5.67555506               41.34107496                0.37337398                0.89581269                0.80775458               -0.87141475               -3.68538059                1.39229499               -4.55769292
              16.36852288                5.58002475               41.23397325                0.83945272               -0.15154945                3.19232714               -1.39704328               -3.05330591                0.51338138               -5.81071229
               6.37708021                7.75255666               42.24303381                1.00000000                0.00018477               -0.15445211               -0.22584587               -0.08561593                0.06776246                2.98912915
               7.37708206                7.62934432               42.09141222                0.47931634                0.27441931               -0.37864507                0.22234556               -0.36202489                2.87411840                3.19506715
               8.38256860                7.49765309               41.99582860                0.05011211                0.55329332               -0.82641204                0.48245667               -0.66466211                4.31799329                4.19837720
               9.38814793                7.36515292               41.88176254                0.00010000                0.62573195               -0.69273747                0.60585371               -1.16396859                3.32437988                3.19173957
              10.39508324                7.23420347               41.77360490                0.00010000                0.72146451               -0.47214024                0.59813682               -1.31084481                3.37642649                2.78743587
              11.40257722                7.10846633               41.66810472                0.00010000                0.82136038               -0.30237853                0.50575168               -1.28097739                3.35036981                2.07782887
              12.41151045                6.99057634               41.56671915                0.00010000                0.90527071               -0.26409660                0.36456492               -1.16227908                3.34096481                1.11796320
              13.42068263                6.88155859               41.46798938                0.00010000                0.96144256               -0.20302563                0.18895911               -1.31636811                3.16666881               -0.36467170
              14.43073930                6.77937571               41.36932838                0.09024055                0.78989786               -0.19354080               -0.08135187               -1.53336179                2.62112584               -2.14651718
              15.43648059                6.68219151               41.26567232                0.36614728                0.41992522                0.52829388               -0.49697085               -1.60779429                1.56810374               -3.99897483
              16.43913780                6.59659759               41.15141159                0.83783800                0.26572128                0.87347273               -0.86956059               -0.91069382                0.75000928               -5.83470357
               6.49931055                8.74875474               42.24301874                1.00000000                0.29572684               -0.39087457               -0.09718954               -0.31801495                1.07045401                4.97613660
               7.50226782                8.62247023               42.10333988                0.45477426                0.24546531               -0.55957517                0.22849488               -0.50605333                1.52309980                5.43165234
               8.50421986                8.49163289               41.97562286                0.03297877                0.20003236               -0.48129277                0.44993092               -1.04661138                2.45427842                3.58968459
               9.50626847                8.36012234               41.85844138                0.00010000                0.21009176               -0.38949918                0.55412076               -1.29956373                2.87398180                3.05797118
              10.50842169                8.23079666               41.74406181                0.00010000                0.23377038               -0.25428593                0.56265684               -1.35397567                2.95074259                2.48848964
              11.51094387                8.10655181               41.63344081                0.00010000                0.26458796               -0.12700967                0.50320493               -1.18643461                3.02559001                1.88808797
              12.51371345                7.98965186               41.52543706                0.00010000                0.29451387               -0.03914091                0.40310859               -0.92958093                2.98969001                1.06192584
              13.51683415                7.88094625               41.41856036                0.00010000                0.27965074                0.00666638                0.27632832               -0.65329735                2.77160262               -0.05946822
              14.51930647                7.78008415               41.31020338                0.11244136                0.19132272                0.09664521                0.12513400               -0.48113385                2.26375629               -1.50711151
              15.52066061                7.68612093               41.19666122                0.36594249                0.10951919                0.23164606               -0.02417864               -0.21508202                1.35333642               -3.20046545
              16.52149685                7.59749420               41.07301464                0.83644664                0.08362443               -0.15230551               -0.04152652               -0.10610115                0.72203753               -4.91713684
               6.62328892                9.74473917               42.22988201                0.99270550                0.07939178               -0.28192917               -0.03520659               -0.25307650                0.53361537                3.41092874
               7.62408284                9.61815282               42.08613406                0.48215249                0.03476695               -0.32811377                0.25945823               -0.59636191                0.96990367                3.22481370
               8.62398426                9.48802724               41.95332138                0.02132305               -0.05449763               -0.27355056                0.44746298               -0.99525603                1.80380868                2.86500953
               9.62299289                9.35736294               41.82880307                0.00010000               -0.12050015               -0.19763928                0.53926744               -1.17598510                2.37651271                2.34537895
              10.62157426                9.22911775               41.71032254                0.00010000               -0.14997824               -0.10699127                0.55121550               -1.14315063                2.71904216                1.94404638
              11.61999332                9.10592614               41.59568513                0.00010000               -0.15249385               -0.02018111                0.50644917               -0.93359574                2.88265292                1.48800345
              12.61852438                8.98979353               41.48333891                0.00010000               -0.14044678                0.04353027                0.43016326               -0.59585094                2.87894216                0.89561865
              13.61718439                8.88169192               41.37115273                0.00010000               -0.12912217                0.08519742                0.34807518               -0.22058589                2.65068598                0.09194751
              14.61594194                8.78130861               41.25627442                0.14899267               -0.12077449                0.09391934                0.29015038                0.12655603                2.12587090               -0.95903741
              15.61476890                8.68682444               41.13505021                0.37139518               -0.08363487               -0.01066334                0.30251484                0.26717089                1.23476293               -2.24358469
              16.61426924                8.59355148               41.00344195                0.83318370               -0.04996569               -0.38383763                0.43552277                0.19164944                0.64871968               -3.64031219
               6.74742172               10.74311616               42.19792274                0.97485463               -0.03692088               -0.09200150                0.00116756               -0.18194970                0.45307979                1.64512387
               7.74705251               10.61590796               42.05350577                0.52910491               -0.11585499               -0.16137634                0.27654593               -0.37779957                0.79913751                1.62623416
               8.74510462               10.48616188               41.91806904                0.00010000               -0.26971287               -0.12604336                0.45005569               -0.63603745                1.56597761                1.48889622
               9.74165825               10.35616956               41.79072335                0.00010000               -0.40545714               -0.05697054                0.53385734               -0.73960656                2.20968077                1.30481836
              10.73699548               10.22865683               41.66975873                0.00010000               -0.50310340                0.02095447                0.54512185               -0.69913989                2.68333664                1.09732544
              11.73159618               10.10614819               41.55328372                0.00010000               -0.54824100                0.08949110                0.50536120               -0.53541215                2.97177615                0.86342911
              12.72603066                9.99052246               41.43920009                0.00010000               -0.53444187                0.13177702                0.44050712               -0.28454095                3.04868408                0.55157504
              13.72090735                9.88265020               41.32502024                0.00079990               -0.46627937                0.13375517                0.38137257                0.00671894                2.85959821                0.12038527
              14.71670507                9.78196254               41.20755565                0.21063110               -0.35730962                0.07435806                0.36555556                0.24995451                2.31671111               -0.45399985
              15.71376115                9.68590767               41.08264848                0.38395982               -0.24146604               -0.08559822                0.43947624                0.29331241                1.33350586               -1.17080077
              16.71187575                9.58981745               40.94560757                0.82031781               -0.18854070               -0.30775859                0.65999927                0.18940633                0.70941418               -2.11178321
               6.87406632               11.74289914               42.15011368                0.99770412               -0.05851982               -0.02170195                0.00747885               -0.13292406                0.41274950                0.76386242
               7.87348112               11.61492529               42.00540616                0.81221856               -0.15322042               -0.09826680                0.27846477               -0.22677674                0.74611810                0.76362855
               8.87100191               11.48550637               41.86924443                0.48783411               -0.38876585               -0.06555099                0.44973002               -0.34535867                1.51792517                0.71857150
               9.86570581               11.35622352               41.74121447                0.36937034               -0.66945408                0.00539674                0.53199833               -0.39372098                2.24200330                0.64030867
              10.85761283               11.22953684               41.62007452                0.35924622               -0.91431794                0.08800095                0.54290063               -0.36364242                2.85178869                0.54595290
              11.84741945               11.10771596               41.50412691                0.36994934               -1.06406423                0.15677754                0.50431203               -0.27306220                3.30646146                0.42981597
              12.83633155               10.99242907               41.39132808                0.40074102               -1.07703798                0.19066038                0.44133487               -0.13735776                3.55758016                0.27426531
              13.82587869               10.88436702               41.27910431                0.52254694               -0.93239924                0.17168192                0.38311007                0.01546967                3.52393582                0.05633601
              14.81768356               10.78279577               41.16404942                0.63692540               -0.65492264                0.08332340                0.36604565                0.13512209                3.08269291               -0.23803130
              15.81278024               10.68511247               41.04159370                0.70911704               -0.37228801               -0.07951956                0.43889243                0.13193507                1.99563203               -0.60308401
              16.81023780               10.58739631               40.90402693                0.90820810               -0.25424332               -0.24211393                0.67270898                0.06458948                1.24983795               -1.26556647
               5.79795274                1.80631011               43.55745570                1.00000000               -0.00657318                0.05775535               -0.18276892                0.07359663               -0.28326806                0.31099273
               6.79788701                1.68870864               43.42056490                1.00000000               -0.06619669               -0.08435500                0.26718535                0.07862955               -0.38471202                0.08551268
               7.79662881                1.57096721               43.28134105                1.00000000               -0.18519356               -0.21562426                0.67699588                0.08491629               -0.47084285                0.01522469
               8.79418314                1.45323218               43.14207395                0.66418887               -0.31934498               -0.34943745                1.09530032                0.06467386               -0.34545261               -0.06806993
               9.79024191                1.33540718               43.00454598                0.71754178                3.52038025               -0.48483280                1.54659711                0.32127765                3.12523330               -0.26535307
              10.86459075                1.22257370               42.93381695                0.75077148                3.71450327                0.00794794                1.30001040                1.12655817                4.38649755               -1.91808529
              11.86453198                1.08856164               42.83337244                0.71724662                0.02909443                0.01882382                0.06884939                0.05217108               -0.15849770               -0.02176566
              12.86517263                0.95408306               42.73425940                0.80018640                0.12359690                0.12058974               -0.25753016                0.02132484               -0.10879626                0.04992472
              13.86700391                0.81916676               42.63423488                1.00000000                0.21968722                0.21498360               -0.61549784                0.01694343               -0.24015207                0.02852196
              14.86956638                0.68419585               42.53277997                1.00000000                0.26674354                0.27089238               -0.81772833                0.01235115               -0.30448905               -0.02511624
              15.87233878                0.54876426               42.43257328                1.00000000                0.27724056                0.32655443               -0.94786838                0.00691828               -0.25629163               -0.20634549
               5.91629018                2.80688766               43.50330232                1.00000000                0.00545764                0.05390564               -0.20937530                0.00069915               -0.05963985                0.45094888
               6.91634476                2.68786509               43.36637039                1.00000000               -0.05369901               -0.08356288                0.24353912                0.00863291               -0.08486443                0.14685721
               7.91521620                2.56881097               43.22859533                1.00000000               -0.18674312               -0.21608868                0.66663559                0.01571173               -0.09469168               -0.00661979
               8.91260989                2.44973781               43.09067266                0.33425005               -0.32161352               -0.35373394                1.14495388                0.00020417               -0.01647829               -0.14010517
               9.90878393                2.33055885               42.95309734                0.44188066                4.33346016               -0.48956404                1.59360471                0.56366499                4.02785419               -0.43072345
              10.99927910                2.22265318               42.89675134                0.50243390                4.52575380                0.00232919                1.19234643                1.34031784                5.79642411               -0.02822963
              11.99929900                2.08874988               42.79895880                0.41924561                0.04021143                0.06548170               -0.20785618                0.05459522                0.15065606               -0.02003041
              13.00008332                1.95528896               42.70072956                0.48471548                0.14089737                0.18426691               -0.50918315                0.10842650                0.09011071                0.02287544
              14.00211695                1.82131659               42.60166639                1.00000000                0.24039053                0.25020214               -0.78592153                0.08643394               -0.02310474                0.00376378
              15.00489114                1.68690478               42.50141340                1.00000000                0.28613018                0.30742028               -0.92791855                0.05356897               -0.08709315               -0.02664549
              16.00783956                1.55202981               42.40136198                1.00000000                0.29484200                0.36444107               -1.05552018                0.04313095               -0.06122709               -0.20734826
               6.03601187                3.80738822               43.45186295                1.00000000                0.01244904                0.04813432               -0.21939521               -0.00405035                0.02468126                0.60126348
               7.03613636                3.68703738               43.31344726                1.00000000               -0.04707753               -0.08005447                0.22806697               -0.00224562                0.07064447                0.20670568
               8.03507032                3.56664543               43.17557993                0.77227846               -0.18485126               -0.21294870                0.65873858               -0.00920805                0.16100579               -0.08168341
               9.03243934                3.44615750               43.03812824                0.00010000               -0.32352408               -0.34966389                1.15389729               -0.00585247                0.17672445               -0.30543100
              10.02859984                3.32561590               42.89917307                0.00010000                5.03833684               -0.49153664                1.59136715                0.86946096                5.03772513               -0.45724013
              11.13320607                3.22262028               42.86002759                0.00010000                5.21941291               -1.90429726                1.93789976               -2.57496317                7.74172612               -0.35300981
              12.13298810                3.08987127               42.76447227                0.00010000                0.07841885               -0.54800430               -0.53135819               -1.88983453                0.49338657               -1.40099891
              13.13477445                2.95776840               42.66739944                0.00010000                0.20643379                0.25456109               -0.70318000                0.14156342                0.30266634               -0.04838178
              14.13711677                2.82417080               42.56910692                0.36082437                0.25750447                0.29077427               -0.87291632                0.09698219                0.17399172                0.08832223
              15.13992454                2.69034426               42.47015949                1.00000000                0.29172826                0.34889551               -1.03046462                0.06989026                0.06807828                0.04921804
              16.14295134                2.55605308               42.36953856                1.00000000                0.30267985                0.40747632               -1.13652918                0.04171617                0.02219401               -0.11297787
               6.15691085                4.80785035               43.40074309                1.00000000                0.01317748                0.05061588               -0.22903111               -0.01019767                0.07492030                0.57448389
               7.15704263                4.68626400               43.26055036                1.00000000               -0.04994697               -0.07278408                0.21521958               -0.01739971                0.15692345                0.15571525
               8.15591191                4.56455199               43.12167969                0.35983976               -0.17601235               -0.20109684                0.64433604               -0.03420813                0.31283853               -0.19995047
               9.15352238                4.44274453               42.98407157                0.00010000               -0.31007714               -0.33171680                1.09402256               -0.04226482                0.50582122               -0.48497313
              10.14971037                4.32072812               42.84838383                0.00010000                1.50010386               -1.08577921                1.56628174                0.33528686                4.02564127                1.58754627
              11.18352446                4.18456723               42.77989067                0.00010000                3.83219133               -2.50325720                0.89672476               -3.28024618                5.86865881               -0.50242915
              12.22635420                4.07778979               42.70208851                0.00010000                4.25453066               -1.72085380                0.91791841               -1.18805652                6.09538799               -0.62551666
              13.26861507                3.96038018               42.63371671                0.00010000                2.25632705               -0.64582112               -0.46237381               -1.13576466                1.77621038               -1.48464523
              14.27148074                3.82713208               42.53901943                0.07788047                0.28957918                0.30361103               -0.86077545                0.13268999                0.47586182                0.34574310
              15.27440665                3.69388269               42.44033083                0.48160139                0.28877441                0.31415564               -0.94956209                0.07110231                0.17272446                0.10908759
              16.27725623                3.56017933               42.33909222                0.91412738                0.28495717                0.36776266               -1.03851455                0.01538531                0.05081520                0.05752439
               6.27898062                5.80840054               43.34886715                1.00000000                0.01061056                0.06121457               -0.23930980               -0.01073691                0.09853878                0.45951294
               7.27908672                5.68558170               43.20668925                0.72372790               -0.05374957               -0.06456498                0.20551550               -0.01970458                0.20996559                0.03623407
               8.27790563                5.56262350               43.06652477                0.15762322               -0.18344041               -0.18916602                0.63758876               -0.04157570                0.41175968               -0.36969791
               9.27541791                5.43952317               42.92814444                0.00010000                0.77886249               -0.75046634                1.06328264               -0.17563058                2.85446703                1.51260078
              10.29348288                5.30390031               42.83672255                0.00010000                1.75607812               -1.30230217                0.94122500               -0.02373532                4.24282483                3.15484670
              11.31053948                5.17255514               42.74022920                0.00010000                1.99655723               -0.89697292                0.78268227               -0.29525804                4.04489740                1.62846678
              12.33341402                5.05545420               42.65445898                0.00010000                2.60886989               -1.55357103                0.38912191               -0.77237260                3.81394856                0.52963776
              13.36271687                4.94485198               42.57076276                0.00010000                3.64270242               -1.43353200                0.08388402               -1.92077327                4.67929465               -1.17426364
              14.40626807                4.83024302               42.51221152                0.06215892                2.27912275               -0.26747891               -0.76506770               -2.47118113                2.31306883               -2.20196037
              15.40829933                4.69662737               42.41014439                0.37191577                0.21988408                0.66065475               -0.76886190               -2.83022083                0.11406438               -2.22079155
              16.41066575                4.56340834               42.30898321                0.83111089                0.23664203                2.26376841               -0.81471206               -3.13745924                0.07099011               -2.61181239
               6.40233379                6.80907464               43.29549461                1.00000000                0.00917813                0.07318260               -0.24749391               -0.00322079                0.12754757                0.31051497
               7.40242557                6.68497270               43.15139442                0.55040425               -0.05974323               -0.06291321                0.20558541               -0.01165935                0.22703219               -0.15480061
               8.40113893                6.56076867               43.00913927                0.07944170                0.31536891               -0.46528099                0.64244862               -0.33368065                2.66859919                1.99970754
               9.40873295                6.42773520               42.91385470                0.00010000                0.75323828               -0.91682884                0.77620863               -0.54858397                3.96616029                3.40034364
              10.41620369                6.29468208               42.80725123                0.00010000                0.86662302               -0.68764067                0.79176231               -1.03594654                3.32071449                2.62868796
              11.42606541                6.16662777               42.70740300                0.00010000                1.12031060               -0.45858192                0.64811640               -1.02166040                3.36433679                2.10070254
              12.43860990                6.04671837               42.61120380                0.00010000                1.46726864               -0.63025979                0.42916467               -1.22294841                3.48841158                1.00096024
              13.45541078                5.93170954               42.52178954                0.00010000                1.58359079               -0.80030450                0.11755272               -1.85759676                3.30146787               -0.38782172
              14.47028172                5.82178250               42.43160659                0.06635909                1.46130663               -0.52927874               -0.21986645               -3.65573193                2.52341270               -3.39779730
              15.48463692                5.70709578               42.33421686                0.35113723                0.53316928                0.90703405               -0.57865611               -3.16495883                1.05103154               -4.26258234
              16.48094511                5.60545470               42.22492865                0.82403003               -0.36918110                2.87300054               -0.72806752               -2.60026135                0.30956563               -5.63068799
               6.52712008                7.80986419               43.24059736                1.00000000                0.00394199               -0.18729574               -0.25619728               -0.28196309                0.06525626                3.09221723
               7.52715950                7.68432343               43.09363420                0.46657489                0.06747121               -0.27139743                0.22112295               -0.48878083                2.79044388                3.25233333
               8.52846951                7.55331788               43.00111760                0.04367484                0.16866647               -0.59289605                0.57522682               -0.75268611                4.11534738                4.17009340
               9.53053283                7.42118659               42.88842267                0.00010000                0.27009342               -0.51995378                0.72067351               -1.15074589                3.00255876                3.16745510
              10.53387137                7.29014750               42.78028747                0.00010000                0.37685703               -0.36039927                0.72593595               -1.26604567                2.98348913                2.77387203
              11.53806997                7.16338350               42.67388133                0.00010000                0.50009554               -0.24389101                0.63503084               -1.21895489                2.94796699                2.09516174
              12.54387328                7.04284900               42.57102704                0.00010000                0.62154209               -0.23885438                0.47358877               -1.16526403                2.94440092                1.17337109
              13.55050081                6.92884589               42.47025970                0.00010000                0.69469519               -0.15578226                0.25734216               -1.36565146                2.78488048               -0.27393345
              14.55776719                6.81965744               42.36890812                0.07795596                0.54135677               -0.02015187               -0.01777119               -1.59697135                2.20618920               -1.94651597
              15.56132795                6.71476805               42.26195844                0.34725486                0.20877459                0.63815504               -0.32243856               -1.54208307                1.25325136               -3.53589007
              16.56194268                6.62086835               42.14580086                0.82503880                0.06147317                0.89441733               -0.46916946               -0.82877680                0.60597400               -5.04050564
               6.64777604                8.80532872               43.24276249                1.00000000                0.14202260               -0.41168285                0.06930406               -0.40278297                1.01982547                5.20330910
               7.64919627                8.67954475               43.10636650                0.44406988                0.07230031               -0.44348632                0.39338530               -0.66733769                1.40320545                5.53576031
               8.64922205                8.54891075               42.98092591                0.02688410               -0.01539281               -0.38808640                0.62058274               -1.09317434                2.22919537                3.63061664
               9.64888841                8.41733613               42.86484627                0.00010000               -0.02680879               -0.32068404                0.73062720               -1.27786026                2.56230382                3.07701045
              10.64868587                8.28747409               42.75055325                0.00010000                0.00482009               -0.21775607                0.73435506               -1.29459982                2.58566554                2.50630630
              11.64898481                8.16174995               42.63929645                0.00010000                0.05781829               -0.12331134                0.66150373               -1.14542060                2.64227425                1.91444031
              12.64984224                8.04194128               42.53017300                0.00010000                0.11522511               -0.05158230                0.53469566               -0.94485109                2.61922847                1.09926836
              13.65128931                7.92859390               42.42188142                0.00010000                0.12889461                0.02032797                0.37143309               -0.75576619                2.42098639                0.01654902
              14.65242013                7.82137946               42.31183936                0.09754757                0.06475183                0.16476492                0.18806418               -0.62191796                1.95239567               -1.30925908
              15.65258435                7.71985888               42.19670434                0.34903310               -0.01255760                0.33829742                0.03273615               -0.34906363                1.14318505               -2.72993981
              16.65216898                7.62334305               42.07269111                0.82520590               -0.04153742                0.03548193                0.02760876               -0.18590243                0.59238852               -4.16207597
               6.77063237                9.80163053               43.23084031                0.98758363               -0.04016506               -0.28648943                0.26174343               -0.27066649                0.48637833                3.56504255
               7.77023072                9.67545371               43.08993271                0.47355563               -0.09088655               -0.34619396                0.52734101               -0.60231623                0.85027945                3.31611835
               8.76881464                9.54555615               42.95893466                0.01573709               -0.19092167               -0.28860769                0.69452647               -0.97758861                1.57607370                2.91174375
               9.76641229                9.41477291               42.83528290                0.00010000               -0.26245436               -0.21447026                0.76904659               -1.12787204                2.06695731                2.37039228
              10.76356555                9.28579238               42.71686141                0.00010000               -0.28589607               -0.13507428                0.76266203               -1.08873334                2.35685154                1.96096663
              11.76069436                9.16091727               42.60168335                0.00010000               -0.27166153               -0.06021228                0.69372029               -0.90418181                2.49818507                1.50230763
              12.75813232                9.04181736               42.48843852                0.00010000               -0.23735259                0.00208293                0.58495796               -0.62481378                2.49912343                0.91626834
              13.75594731                8.92925245               42.37523094                0.00010000               -0.20342394                0.06062939                0.46135444               -0.32012739                2.30079404                0.14370495
              14.75406384                8.82295274               42.25951836                0.12994586               -0.17821125                0.10840003                0.35636049               -0.03077143                1.83402690               -0.81491228
              15.75238309                8.72153400               42.13811949                0.35525131               -0.14037725                0.06573580                0.32326362                0.12882648                1.05696883               -1.92916469
              16.75125630                8.62157799               42.00778031                0.82244795               -0.11267903               -0.21952743                0.44121414                0.11956924                0.55337437               -3.10688185
               6.89471636               10.79959893               43.19958623                0.96988319               -0.14920372               -0.16202207                0.37108442               -0.16507389                0.40420842                1.72700767
               7.89322432               10.67262087               43.05774515                0.52220666               -0.21826449               -0.23914767                0.60284476               -0.35103201                0.68048538                1.67382616
               8.89035107               10.54313860               42.92391932                0.00010000               -0.35647916               -0.20271121                0.74357288               -0.59431310                1.34179649                1.51322593
               9.88609474               10.41304672               42.79731450                0.00010000               -0.47921145               -0.13298469                0.80064134               -0.69353714                1.90188646                1.31638175
              10.88076684               10.28477260               42.67636404                0.00010000               -0.56092706               -0.05695907                0.78561288               -0.65919215                2.31748219                1.10211442
              11.87487620               10.16054571               42.55936889                0.00010000               -0.58780270                0.01064868                0.71543466               -0.51913243                2.57517927                0.86440833
              12.86901079               10.04198294               42.44447168                0.00010000               -0.55624087                0.05873756                0.61309611               -0.30882960                2.65042478                0.55413834
              13.86375138                9.92980648               42.32948750                0.00010000               -0.47438205                0.07839074                0.50875341               -0.06709705                2.49142898                0.14098505
              14.85952315                9.82354746               42.21161151                0.18622738               -0.36078729                0.05259347                0.44269683                0.14138767                2.01952409               -0.38538566
              15.85653564                9.72117360               42.08721066                0.36843829               -0.25253794               -0.05568199                0.47087709                0.20029732                1.15842489               -1.01723444
              16.85447239                9.61895250               41.95218251                0.80937277               -0.20632477               -0.23686540                0.66104935                0.14231243                0.61138379               -1.84667619
               7.02128702               11.79839009               43.15193735                0.99546415               -0.16166052               -0.12088442                0.39490775               -0.11486752                0.37107137                0.79491015
               8.01967042               11.67067075               43.00975018                0.80971917               -0.23922491               -0.19501161                0.61996010               -0.19979884                0.63732143                0.77751334
               9.01650252               11.54150193               42.87518666                0.48533829               -0.43814406               -0.16366707                0.76046937               -0.31273151                1.30332024                0.72175763
              10.01090754               11.41211322               42.74788855                0.36941494               -0.68098999               -0.09335062                0.81732497               -0.36115683                1.93894134                0.63807374
              11.00288272               11.28465320               42.62675678                0.35935616               -0.89030792               -0.01194060                0.80122413               -0.33756028                2.48456388                0.54137435
              11.99310138               11.16113025               42.51028443                0.36971114               -1.00938846                0.05845383                0.72879240               -0.26053667                2.90054165                0.42431525
              12.98269495               11.04299211               42.39666028                0.39978791               -1.00302617                0.10091647                0.62193482               -0.14708256                3.13797503                0.27113933
              13.97304085               10.93082026               42.28359467                0.50967282               -0.85852366                0.10137781                0.50948792               -0.02042759                3.11934981                0.06362151
              14.96552448               10.82400461               42.16806192                0.62294122               -0.60284292                0.04571499                0.43152891                0.08013843                2.73363785               -0.20532118
              15.96098400               10.72042036               42.04601597                0.70156960               -0.34898700               -0.07532375                0.44510461                0.08663937                1.77245122               -0.52979520
              16.95854474               10.61684068               41.91061914                0.90245509               -0.24392541               -0.21118214                0.64676388                0.04926721                1.11303945               -1.12025582
               5.92948499                1.86382526               44.55547090                1.00000000                0.00734845                0.05616244               -0.18719688                0.07880693               -0.35378331                0.34065220
               6.92955847                1.74390553               44.42312589                1.00000000               -0.03763144               -0.08951347                0.25610665                0.09236191               -0.49347771                0.09291465
               7.92873236                1.62399272               44.28793051                1.00000000               -0.13685011               -0.22681991                0.62233677                0.10499167               -0.59832932                0.00591528
               8.92682147                1.50392990               44.15278272                0.67211224               -0.24714205               -0.36302835                1.03364912                0.18247106               -0.41389421                0.04342885
               9.92378952                1.38433558               44.02013138                0.72669116                1.86948470               -0.54156155                1.46578910               -0.22649029                2.02169925               -0.30927806
              10.96421116                1.25921884               43.93478423                0.75379395                2.01227886               -0.05790057                0.17665655                0.45000045                0.73733107               -0.06352968
              11.96403509                1.12427908               43.83358802                0.70797703                0.01208451                0.02937250                0.01997082               -0.04510746               -0.15171211                0.05261420
              12.96445285                0.98868679               43.73147222                0.77710311                0.09745799                0.08786861               -0.26171213               -0.01650723               -0.23890016                0.00923305
              13.96598425                0.85236575               43.62844525                1.00000000                0.18761642                0.16847754               -0.53595534               -0.00914289               -0.32087947               -0.02100076
              14.96820518                0.71560086               43.52488171                1.00000000                0.24398269                0.25195568               -0.75460618               -0.01752185               -0.29665793               -0.06320825
              15.97086391                0.57826503               43.42277252                1.00000000                0.26587257                0.33270591               -0.97447683               -0.00632558               -0.23440501               -0.23610886
               6.05019279                2.86438688               44.50102869                1.00000000                0.02055712                0.04964797               -0.21820834                0.00355471               -0.09987985                0.47564105
               7.05039836                2.74301039               44.36870506                1.00000000               -0.02113488               -0.08989602                0.23067066                0.01946583               -0.16199761                0.15231218
               8.04977009                2.62172452               44.23503810                1.00000000               -0.09618040               -0.23432113                0.62310831                0.03188236               -0.14087258               -0.00882711
               9.04847475                2.50029962               44.10235601                0.35388651               -0.29449723               -0.37918553                1.05898537                0.06141533                0.05215064               -0.07648555
              10.04388014                2.37891997               43.96968229                0.45953423                2.51323340               -0.55697074                1.84369048                0.02118473                3.34148203               -0.42115648
              11.09873942                2.25863983               43.89687186                0.51209972                2.74849490               -0.00628828                0.02896469                0.70875087                1.31303677               -0.02806178
              12.09885004                2.12457280               43.79720833                0.41703433                0.07525148                0.04729446               -0.19695240                0.03301585                0.01696457                0.00977444
              13.10024445                1.98956548               43.69610851                0.46130159                0.17928739                0.10297918               -0.45216424                0.05689808               -0.01913670               -0.04351293
              14.10243579                1.85405052               43.59436953                1.00000000                0.24179356                0.20233781               -0.70004688                0.05536792               -0.05301357               -0.04306532
              15.10508032                1.71812041               43.49217093                1.00000000                0.28503427                0.29382329               -0.91064511                0.03386358               -0.06446774               -0.07759744
              16.10813648                1.58159209               43.39021039                1.00000000                0.30561567                0.38953366               -1.13116926                0.03538090               -0.03799881               -0.26508597
               6.17230906                3.86481822               44.44950340                1.00000000                0.03010859                0.03966807               -0.22916432               -0.00449717               -0.00575810                0.62353372
               7.17261015                3.74210761               44.31563090                1.00000000               -0.01141389               -0.08703453                0.21281002               -0.00500020                0.01364155                0.21286801
               8.17208078                3.61930630               44.18195552                0.78568290               -0.08779069               -0.23284735                0.61655204               -0.02487340                0.15615582               -0.07805224
               9.17085433                3.49634619               44.05000170                0.00010000               -0.31038941               -0.37132593                1.06465930               -0.07300545                0.29253806               -0.36601089
              10.16587300                3.37319617               43.91581966                0.00010000                3.09395040               -0.58243341                1.92430759                0.47389038                4.43660415               -0.56720230
              11.23273334                3.25909307               43.86012590                0.00010000                3.39483852               -1.06079363               -0.15182377               -1.31225697                1.95404272               -1.81030015
              12.23376977                3.12522497               43.76021855                0.00010000                0.16898785                0.04619247               -0.40410614                0.24767281                0.14919836               -0.32364165
              13.23611310                2.99074637               43.66025982                0.00010000                0.23834535                0.15502430               -0.65734245                0.12857378                0.23136024               -0.16195414
              14.23853667                2.85641250               43.56070572                0.34056745                0.26138916                0.27570904               -0.84562815                0.11885128                0.21026106                0.08859194
              15.24134088                2.72147732               43.45972840                1.00000000                0.30457483                0.35146785               -1.06504327                0.06958493                0.09704758                0.06108998
              16.24462817                2.58605571               43.35725675                1.00000000                0.32872877                0.48189450               -1.29643086                0.02934302                0.07396028               -0.11514873
               6.29552407                4.86518025               44.39830410                1.00000000                0.02862069                0.04231630               -0.24028364               -0.01569531                0.04879509                0.58630346
               7.29581027                4.74126970               44.26259958                1.00000000               -0.02450120               -0.07668739                0.19911213               -0.03509683                0.11419634                0.16128957
               8.29503404                4.61706758               44.12801969                0.35397587               -0.13427487               -0.20354683                0.60694518               -0.07466472                0.28182586               -0.19209322
               9.29312478                4.49287310               43.99493390                0.00010000               -0.22114862               -0.32824213                1.06728169               -0.20247162                0.53955042               -0.57638615
              10.29061107                4.36727130               43.86434821                0.00010000                1.36703507               -0.87399178                1.47567186                0.34200678                3.47595549                1.28061579
              11.32046548                4.23742396               43.79054595                0.00010000                4.07695636               -1.74486255                0.90268620               -1.73630535                5.56942640               -0.58487728
              12.37215020                4.12549665               43.71751177                0.00010000                2.55814570               -0.94199589                0.78901080               -1.26741020                4.03603151               -0.76824144
              13.37162839                3.99266596               43.62408965                0.00010000                0.09658347               -0.09472999               -0.85573800               -1.12969243                0.96815487               -1.02965844
              14.37408187                3.85956470               43.53059162                0.06410725                0.26002110                0.30590245               -0.92829298                0.21939348                0.63978242                0.47936034
              15.37682881                3.72514977               43.43094954                0.44463468                0.27423523                0.31286182               -0.97770033                0.10459905                0.21410829                0.24555295
              16.37956657                3.59122998               43.32831499                0.88573092                0.27377576                0.43113331               -1.14439780                0.02088595                0.14655444                0.19640083
               6.41981624                5.86566455               44.34633596                1.00000000                0.02046392                0.05718117               -0.25134427               -0.01779498                0.07611441                0.46264723
               7.42002088                5.74057386               44.20865840                0.70933519               -0.04160718               -0.06337668                0.19035128               -0.03693606                0.17349254                0.04731637
               8.41898410                5.61523536               44.07281566                0.15139659               -0.17098492               -0.17525649                0.60937001               -0.07965778                0.37207868               -0.35276285
               9.41660118                5.48978135               43.93877884                0.00010000                0.45890866               -0.55836798                1.02337544               -0.26671749                2.54600672                1.38257773
              10.42816227                5.35571633               43.84619309                0.00010000                1.15903490               -0.90114979                0.95890548               -0.26893018                3.78996813                2.75085771
              11.43978188                5.22419582               43.74851046                0.00010000                1.25086446               -0.82313272                0.80926036               -0.67631479                3.38156138                1.40119897
              12.45317956                5.10638505               43.65776889                0.00010000                1.98346621               -1.35558585                0.39369857               -2.10306317                3.27064743               -0.06801690
              13.47945120                4.98885177               43.57178063                0.00010000                2.86305872               -0.74562841               -0.01565793               -1.89477219                3.88045565               -0.81676321
              14.51044073                4.86253055               43.50559872                0.05111538                1.61581897               -0.01311388               -0.49103046               -2.32757613                1.93678396               -1.95606898
              15.51176758                4.72773456               43.40361052                0.34391267                0.12223670                0.66697935               -0.41866302               -2.34720214                0.15444600               -2.17588693
              16.51288547                4.59467837               43.30211009                0.81055145                0.11178846                1.96816756               -0.32998787               -2.61941648                0.08188264               -2.67607096
               6.54534954                6.86632387               44.29289417                1.00000000                0.01511963                0.07342878               -0.25994429               -0.00739946                0.10895391                0.30588370
               7.54550073                6.74000217               44.15338779                0.53515117               -0.05580676               -0.05774785                0.19311303               -0.02058040                0.19535000               -0.13082325
               8.54423340                6.61356245               44.01554035                0.07208576                0.09043630               -0.29835207                0.62540582               -0.35967231                2.48891188                2.01834366
               9.54730946                6.48170574               43.92184581                0.00010000                0.32922950               -0.61354511                0.79723015               -0.59430428                3.65898809                3.28361187
              10.55081799                6.34924830               43.81558148                0.00010000                0.44805013               -0.46687180                0.83418240               -0.98061720                2.91434299                2.56181623
              11.55627046                6.22096130               43.71429211                0.00010000                0.73074942               -0.28598551                0.69522341               -0.99241296                2.92393113                2.04314310
              12.56543298                6.09838494               43.61605749                0.00010000                1.06584933               -0.56552410                0.47873552               -1.11836873                3.00225535                1.06730226
              13.57758745                5.97775339               43.52324227                0.00010000                1.16072888               -0.64318653                0.15564823               -2.00172801                2.84845776               -0.35042535
              14.58864756                5.85930242               43.42989517                0.05599149                1.00747503               -0.11589662               -0.17415139               -3.32702150                2.07471338               -3.11517620
              15.59773695                5.73848936               43.32950184                0.32893460                0.23215294                1.06258354               -0.54323113               -2.79118990                0.72502066               -3.95983747
              16.59329062                5.63059333               43.21941190                0.80807009               -0.44463325                2.66733219               -0.84680439               -2.25525402                0.15509217               -5.11787773
               6.67231165                7.86713312               44.23790986                1.00000000                0.00590435               -0.18729497               -0.27110298               -0.41394647                0.06242958                3.30052374
               7.67237069                7.73941890               44.09583467                0.45289459               -0.11122830               -0.15576201                0.21568875               -0.55985118                2.74204053                3.40803757
               8.67008708                7.60926832               44.00733314                0.03644886               -0.16707261               -0.35671411                0.66437731               -0.79089360                3.96749332                4.23911392
               9.66902924                7.47751044               43.89617601                0.00010000               -0.03963623               -0.34517083                0.81653546               -1.11558408                2.70584756                3.21243194
              10.66929436                7.34637890               43.78812362                0.00010000                0.08838720               -0.24497308                0.82612803               -1.20837517                2.62428892                2.79566562
              11.67079698                7.21847611               43.68080534                0.00010000                0.23628679               -0.19613538                0.73743657               -1.17025908                2.55003561                2.13159983
              12.67402009                7.09507457               43.57619093                0.00010000                0.38510859               -0.20795972                0.55378518               -1.22039933                2.53047958                1.22416830
              13.67849916                6.97598804               43.47313622                0.00010000                0.45721218               -0.07237017                0.30040819               -1.44309412                2.33987470               -0.14017831
              14.68316434                6.86021262               43.36897295                0.06679060                0.30768593                0.19931541                0.00429840               -1.60589597                1.74683340               -1.68593816
              15.68465288                6.74898623               43.25922354                0.32905103                0.02040493                0.84358638               -0.26762510               -1.36259974                0.88425531               -3.04546433
              16.68357244                6.64802502               43.14202820                0.81221802               -0.10804383                1.08399503               -0.34026281               -0.69209819                0.39024351               -4.37569749
               6.79249904                8.86257797               44.24440482                0.99975542               -0.03305351               -0.39584210                0.28948937               -0.44310239                0.97972177                5.63343649
               7.79216851                8.73688693               44.11120759                0.43233321               -0.10875263               -0.31611876                0.59515923               -0.77632104                1.29101736                5.79634675
               8.79032399                8.60642817               43.98803451                0.02005812               -0.21406511               -0.29998084                0.81226536               -1.10080708                2.01809148                3.76332524
               9.78788721                8.47480232               43.87305392                0.00010000               -0.23195841               -0.26039460                0.91504993               -1.23516371                2.26860724                3.16409785
              10.78568482                8.34434884               43.75874891                0.00010000               -0.18587997               -0.19263020                0.90513254               -1.23736208                2.23257992                2.57085495
              11.78416961                8.21703860               43.64667088                0.00010000               -0.10858808               -0.12881286                0.81115537               -1.12700849                2.25727982                1.97045049
              12.78351306                8.09422574               43.53613097                0.00010000               -0.02910445               -0.06271791                0.65184746               -0.98967223                2.21385616                1.17581690
              13.78358752                7.97630599               43.42598902                0.00010000                0.00091951                0.04859429                0.44757436               -0.86578706                2.00996623                0.15724162
              14.78353145                7.86328873               43.31396466                0.08397604               -0.04574805                0.25127987                0.23341376               -0.71876582                1.56849116               -1.02101792
              15.78267256                7.75536109               43.19731594                0.33326797               -0.10801843                0.43742963                0.08115726               -0.40110247                0.88958293               -2.21494152
              16.78137108                7.65227323               43.07356682                0.81424184               -0.13014745                0.19487160                0.09939706               -0.18665254                0.46189132               -3.43353289
               6.91483168                9.85921628               44.23511688                0.98261148               -0.18376052               -0.30093537                0.63896740               -0.27752561                0.44507612                3.85823250
               7.91299408                9.73309653               44.09668088                0.46366458               -0.23380652               -0.36599577                0.85672205               -0.58934764                0.73335372                3.50916500
               8.91015555                9.60326871               43.96721191                0.00952864               -0.32943926               -0.31268843                0.98620400               -0.93733838                1.35366948                3.03092012
               9.90640529                9.47230255               43.84418400                0.00010000               -0.39223550               -0.24553911                1.02874117               -1.06891811                1.76371082                2.44536444
              10.90231084                9.34252629               43.72557578                0.00010000               -0.40126893               -0.17725468                0.99123711               -1.03983964                1.99706020                2.01220433
              11.89837991                9.21589985               43.60955954                0.00010000               -0.36757925               -0.11016656                0.88705559               -0.89417797                2.10386430                1.54462222
              12.89495926                9.09382021               43.49503807                0.00010000               -0.31297433               -0.04211361                0.73742678               -0.67662207                2.09327088                0.97232865
              13.89212043                8.97695993               43.38037982                0.00010000               -0.26126653                0.04000919                0.56960932               -0.42867097                1.90964754                0.25460716
              14.88973393                8.86523822               43.26340163                0.11205431               -0.22370510                0.12112668                0.42426257               -0.16920838                1.50178993               -0.59305828
              15.88764632                8.75773482               43.14151548                0.34055850               -0.18594180                0.11527050                0.36142978                0.01851658                0.85214144               -1.54336021
              16.88601509                8.65192245               43.01226623                0.81223603               -0.16312342               -0.11140657                0.46093741                0.05819480                0.44289149               -2.56327866
               7.03918803               10.85655926               44.20534443                0.96474151               -0.28589048               -0.25605982                0.83247044               -0.14770390                0.36142496                1.88110427
               8.03632913               10.72956701               44.06556266                0.51382474               -0.34084164               -0.33155115                1.00130940               -0.32003493                0.56602421                1.77224015
               9.03237120               10.60017440               43.93294050                0.00010000               -0.45389346               -0.29309397                1.09164607               -0.54505406                1.12462316                1.57254369
              10.02725126               10.46989154               43.80673618                0.00010000               -0.55402358               -0.22328255                1.10651316               -0.64307097                1.60007291                1.35158203
              11.02129073               10.34080375               43.68547099                0.00010000               -0.61295658               -0.14737201                1.05111480               -0.62294433                1.95145463                1.12367270
              12.01499213               10.21483526               43.56759241                0.00010000               -0.61850926               -0.07643334                0.93860969               -0.51367034                2.16823420                0.88098802
              13.00892054               10.09338347               43.45146201                0.00010000               -0.56980167               -0.01727736                0.79021624               -0.34537672                2.22964964                0.57884088
              14.00359609                9.97710617               43.33519531                0.00010000               -0.47740771                0.02325934                0.63684208               -0.14642957                2.09137933                0.19573207
              14.99937239                9.86571127               43.21640959                0.16206262               -0.36187191                0.02751601                0.52169725                0.03807058                1.68798347               -0.27039592
              15.99635866                9.75766650               43.09206602                0.35464986               -0.26063302               -0.04144389                0.50625731                0.11797798                0.96286087               -0.81493461
              16.99415973                9.65004510               42.95882856                0.79917606               -0.21989272               -0.19022510                0.66902025                0.10171975                0.50676522               -1.53286879
               7.16586210               11.85409508               44.15801183                0.99281958               -0.28838562               -0.24641797                0.86799288               -0.09555100                0.34341503                0.86093009
               8.16297824               11.72646551               44.01780536                0.80616420               -0.34660766               -0.31015092                1.02791327               -0.16950119                0.54382340                0.81395268
               9.15892995               11.59740683               43.88445382                0.48260933               -0.50318609               -0.27675700                1.12089980               -0.27555553                1.10756587                0.73973292
              10.15291452               11.46783690               43.75756097                0.36938347               -0.70108593               -0.20546379                1.13758494               -0.32507244                1.64879429                0.64535910
              11.14490823               11.33957885               43.63609901                0.35948084               -0.86938696               -0.12248960                1.08136365               -0.31153570                2.11762608                0.54326356
              12.13552678               11.21437119               43.51870276                0.36947244               -0.95637073               -0.04640792                0.96393486               -0.25174378                2.47825292                0.42548388
              13.12578081               11.09347466               43.40376677                0.39879138               -0.93313713                0.00911932                0.80566557               -0.16127642                2.68514444                0.27813271
              14.11686404               10.97742512               43.28929407                0.49599154               -0.79228990                0.03189421                0.63663671               -0.05751176                2.66883658                0.08775153
              15.10993502               10.86578854               43.17268000                0.60884871               -0.55959964                0.00772701                0.50073585                0.03030417                2.33563043               -0.14934438
              16.10567205               10.75690594               43.05049580                0.69498604               -0.33213718               -0.07605505                0.46175470                0.04780969                1.51231449               -0.42830388
              17.10329227               10.64811795               42.91696220                0.89717677               -0.23797754               -0.19271565                0.63085191                0.03445442                0.94778117               -0.94126678
               6.05556709                1.92200758               45.55371176                1.00000000               -0.00092407                0.03604053               -0.12139129                0.07737519               -0.45467796                0.37768845
               7.05555785                1.79940859               45.42568704                1.00000000               -0.02808491               -0.10022668                0.27891283                0.09689074               -0.67454778                0.09548392
               8.05500539                1.67687032               45.29378779                1.00000000               -0.09267338               -0.22609069                0.57872648                0.15152000               -0.84274870                0.00219622
               9.05370438                1.55495418               45.16274693                0.68011046               -0.31655036               -0.39650557                0.92086846                0.19290783               -0.68323137               -0.11419185
              10.04867438                1.43011980               45.03386176                0.73679864                0.60881734               -0.36723598                1.43088009                0.35101673                1.01252091                0.14929684
              11.06588073                1.29712785               44.93735008                0.75823676                0.80676819               -0.03775727                0.36775558               -0.17401846                0.31014567               -0.04246230
              12.06480975                1.16237330               44.83377186                0.69701254               -0.01716648               -0.00584670                0.01818384               -0.04744622               -0.17703989                0.03545188
              13.06553740                1.02499513               44.72902516                0.74366313                0.11835423                0.06359655               -0.23338761               -0.07355620               -0.24635661               -0.00071707
              14.06717683                0.88689819               44.62351577                1.00000000                0.18842781                0.12966296               -0.46243415               -0.05035040               -0.29017416               -0.02101674
              15.06930595                0.74835325               44.51768784                1.00000000                0.23461187                0.21528805               -0.68455536               -0.04109643               -0.25231105               -0.05219235
              16.07186907                0.60916634               44.41308374                1.00000000                0.25631153                0.30775178               -0.94678083               -0.00553329               -0.20073072               -0.21136539
               6.17893983                2.92236798               45.49893816                1.00000000                0.01555562                0.02879485               -0.15995307                0.00756493               -0.16605025                0.50213984
               7.17909538                2.79840632               45.37098380                1.00000000               -0.00960162               -0.10041842                0.24733754                0.03203278               -0.28570477                0.15489438
               8.17874780                2.67460941               45.24105749                1.00000000               -0.00433326               -0.23837578                0.57937073                0.07000259               -0.34903512               -0.00815330
               9.17900872                2.55098913               45.11185237                0.37656701                0.11749614               -0.43473897                0.92495172                0.12798000                0.08040137               -0.16362102
              10.18109772                2.42644744               44.98997115                0.48191744                0.95025362               -0.52569344                1.57385082                0.21472404                2.09349005               -0.14636068
              11.19801379                2.29675027               44.89733064                0.52638097                0.96519626               -0.21938247               -0.02027519               -0.10626455                0.39006303               -0.04572636
              12.20040164                2.16231484               44.79501976                0.41462503                0.22628010                0.03608488               -0.20805595               -0.00453905                0.03788943               -0.00196593
              13.20253939                2.02563110               44.69168628                0.42728717                0.22963120                0.07765234               -0.43846577               -0.03714638                0.02913631               -0.03181837
              14.20499427                1.88819482               44.58766545                1.00000000                0.26107613                0.14111779               -0.65861186               -0.02241910               -0.01033566               -0.02833534
              15.20776092                1.75050613               44.48320050                1.00000000                0.30031921                0.22170980               -0.89069499                0.00287707               -0.02585735               -0.07302483
              16.21100065                1.61224385               44.37873859                1.00000000                0.32397355                0.32395865               -1.15603701                0.04901146               -0.01156987               -0.27100991
               6.30364171                3.92258347               45.44727967                1.00000000                0.03153670                0.01879335               -0.18236422               -0.00052653               -0.06118738                0.64525838
               7.30395707                3.79740022               45.31770346                1.00000000                0.00904674               -0.09720187                0.21935079                0.00174572               -0.08469740                0.21987080
               8.30382264                3.67210280               45.18791097                0.79617389                0.02344402               -0.23797144                0.56430970               -0.03372523               -0.01481234               -0.07058640
               9.30442595                3.54625940               45.05942143                0.00010000                0.16925377               -0.42747297                0.91600191               -0.17603631                0.44238998               -0.29341435
              10.30720772                3.41960593               44.93765922                0.00010000                1.17310435               -0.52402155                1.70137270               -0.54997457                3.08022091               -0.86488241
              11.32788804                3.29274020               44.85699111                0.00010000                1.43152142               -0.61325727               -0.36009850               -0.63876480                1.08122083               -1.08854916
              12.33583815                3.16309500               44.75639014                0.00010000                0.55132241                0.12798911               -0.42664315                0.34687266                0.29965390               -0.05352991
              13.33891449                3.02654818               44.65425259                0.00010000                0.30076345                0.13175537               -0.60676874               -0.05077658                0.27411107               -0.06970613
              14.34185341                2.88972055               44.55219436                0.31747058                0.31999855                0.18157316               -0.84480326               -0.06692469                0.24384206                0.13119428
              15.34531446                2.75278745               44.44885862                1.00000000                0.37602202                0.22027507               -1.07634794               -0.04352524                0.12498661                0.18907916
              16.34937385                2.61564551               44.34360994                1.00000000                0.40593945                0.35050760               -1.33747150                0.00859386                0.07020440                0.00596050
               6.42929580                4.92274385               45.39593742                1.00000000                0.03151655                0.02399686               -0.20517554               -0.01734025                0.00533384                0.59846511
               7.42961097                4.79646229               45.26453260                1.00000000               -0.00408458               -0.08302035                0.19767894               -0.03870310                0.03230956                0.17286992
               8.42921411                4.66984998               45.13381860                0.34780867               -0.08130511               -0.20276112                0.55104851               -0.13092490                0.20184917               -0.16287272
               9.42798487                4.54243967               45.00541721                0.00010000               -0.27983397               -0.29982958                0.98806417               -0.26741533                0.42510704               -0.49526942
              10.42361743                4.41596701               44.87789727                0.00010000                0.68822799               -0.59608656                1.43051925               -0.28058200                2.79424557                0.79177076
              11.44174943                4.28448513               44.79794439                0.00010000                2.49568426               -0.79536242                1.13385580               -0.61927675                5.18014888                0.08785734
              12.47353112                4.16487462               44.71786873                0.00010000                1.65744464               -0.37734330               -0.34170181               -0.82501361                1.39370394               -0.87546444
              13.47489832                4.02826620               44.61660195                0.00010000                0.19426930                0.14079608               -0.75095378               -0.97333314                0.69203313               -0.50353010
              14.47741650                3.89182628               44.52045358                0.05014944                0.30335640                0.10487724               -1.15263256               -0.10170602                0.79474353                0.96528914
              15.48096545                3.75491163               44.42077682                0.40387568                0.40199513                0.08849420               -1.37114697               -0.15049302                0.46441012                0.95614774
              16.48545641                3.61925401               44.31620426                0.85490573                0.44909588                0.15722491               -1.67524212               -0.26924306                0.36968662                1.05799284
               6.55585803                5.92306341               45.34384026                1.00000000                0.02188478                0.04372828               -0.22551654               -0.02086788                0.04177849                0.46775005
               7.55607688                5.79573981               45.21049628                0.69187537               -0.03156325               -0.06411632                0.18345452               -0.04701990                0.11404634                0.06616201
               8.55522676                5.66804758               45.07871217                0.14415597               -0.15581269               -0.16159574                0.56248705               -0.11159859                0.28706749               -0.30359267
               9.55296062                5.54026281               44.94861195                0.00010000                0.21619256               -0.32146974                0.92568759               -0.32383329                2.25405406                1.31784818
              10.55955061                5.40768420               44.85590066                0.00010000                0.68171372               -0.59895718                0.90988378               -0.25015221                3.36548777                2.43601186
              11.56659490                5.27683295               44.75641441                0.00010000                0.80030919               -0.46446831                0.67534711               -0.49087361                2.71479030                1.46418992
              12.57555680                5.15554814               44.66233295                0.00010000                1.29506337               -0.76161181                0.38469647               -1.56475548                2.82772585                0.01308901
              13.59249616                5.02936410               44.57044960                0.00010000                1.88085326               -0.24603783               -0.21127906               -2.00430487                3.20715095               -0.47943488
              14.61317386                4.89181809               44.50239091                0.04051041                1.11903555                0.21392299               -0.24068777               -2.33534246                1.81797308               -1.70721452
              15.61487687                4.75455733               44.40177113                0.31473321                0.10651921                0.86871846               -0.47896441               -2.21864659                0.49944910               -1.72049934
              16.61530425                4.61879001               44.30238345                0.78887223                0.04273725                2.19625170               -1.90034332               -2.63821165                0.21960251               -0.68102709
               6.68352564                6.92361841               45.29029572                1.00000000                0.01607604                0.06503042               -0.24216793               -0.01079474                0.08389961                0.30142136
               7.68368640                6.79517996               45.15525668                0.51858839               -0.05332475               -0.05377129                0.18199840               -0.02500922                0.15180917               -0.09684968
               8.68245914                6.66661807               45.02164739                0.06401081               -0.09074085               -0.12207942                0.58287350               -0.34592062                2.32026875                2.10928965
               9.68187158                6.53601027               44.92979930                0.00010000               -0.02074474               -0.30178442                0.74168860               -0.58657645                3.40180754                3.26081416
              10.68204425                6.40398787               44.82393488                0.00010000                0.10982184               -0.23954077                0.78930081               -0.93186492                2.55944018                2.54898250
              11.68406802                6.27519576               44.72130746                0.00010000                0.38303041               -0.15981106                0.70959359               -0.99685021                2.55782277                2.01867960
              12.68970486                6.14964238               44.62077852                0.00010000                0.72371242               -0.41446229                0.47396286               -1.26275603                2.52043356                1.09609772
              13.69854227                6.02334545               44.52490250                0.00010000                0.79057815               -0.30342631                0.12463520               -2.07587601                2.39507990               -0.12305166
              14.70551642                5.89610474               44.42812356                0.04656638                0.55391647                0.50255482               -0.29366898               -2.88083878                1.56265202               -2.88828517
              15.70962060                5.77228600               44.32335224                0.30713199               -0.06447998                1.57436649               -0.69002179               -2.09223847                0.08546728               -3.55595585
              16.70422682                5.66317904               44.20799256                0.79180662               -0.53937760                3.02047373               -0.89911218               -1.46899661               -0.27432131               -4.42244890
               6.81251904                7.92436402               45.23517530                1.00000000                0.00579925               -0.14139897               -0.26180666               -0.45799803                0.05847432                3.63686548
               7.81257704                7.79466439               45.09794798                0.43856948               -0.25205024               -0.02772418                0.20148399               -0.55287520                2.74243614                3.68684428
               8.80747804                7.66560599               45.01440515                0.02866365               -0.43588698               -0.11597940                0.74153213               -0.75794341                3.88359668                4.44181575
               9.80385930                7.53422712               44.90475338                0.00010000               -0.28751071               -0.17000903                0.87099345               -1.05190161                2.44201492                3.37904485
              10.80172782                7.40289339               44.79681003                0.00010000               -0.14279607               -0.12744187                0.89720817               -1.14570690                2.32232154                2.90782549
              11.80100338                7.27363673               44.68863006                0.00010000                0.02120840               -0.13955009                0.81533894               -1.14770860                2.18246831                2.22511124
              12.80215199                7.14725889               44.58210274                0.00010000                0.17564549               -0.15159515                0.61695973               -1.26223932                2.10474042                1.34288271
              13.80451629                7.02329557               44.47626786                0.00010000                0.22322690                0.05748405                0.31912980               -1.51385098                1.86155950                0.06581455
              14.80661653                6.90186919               44.36899409                0.05699264                0.07207605                0.52128436               -0.02031051               -1.51521509                1.28840371               -1.28647934
              15.80595781                6.78604466               44.25660594                0.31209794               -0.12391457                1.04910553               -0.26682044               -1.07582232                0.60610580               -2.36548139
              16.80413824                6.67919948               44.13899561                0.79954427               -0.18195667                1.06276609               -0.35412577               -0.45060652                0.27992562               -3.33402902
               6.93376494                8.92079044               45.24855228                0.99299595               -0.23780195               -0.32542238                0.57679126               -0.42215403                0.95418703                6.31194559
               7.93138692                8.79462548               45.11826968                0.41980481               -0.30136989               -0.16912299                0.84101097               -0.81331139                1.18763846                6.26272994
               8.92773754                8.66429848               44.99717122                0.01273387               -0.39203811               -0.21687145                1.03084304               -1.05542578                1.82277269                4.02898382
               9.92354616                8.53261009               44.88314727                0.00010000               -0.40085187               -0.21145918                1.11522255               -1.16980597                1.99639692                3.36476963
              10.91972051                8.40143903               44.76865590                0.00010000               -0.33989082               -0.17894999                1.08280572               -1.19009677                1.89451680                2.71560611
              11.91674834                8.27240476               44.65551956                0.00010000               -0.24596397               -0.13742706                0.96142490               -1.12612819                1.87357443                2.08091467
              12.91480123                8.14661048               44.54320995                0.00010000               -0.15466956               -0.06629972                0.76668841               -1.04420836                1.79049711                1.30274716
              13.91365495                8.02449513               44.43083290                0.00010000               -0.11690985                0.09213625                0.52327373               -0.94098131                1.57413448                0.37443680
              14.91246303                7.90653043               44.31650764                0.07229047               -0.14405486                0.33887308                0.28428659               -0.74397835                1.18297389               -0.64770693
              15.91077385                7.79326811               44.19832749                0.31912508               -0.17789901                0.49360252                0.12273889               -0.37462795                0.64626125               -1.64925439
              16.90890505                7.68443436               44.07467906                0.80362993               -0.18688051                0.29255968                0.11647575               -0.15965532                0.33810978               -2.71456187
               7.05640588                9.91785557               45.24361966                0.97751802               -0.36031203               -0.32321856                1.11856944               -0.27019198                0.41001598                4.32998675
               8.05280276                9.79128193               45.10706715                0.45261229               -0.40104868               -0.38421395                1.26404207               -0.55125959                0.61800958                3.84072450
               9.04838491                9.66126856               44.97865874                0.00285325               -0.47400659               -0.34754610                1.33682426               -0.86757586                1.13452295                3.25536058
              10.04332263                9.52999794               44.85585772                0.00010000               -0.51268445               -0.29543476                1.33246631               -0.99673151                1.46313408                2.59713342
              11.03813122                9.39931439               44.73668615                0.00010000               -0.50066352               -0.23580984                1.24789207               -0.99452784                1.63518620                2.12076120
              12.03330936                9.27088819               44.61942446                0.00010000               -0.44768806               -0.16912547                1.09650915               -0.89399848                1.69824679                1.63189796
              13.02917746                9.14593290               44.50318705                0.00010000               -0.37663248               -0.08897108                0.89916292               -0.72751149                1.66784065                1.07368932
              14.02577671                9.02513830               44.38662313                0.00010000               -0.31067404                0.01558735                0.68604759               -0.51549064                1.49782658                0.41646939
              15.02296398                8.90864665               44.26800361                0.09628602               -0.26076986                0.11653689                0.50208589               -0.26362562                1.15500292               -0.32098051
              16.02056131                8.79591671               44.14534809                0.32777863               -0.21756712                0.13132390                0.40789988               -0.04979685                0.64271617               -1.13105115
              17.01861264                8.68505068               44.01699906                0.80254834               -0.19486779               -0.04176065                0.47565044                0.02227544                0.33440464               -2.00557679
               7.18150839               10.91432606               45.21623564                0.95900530               -0.45596510               -0.37908450                1.41460297               -0.13036726                0.32572881                2.13118717
               8.17694874               10.78694120               45.07777134                0.50381825               -0.49191854               -0.44087548                1.49411590               -0.28381843                0.45429178                1.94248225
               9.17167002               10.65734756               44.94575224                0.00010000               -0.56915140               -0.39993110                1.51263544               -0.48632410                0.91201161                1.68460372
              10.16556571               10.52670140               44.81944477                0.00010000               -0.63651581               -0.33135588                1.46685749               -0.58545625                1.29954287                1.42508457
              11.15893970               10.39672283               44.69738634                0.00010000               -0.66579227               -0.25259766                1.35523282               -0.58584524                1.57939567                1.17358324
              12.15224986               10.26902225               44.57814109                0.00010000               -0.64694076               -0.17344725                1.18680770               -0.51012323                1.74756331                0.92180528
              13.14600088               10.14483106               44.46027601                0.00010000               -0.58092384               -0.09938318                0.98337189               -0.37931522                1.78919088                0.62851776
              14.14063139               10.02480687               44.34222434                0.00010000               -0.47943917               -0.03802618                0.77742928               -0.21211222                1.66924488                0.27890210
              15.13641210                9.90886117               44.22204546                0.13979825               -0.36287487               -0.00848726                0.61358094               -0.04204493                1.33674992               -0.12805748
              16.13337389                9.79589459               44.09733581                0.34316802               -0.26647359               -0.04609872                0.55363776                0.05623763                0.75455510               -0.59241284
              17.13108263                9.68359915               43.96556292                0.78979011               -0.22912586               -0.16513148                0.67636833                0.06820155                0.39471102               -1.20729922
               7.30856827               11.91027388               45.16929721                0.99002998               -0.44633741               -0.40521823                1.45204864               -0.07495783                0.33291104                0.97402559
               8.30410490               11.78246442               45.03030845                0.80167409               -0.48350217               -0.44767778                1.52065594               -0.13458080                0.46754634                0.88287005
               9.29889823               11.65326994               44.89760466                0.47974800               -0.59333322               -0.40776170                1.54751057               -0.23185876                0.93203839                0.78076595
              10.29223823               11.52337082               44.77064025                0.36935803               -0.74023844               -0.33305752                1.50873276               -0.28312302                1.37106192                0.66837085
              11.28409346               11.39426243               44.64838405                0.35954911               -0.86197822               -0.24603999                1.39852700               -0.28220302                1.74955192                0.55722137
              12.27499867               11.26741924               44.52956313                0.36925673               -0.91434646               -0.16030097                1.22518473               -0.24097941                2.04063881                0.43723556
              13.26580653               11.14394523               44.41277359                0.39780229               -0.87471554               -0.08858271                1.00946184               -0.17150885                2.20649047                0.29683111
              14.25750436               11.02437777               44.29632740                0.48234318               -0.73855841               -0.04291009                0.78377847               -0.08611925                2.18766625                0.12511595
              15.25103536               10.90847690               44.17807664                0.59556522               -0.52781375               -0.03842643                0.59408627               -0.00682575                1.90818979               -0.07944050
              16.24694808               10.79499474               44.05525107                0.68973457               -0.32339059               -0.08998538                0.50558195                0.02097665                1.23252116               -0.31558644
              17.24456755               10.68174805               43.92323617                0.89243522               -0.23805327               -0.18511031                0.63257049                0.02382291                0.77010883               -0.74832226
               6.17644088                1.98092624               46.55304307                1.00000000               -0.04493860               -0.00644589                0.03116947                0.06350651               -0.54912065                0.40385515
               7.17599149                1.85522168               46.42870415                1.00000000               -0.08116910               -0.11298211                0.35119768                0.08589410               -0.84878140                0.09611464
               8.17481749                1.72949724               46.29950504                1.00000000               -0.14543114               -0.20589661                0.59979087                0.12100790               -1.12300380               -0.02273421
               9.17308287                1.60343518               46.17120009                0.68767324               -0.26903556               -0.30824918                0.82461839                0.08890105               -0.88769585               -0.17415631
              10.16943678                1.47510275               46.04874898                0.74674794               -0.12894424               -0.29074579                1.36631599               -0.16784581                0.22709242               -0.31402333
              11.17050398                1.33840848               45.94213935                0.76419009               -0.03087806               -0.03242089                0.49524981               -0.53171242               -0.09565956               -0.31785409
              12.16881922                1.20249232               45.83395170                0.68573081               -0.03610860               -0.05771200                0.03610287               -0.10961692               -0.12805845               -0.00545142
              13.16978181                1.06335020               45.72680447                0.69793460                0.13494305                0.03514730               -0.20731161               -0.10234703               -0.11229969                0.00002675
              14.17151808                0.92364604               45.61919657                1.00000000                0.19045879                0.11591791               -0.41913193               -0.07124752               -0.16451925                0.00872211
              15.17359099                0.78353170               45.51119060                1.00000000                0.22697059                0.19574363               -0.63678722               -0.05599617               -0.16167708               -0.01574330
              16.17605749                0.64272803               45.40383690                1.00000000                0.24665080                0.29176714               -0.91536426               -0.00322770               -0.13663937               -0.14983881
               6.30278050                2.98086178               46.49782962                1.00000000               -0.02155675               -0.01010536               -0.01991172                0.01285068               -0.22850346                0.51466893
               7.30256493                2.85409186               46.37365181                1.00000000               -0.04298377               -0.11327297                0.30593073                0.04349491               -0.41980325                0.15151189
               8.30192082                2.72743827               46.24662552                1.00000000               -0.06979033               -0.21818855                0.56744291                0.07549523               -0.55244483               -0.02348101
               9.30116912                2.60035269               46.12085505                0.40184440               -0.08245723               -0.32610613                0.84659941                0.08140166               -0.29495330               -0.19136787
              10.30027168                2.47219529               46.00115931                0.50832501                0.01614745               -0.35651766                1.04834391               -0.08987367                0.53253842               -0.38136171
              11.30149207                2.33808427               45.89646636                0.54646747                0.24902566               -0.08500723                0.11468750               -0.25786154                0.43803353               -0.22043521
              12.30525219                2.20191520               45.79304721                0.41522759                0.33447034               -0.05934614               -0.19037362               -0.03502220                0.30573970               -0.04760058
              13.30818148                2.06370168               45.68733920                0.38302310                0.27313338                0.05431881               -0.42078717               -0.05503422                0.16450361                0.00364961
              14.31071486                1.92480522               45.58119729                1.00000000                0.26542770                0.13011102               -0.64162730               -0.04615706                0.09924554                0.03695836
              15.31349003                1.78548914               45.47435703                1.00000000                0.30570168                0.20754406               -0.87686655               -0.01627371                0.03699595                0.01277385
              16.31682889                1.64564570               45.36708965                1.00000000                0.33388588                0.29906082               -1.15675516                0.03926281                0.01253432               -0.14829643
               6.43023772                3.98072413               46.44585611                1.00000000                0.00471667               -0.01364136               -0.06655402                0.00620269               -0.11692368                0.65156230
               7.43028489                3.85295622               46.32001792                1.00000000               -0.00855796               -0.10787869                0.25865660                0.02098469               -0.20230285                0.21828086
               8.43006657                3.72513347               46.19324171                0.80249766               -0.01655049               -0.22146729                0.52730337                0.01112204               -0.18789083               -0.06229866
               9.42995388                3.59691306               46.06832173                0.00010000               -0.00794178               -0.32877496                0.82614583               -0.03909765                0.15654399               -0.23204146
              10.42990773                3.46797240               45.94984712                0.00010000                0.28364793               -0.36650054                1.10406910               -0.32538024                1.38765561               -0.61184788
              11.43562684                3.33670833               45.85292393                0.00010000                0.62968202                0.08367701               -0.16203887                0.79689646                1.29327289                0.22877345
              12.44250137                3.20130540               45.75168569                0.00010000                0.50821314                0.00646770               -0.42894792                0.19213859                0.64471979               -0.10638833
              13.44579110                3.06443658               45.64812445                0.00010000                0.31530538                0.13483354               -0.61568266               -0.01772023                0.47907520                0.02236623
              14.44880748                2.92624826               45.54380965                0.29265951                0.33169661                0.19343536               -0.85684525               -0.08334942                0.38209417                0.13910349
              15.45242504                2.78768258               45.43820145                1.00000000                0.38610748                0.29355416               -1.10475964               -0.03313631                0.21279679                0.14278071
              16.45652963                2.64870924               45.33050732                1.00000000                0.41045925                0.39853142               -1.36928872                0.06649246                0.10565881               -0.08416183
               6.55844037                4.98058895               46.39420059                1.00000000                0.01349171               -0.00314451               -0.11290438               -0.01036353               -0.04256372                0.59922755
               7.55857528                4.85193429               46.26655316                1.00000000               -0.01269720               -0.08915959                0.21762711               -0.02175072               -0.06369932                0.18083627
               8.55818642                4.72300893               46.13904066                0.34134909               -0.05135206               -0.18993750                0.50175000               -0.08069420                0.09082646               -0.12125474
               9.55754824                4.59377719               46.01469518                0.00010000               -0.21088120               -0.25784212                0.80642795               -0.18018782                0.42435337               -0.40945579
              10.55396880                4.46486528               45.89295860                0.00010000                1.32743778               -0.47867188                1.54632611                0.18712250                2.97158756                0.52195556
              11.58409700                4.33975781               45.81322306                0.00010000                1.36989591               -0.32958947                0.64162637               -0.54010878                3.28323376                0.24423558
              12.58136672                4.20204455               45.71067773                0.00010000               -0.06063952                0.12158230               -0.62450780               -1.00809748                0.68993201               -0.35593085
              13.58288421                4.06639835               45.60907058                0.00010000                0.22175743                0.32629723               -0.80917236               -0.78127333                0.81776976               -0.09320585
              14.58580186                3.92867393               45.50753897                0.03625822                0.37410595               -0.27659968               -1.27345749               -0.41834683                0.75964454                1.70482882
              15.59036633                3.79136022               45.40352660                0.36036357                0.51517766                0.15332865               -1.65281975               -0.28593049                0.43785097                1.55218729
              16.59610542                3.65361633               45.29481015                0.82209647                0.57390918                2.02801443               -1.94681578               -0.79822706                0.21569006                0.24790416
               6.68733978                5.98066124               46.34182563                1.00000000                0.00901165                0.02141550               -0.15540379               -0.01555805                0.00489707                0.46598954
               7.68742990                5.85117303               46.21232749                0.67080658               -0.03650041               -0.06604056                0.18946273               -0.03582766                0.04975509                0.08500987
               8.68660978                5.72133472               46.08406540                0.13590619               -0.14680636               -0.14768339                0.50383455               -0.07535394                0.18751689               -0.23809664
               9.68449377                5.59175622               45.95729259                0.00010000                0.05298936               -0.14983002                0.81498551               -0.37129427                1.97198777                1.26678296
              10.68766956                5.45839896               45.86439076                0.00010000                0.15758085               -0.27733477                0.68207151               -0.25549213                2.86403339                2.09694063
              11.68764539                5.33011654               45.76201740                0.00010000                0.40146610               -0.53192821                0.62440265               -1.40878137                2.33081490                1.01191346
              12.69569888                5.20373704               45.66546282                0.00010000                0.79454359               -0.07537257                0.22533249               -1.41370616                2.17795185                0.40962585
              13.70353626                5.07096252               45.56755505                0.00010000                0.98898913                0.15378765               -0.35498661               -2.38804919                2.88696699                0.11926988
              14.71547867                4.92071627               45.50078496                0.03063779                0.91138834                0.31298071               -0.54366892               -2.22821857                1.88707203               -0.75922588
              15.72176403                4.79074916               45.39403123                0.28512873                0.02871035                1.05876052               -1.10806599               -0.11178839               -0.89007211               -0.62115078
              16.71605287                4.68926953               45.26410323                0.76640864               -0.57111543                2.59579358               -3.01965995                0.97294390               -2.23115343                0.58516205
               6.81710562                6.98101726               46.28805082                1.00000000                0.00796259                0.04763193               -0.19128910               -0.01057887                0.05752567                0.29174269
               7.81718525                6.85061347               46.15702776                0.50155989               -0.05047353               -0.05151235                0.17381730               -0.02011680                0.11047481               -0.06154944
               8.81609615                6.72005526               46.02719782                0.05544710               -0.20635666                0.06230459                0.52006086               -0.27445191                2.14789635                2.27023466
               9.81305812                6.59078059               45.93667958                0.00010000               -0.27987624               -0.00064256                0.41386273               -0.48828922                3.17737181                3.39375270
              10.81049863                6.45931858               45.83136750                0.00010000               -0.12374168                0.07077152                0.65278301               -0.87334015                2.47813690                2.58385325
              11.81058328                6.32911925               45.72848399                0.00010000                0.08739921               -0.06751536                0.71076082               -0.86366174                2.26957364                2.12333384
              12.81224661                6.20053710               45.62553675                0.00010000                0.37803567               -0.21181278                0.46114689               -1.34334645                2.08435816                1.22366087
              13.81814400                6.06947410               45.52573497                0.00010000                0.46021237                0.02057049                0.03887599               -2.01504115                1.83387962                0.27532557
              14.82145086                5.93493354               45.42402179                0.03824396                0.07166497                1.26913434               -0.59079988               -2.19114998                1.11828339               -2.30860363
              15.81957730                5.81253543               45.31570140                0.28652189               -0.14636591                1.79760979               -0.90251992               -1.21959495                0.17330483               -2.78892376
              16.81852354                5.70553220               45.20142966                0.77568918               -0.10537535                1.26942052               -0.79463479               -0.28338631                0.08052003               -2.45635605
               6.94793578                7.98161388               46.23267373                1.00000000                0.00537868               -0.03223680               -0.22329749               -0.39499222                0.05332357                4.12449732
               7.94798956                7.85014278               46.09986435                0.42420616               -0.34910790                0.12044393                0.17385979               -0.44579909                2.80618629                4.11755303
               8.94095362                7.72258081               46.02216378                0.02059458               -0.62624506                0.13494950                0.79548162               -0.62968569                3.87465917                4.80167077
               9.93546466                7.59174337               45.91359588                0.00010000               -0.45447571                0.01063878                0.89886324               -0.97470384                2.25487832                3.75885997
              10.93186411                7.45981439               45.80606778                0.00010000               -0.31555137               -0.02668717                0.94557362               -1.11364457                2.09254603                3.14065808
              11.92915364                7.32876624               45.69711211                0.00010000               -0.16935021               -0.06283774                0.88518018               -1.19049198                1.87122069                2.38255367
              12.92847710                7.19950079               45.58853012                0.00010000               -0.01573190               -0.06703650                0.66919332               -1.28146276                1.68369225                1.52198417
              13.92883900                7.07137393               45.47951881                0.00010000                0.00586171                0.19826800                0.33382409               -1.48866550                1.37921391                0.40852470
              14.92859434                6.94609896               45.36856674                0.04889863               -0.10327614                0.81957633               -0.01750667               -1.32135509                0.91858657               -0.69049838
              15.92677348                6.82670135               45.25388714                0.29698219               -0.21013613                1.05492084               -0.24459680               -0.67959732                0.44384621               -1.61701272
              16.92439161                6.71465794               45.13494568                0.78727595               -0.23818619                0.72231719               -0.38851332               -0.35901072                0.21442085               -2.56378660
               7.07214797                8.98037252               46.25594064                0.98625523               -0.48456352               -0.17406109                0.93765212               -0.32495565                0.94968704                7.29712721
               8.06730234                8.85302235               46.12802781                0.40692971               -0.51230581                0.01332887                1.13515092               -0.76463284                1.10322502                6.99635790
               9.06190186                8.72275425               46.00865137                0.00513502               -0.54859368               -0.13929561                1.28631762               -0.94635812                1.65676064                4.46999576
              10.05633046                8.59099337               45.89535837                0.00010000               -0.53494936               -0.18978208                1.35767115               -1.08967521                1.74742195                3.71050860
              11.05120287                8.45878484               45.78040502                0.00010000               -0.46217095               -0.18016547                1.27617535               -1.17735769                1.57443752                2.96911708
              12.04708704                8.32786249               45.66589938                0.00010000               -0.35966030               -0.14249757                1.11762045               -1.14490802                1.49522880                2.26600570
              13.04400966                8.19919637               45.55146474                0.00010000               -0.26572626               -0.06364239                0.88743320               -1.08913661                1.37144798                1.49360741
              14.04177252                8.07343946               45.43645449                0.00010000               -0.21566605                0.12619706                0.60997254               -0.97249505                1.15934963                0.65431283
              15.03969634                7.95132507               45.31965039                0.06286895               -0.21730770                0.35909134                0.34813772               -0.71454614                0.84379813               -0.21654460
              16.03742636                7.83363385               45.19977072                0.30717439               -0.21330973                0.47020639                0.16573633               -0.33074017                0.44893231               -1.08405159
              17.03543015                7.71997854               45.07589633                0.79348143               -0.19962180                0.31345540                0.11711871               -0.11504929                0.24341079               -1.97242791
               7.19613701                9.97813266               46.25748827                0.97200815               -0.58218247               -0.34335368                1.72076617               -0.24816842                0.38418876                5.04269490
               8.19031518                9.85040936               46.12196172                0.44109622               -0.60407820               -0.39234923                1.76586329               -0.48708664                0.50702197                4.36644202
               9.18405544                9.71979490               45.99394839                0.00010000               -0.63373075               -0.39168478                1.76087392               -0.77127406                0.92238139                3.62856777
              10.17764057                9.58794773               45.87083333                0.00010000               -0.63038075               -0.36913336                1.68920680               -0.91531317                1.16338868                2.85681990
              11.17144783                9.45621108               45.75053362                0.00010000               -0.58983124               -0.31036655                1.54394972               -0.95259942                1.26413178                2.30701145
              12.16584394                9.32591629               45.63148972                0.00010000               -0.51652140               -0.23648967                1.33006791               -0.90082300                1.28286874                1.77723649
              13.16111740                9.19822794               45.51302133                0.00010000               -0.42917718               -0.14145407                1.07651500               -0.77034844                1.23675479                1.21910635
              14.15726040                9.07389787               45.39410077                0.00010000               -0.35041881               -0.02297604                0.81599352               -0.57540684                1.09018858                0.61230819
              15.15410902                8.95328078               45.27344334                0.08346180               -0.28775996                0.08760093                0.59209956               -0.32464076                0.82156723               -0.03829971
              16.15150520                8.83610548               45.14967348                0.31742040               -0.23538928                0.11407047                0.45914215               -0.09238983                0.44490849               -0.73395780
              17.14940124                8.72092705               45.02177924                0.79348155               -0.21039615               -0.01582693                0.47591083               -0.00936338                0.23041999               -1.47551827
               7.32263120               10.97350545               46.23363649                0.95306185               -0.67328345               -0.53401071                2.15690734               -0.11496585                0.30002993                2.52252852
               8.31589836               10.84517537               46.09544498                0.49250387               -0.68465939               -0.56803297                2.11290421               -0.24391783                0.34535806                2.22154236
               9.30893801               10.71492055               45.96319321                0.00010000               -0.71451715               -0.52387984                2.03391590               -0.41906014                0.70210485                1.87873299
              10.30160802               10.58361070               45.83607333                0.00010000               -0.73778443               -0.45671892                1.90544847               -0.52136204                0.99548644                1.55738734
              11.29418232               10.45257751               45.71257565                0.00010000               -0.72771483               -0.37416147                1.71516282               -0.54747225                1.19589473                1.26674845
              12.28705372               10.32313270               45.59132857                0.00010000               -0.67806077               -0.28222382                1.47212006               -0.50520697                1.31127167                0.99446029
              13.28062110               10.19636729               45.47112945                0.00010000               -0.59210916               -0.19059080                1.20076991               -0.40619043                1.33629646                0.70212478
              14.27521154               10.07297994               45.35074390                0.00010000               -0.48125915               -0.10882803                0.93605272               -0.26181440                1.24141333                0.37764584
              15.27099592                9.95307709               45.22868121                0.12094110               -0.36396188               -0.05717083                0.72085165               -0.09992795                0.98565999                0.01948497
              16.26793230                9.83591526               45.10313878                0.33449796               -0.26980924               -0.06708907                0.61084833                0.01213250                0.54802688               -0.37778675
              17.26559974                9.71966200               44.97235592                0.78145115               -0.23325646               -0.15610326                0.67682518                0.04082470                0.28410527               -0.89645708
               7.45049786               11.96745244               46.18705280                0.98676769               -0.64761319               -0.60530092                2.18620795               -0.05370824                0.34989822                1.16062345
               8.44402172               11.83904870               46.04821848                0.79616224               -0.66294729               -0.61266684                2.12928907               -0.09442085                0.41690686                1.00343391
               9.43723891               11.70931730               45.91540403                0.47671591               -0.72326761               -0.56032527                2.06989596               -0.18167754                0.78462363                0.86020661
              10.42955637               11.57881335               45.78773563                0.36934011               -0.81312615               -0.47973529                1.95702036               -0.23463735                1.10854710                0.71991598
              11.42097639               11.44872785               45.66406955                0.35966156               -0.88031746               -0.38496607                1.77397748               -0.24767023                1.38082240                0.59059692
              12.41195002               11.32027181               45.54320645                0.36899941               -0.89150178               -0.28608880                1.52804076               -0.22595625                1.59287776                0.46343508
              13.40314635               11.19441612               45.42395601                0.39682588               -0.83178538               -0.19511675                1.24470533               -0.17500012                1.71646015                0.32620023
              14.39531431               11.07172131               45.30496964                0.46945625               -0.69856020               -0.12586247                0.95968362               -0.10366032                1.69987043                0.16977346
              15.38917515               10.95213737               45.18456173                0.58422016               -0.50756891               -0.09397222                0.71794178               -0.02995825                1.47984422               -0.00754192
              16.38516294               10.83476370               45.06060744                0.68616098               -0.32254535               -0.11515594                0.57942662                0.00644439                0.95437120               -0.20625541
              17.38272424               10.71780499               44.92961361                0.88829449               -0.24386962               -0.18570184                0.64814434                0.01657908                0.59490862               -0.56462777
               6.29326252                2.04051158               47.55433515                1.00000000               -0.11422672               -0.06632567                0.25285882                0.03868337               -0.59261097                0.40664950
               7.29212026                1.91143555               47.43271099                1.00000000               -0.16065765               -0.13127597                0.46529659                0.06147152               -0.92739092                0.08940497
               8.29004937                1.78217467               47.30578360                1.00000000               -0.27068697               -0.17715542                0.65757200                0.08090883               -1.25167640               -0.03682510
               9.28670652                1.65216115               47.17923930                0.69388086               -0.38861958               -0.21210186                0.83030265                0.02913547               -0.92648094               -0.12584363
              10.28227698                1.51901869               47.06118808                0.75420535               -0.39708471               -0.12966138                0.90972944               -0.11620087               -0.33542354               -0.47247138
              11.27876482                1.38211674               46.94725508                0.77068936               -0.23467608               -0.05597545                0.39626696               -0.13509858               -0.28168219               -0.28397606
              12.27758346                1.24407325               46.83449391                0.67789754               -0.03591456               -0.04444121                0.08832083               -0.10351289               -0.06299923               -0.05924925
              13.27804653                1.10392620               46.72487892                0.64103282                0.09584269                0.04579067               -0.18364581               -0.08681743                0.03324063                0.00982986
              14.27950031                0.96307119               46.61513313                1.00000000                0.16927746                0.12497134               -0.40787386               -0.06492933               -0.02680430                0.03606034
              15.28143208                0.82170554               46.50495210                1.00000000                0.21716879                0.20452304               -0.62838452               -0.05271720               -0.06237527                0.02618663
              16.28384369                0.67966406               46.39477646                1.00000000                0.24116061                0.29434469               -0.90110293               -0.00990718               -0.06768046               -0.07053563
               6.42272538                3.03984832               47.49853992                1.00000000               -0.08219561               -0.06339137                0.18516328                0.01330257               -0.26512403                0.50299837
               7.42190343                2.91012280               47.37710242                1.00000000               -0.11148584               -0.12855308                0.39838363                0.04799786               -0.49106493                0.13732912
               8.42049566                2.78040312               47.25240635                1.00000000               -0.16637801               -0.18664910                0.58953619                0.08144825               -0.66998089               -0.04447323
               9.41857587                2.65004013               47.12878436                0.42670374               -0.21792447               -0.21913533                0.75238129                0.07819329               -0.42383488               -0.16831893
              10.41613718                2.51772207               47.01093803                0.53573774               -0.18446535               -0.17245011                0.79817340               -0.02007469                0.10389013               -0.42985214
              11.41488656                2.38155698               46.89962439                0.57146243               -0.02467886               -0.07788865                0.29953437               -0.04715673                0.43105428               -0.21378998
              12.41564360                2.24362883               46.79121228                0.42449505                0.13964145               -0.03682673               -0.13365352               -0.06121547                0.40092641               -0.03814327
              13.41767939                2.10438411               46.68327053                0.33495395                0.21588764                0.06689613               -0.39597761               -0.04912183                0.30329480                0.03983000
              14.41996135                1.96432090               46.57483291                1.00000000                0.24645437                0.15448741               -0.63139448               -0.03576762                0.21003329                0.07508470
              15.42260847                1.82375077               46.46566317                1.00000000                0.29123708                0.23839784               -0.86419322               -0.01363749                0.11234590                0.05615513
              16.42578609                1.68260751               46.35560349                1.00000000                0.31776178                0.32888580               -1.13643112                0.03725376                0.05002168               -0.07835828
               6.55297963                4.03924375               47.44594858                1.00000000               -0.04542108               -0.05447203                0.10631953                0.01277511               -0.15517172                0.63026804
               7.55252542                3.90886449               47.32287659                1.00000000               -0.06093117               -0.11766805                0.32563357                0.03957152               -0.27693994                0.20439992
               8.55176101                3.77844169               47.19845704                0.80002108               -0.07869945               -0.19009592                0.51751072                0.06534491               -0.30553564               -0.07380373
               9.55095143                3.64777844               47.07594435                0.00010000               -0.07011874               -0.23802158                0.70302921                0.05530630                0.02802130               -0.27905422
              10.55035863                3.51556968               46.95974061                0.00010000                0.04817496               -0.29297993                0.79278311                0.05823265                0.77451690               -0.32421972
              11.55191493                3.38055896               46.85375034                0.00010000                0.15866974               -0.06403066                0.07417019                0.12877163                0.97781181                0.04171803
              12.55353203                3.24333671               46.74781118                0.00010000                0.22285502                0.01750154               -0.33293313                0.02719001                0.70626302                0.04466678
              13.55637203                3.10526412               46.64193893                0.00010000                0.29431375                0.12936888               -0.61299260               -0.02313409                0.60058083                0.06294206
              14.55941830                2.96616094               46.53505745                0.26696363                0.32503500                0.23133224               -0.86669673               -0.02993027                0.46803911                0.11249842
              15.56287273                2.82647349               46.42676343                1.00000000                0.37284914                0.31874159               -1.11636425               -0.00381760                0.26231671                0.09543383
              16.56687528                2.68624178               46.31622416                1.00000000                0.40025546                0.40043382               -1.38363479                0.04767887                0.12261712               -0.04694732
               6.68373940                5.03875888               47.39367933                1.00000000               -0.02424826               -0.03553854                0.02774980               -0.00031358               -0.07899188                0.57566779
               7.68349692                4.90776943               47.26888515                0.99976640               -0.04253905               -0.09495404                0.25839902                0.00745550               -0.13264688                0.17865100
               8.68288862                4.77660120               47.14385360                0.33254129               -0.04714595               -0.16565998                0.45501786               -0.01193704               -0.03719948               -0.10173951
               9.68255400                4.64527969               47.02154577                0.00010000                0.08163427               -0.20821854                0.62798819               -0.18075690                0.55590042               -0.40270949
              10.68452130                4.51186247               46.90882379                0.00010000                0.35704833               -0.21777854                1.09496872               -0.16277440                1.90860331                0.34823026
              11.68969496                4.38027637               46.81077692                0.00010000                0.34804684                0.06256645               -0.31574801               -0.38297021                0.79826694                0.07090167
              12.69148224                4.24397887               46.70537857                0.00010000                0.23487584                0.27724610               -0.54463689               -0.66293613                0.75038449                0.28578214
              13.69439248                4.10697148               46.60041850                0.00010000                0.33355677                0.49104899               -0.85118978               -0.82449912                0.83121436                0.26257019
              14.69815338                3.96894755               46.49498443                0.02286470                0.40294022               -0.30050930               -1.17483390               -0.59125300                0.74759793                1.93244153
              15.70245128                3.83012560               46.38772043                0.31531080                0.45248645                0.17430101               -1.44745650               -0.37234619                0.45941486                1.61383796
              16.70720310                3.69061618               46.27726795                0.78734524                0.47518195                1.88159823               -1.65376991               -0.76784666                0.22065199                0.11510788
               6.81495225                6.03853298               47.34073219                1.00000000               -0.01200415               -0.00768531               -0.04507478               -0.00761329               -0.02101756                0.44438352
               7.81483221                5.90696541               47.21428553                0.64938657               -0.04701232               -0.06786626                0.20217359               -0.00762562                0.00080973                0.09720582
               8.81401200                5.77512849               47.08878886                0.12707950               -0.13785962               -0.13384066                0.43392406               -0.02373581                0.13242242               -0.18527075
               9.81207502                5.64361407               46.96491166                0.00010000               -0.09527678                0.11511715                0.65280339               -0.26095164                1.70640229                0.98130114
              10.81210647                5.51121411               46.86954209                0.00010000                0.00320585                0.10627176                0.46638700               -0.32612471                2.67103726                1.67757951
              11.81213913                5.38181029               46.76890246                0.00010000                0.07358599                0.11456795                0.53591404               -0.83686044                2.18877951                1.29159389
              12.81357819                5.24888163               46.66683960                0.00010000                0.13871157                0.35347179                0.06176339               -1.20331984                1.56508186                0.82975526
              13.81491336                5.11508510               46.56334987                0.00010000                0.54304693                0.49583549               -0.31475139               -2.31942698                2.63811365                0.63468789
              14.82443913                4.96015075               46.49151754                0.02173793                0.94219023                0.66016722               -2.10118677               -2.26816524                1.77423964                1.24117510
              15.83375717                4.82995951               46.37960981                0.25686276                0.30490267                1.32630110               -2.36575342               -0.15247365               -1.45752081                0.76788611
              16.83053718                4.72387374               46.24199025                0.74447363               -0.32199891                2.62966397               -1.75926203                0.75030289               -2.46316541               -0.74542674
               6.94672227                7.03860517               47.28646994                1.00000000                0.00266250                0.02155794               -0.10754769               -0.00670606                0.04219047                0.27518663
               7.94674889                6.90641211               47.15873302                0.48544565               -0.04785109               -0.04750052                0.15518831               -0.01511428                0.08457889               -0.03907359
               8.94576525                6.77392439               47.03204861                0.04675611               -0.27497758                0.25286824                0.46543353               -0.08011872                1.81542379                2.49432013
               9.94124934                6.64758204               46.93807655                0.00010000               -0.29813312                0.35557327               -0.99813256               -0.34793181                3.30830828                3.03376426
              10.93980258                6.51398791               46.83699054                0.00010000               -0.29795532                0.27274530                0.70985604               -0.85291349                2.66935991                2.83026384
              11.93529023                6.38256773               46.73552268                0.00010000               -0.28307748                0.10310562                0.67125098               -0.95566462                2.10126906                2.19986970
              12.93414103                6.25104830               46.63000145                0.00010000                0.07222945                0.14444745                0.43162225               -1.29192927                1.71332674                1.45414661
              13.93673482                6.11688819               46.52568002                0.00010000                0.18873130                0.28307225               -0.06467181               -1.58734141                1.17082278                0.80447078
              14.93791566                5.98215089               46.41630757                0.03143437               -0.05280002                1.61399307               -0.56877602               -1.70278797                0.70344157               -1.22310830
              15.93567882                5.85665162               46.30530184                0.26835815               -0.17674760                1.98377888               -0.90046575               -1.21214059                0.61588434               -1.85005944
              16.93438071                5.74320946               46.19209987                0.76039847               -0.12981155                1.47916679               -1.09235374               -0.55559685                0.49531844               -1.72281105
               7.07920426                8.03896414               47.23070935                1.00000000                0.00064504                0.16566330               -0.16046497               -0.20176920                0.04491001                4.79335822
               8.07921071                7.90601540               47.10142517                0.41014199               -0.39822801                0.30215779                0.13519555               -0.23932416                2.95002300                4.72289559
               9.07123970                7.78018586               47.03031478                0.01245676               -0.70789270                0.39946973                0.80991721               -0.37564623                4.03862738                5.28457457
              10.06505286                7.65072553               46.92273064                0.00010000               -0.55885961                0.10003863                1.07405116               -0.90126148                2.08344672                4.35390741
              11.06006251                7.51666902               46.81572150                0.00010000               -0.45437035                0.11838111                0.94313007               -1.29937334                1.90167795                3.53577787
              12.05596545                7.38387241               46.70633366                0.00010000               -0.33216854                0.03897693                0.95652776               -1.22977368                1.61588843                2.61782780
              13.05341914                7.25177058               46.59548661                0.00010000               -0.19507518                0.04715605                0.71450790               -1.27959087                1.30007133                1.77438571
              14.05206395                7.12074655               46.48294434                0.00010000               -0.13995979                0.30556172                0.37797865               -1.37092510                0.98967597                0.82999820
              15.05061994                6.99243061               46.36864396                0.04276871               -0.18040797                0.75860217                0.02971988               -1.15021756                0.68743791                0.03398809
              16.04845579                6.86963509               46.25171400                0.28451078               -0.21551914                0.95745589               -0.21852296               -0.55728998                0.36686409               -0.85781343
              17.04630956                6.75345708               46.13122534                0.77566692               -0.21462281                0.74713948               -0.36950839               -0.26073511                0.21540332               -1.82673751
               7.20858436                9.04191844               47.26730532                0.97944306               -0.78436647                0.10247439                1.35499091               -0.14939353                0.97598967                8.66289266
               8.20074069                8.91245526               47.14097270                0.39401281               -0.75210835                0.25890954                1.46523119               -0.63661484                1.06079432                8.07057972
               9.19354219                8.78191378               47.02289757                0.00010000               -0.69998726               -0.04438856                1.57028871               -0.80756112                1.55076075                5.14251833
              10.18674095                8.64958281               46.91030069                0.00010000               -0.64369728               -0.21530788                1.59787845               -1.03029652                1.53582488                4.22824702
              11.18066824                8.51635553               46.79417941                0.00010000               -0.55738746               -0.16925144                1.48902316               -1.17702947                1.24670225                3.34459912
              12.17559320                8.38334727               46.67787197                0.00010000               -0.44965848               -0.14343383                1.27603867               -1.19252664                1.12980013                2.53329543
              13.17167507                8.25199142               46.56095861                0.00010000               -0.34684530               -0.05601326                1.01233853               -1.12327355                0.98566628                1.74079861
              14.16865629                8.12299943               46.44303235                0.00010000               -0.28261547                0.11742553                0.70683510               -0.97869821                0.79520344                0.96474646
              15.16602277                7.99732293               46.32347039                0.05614727               -0.25748656                0.32096125                0.42296493               -0.69980096                0.56266712                0.18279896
              16.16350656                7.87580074               46.20164222                0.29794147               -0.22503651                0.41172024                0.21139758               -0.32514407                0.29590502               -0.60242421
              17.16152204                7.75815225               46.07702143                0.78394557               -0.19845257                0.28118229                0.11026783               -0.12985049                0.15957744               -1.34471920
               7.33514274               10.04101363               47.27803498                0.96687425               -0.86596686               -0.33531727                2.45252056               -0.21662142                0.37101469                6.10078990
               8.32648307                9.91119359               47.14238442                0.42863077               -0.85909050               -0.36699867                2.37051517               -0.40785289                0.40318008                5.17633360
               9.31796093                9.77929808               47.01387622                0.00010000               -0.82389489               -0.42235991                2.26759904               -0.66163216                0.71659841                4.21967962
              10.31000518                9.64641938               46.88964186                0.00010000               -0.76017346               -0.43179828                2.11364041               -0.83310208                0.86148337                3.26043728
              11.30275746                9.51328399               46.76756514                0.00010000               -0.67630742               -0.39168281                1.88321269               -0.92407673                0.88397042                2.60437343
              12.29647903                9.38100373               46.64602582                0.00010000               -0.57279787               -0.30762698                1.58987621               -0.91526886                0.85680559                1.99751140
              13.29130150                9.25065032               46.52471735                0.00010000               -0.46602788               -0.20262742                1.26817261               -0.81361293                0.81193538                1.40826044
              14.28715847                9.12309506               46.40294300                0.00010000               -0.37394461               -0.07542522                0.95532928               -0.62744415                0.70698963                0.82120467
              15.28382261                8.99884984               46.27984560                0.07421597               -0.30174404                0.04047736                0.68820777               -0.37589554                0.52132547                0.22815908
              16.28112359                8.87786950               46.15453093                0.31000907               -0.24065462                0.08020818                0.50910777               -0.13079819                0.27093356               -0.38335374
              17.27900952                8.75908072               46.02651728                0.78511071               -0.21140680               -0.01583098                0.46301249               -0.03845664                0.13871391               -1.00870897
               7.46389200               11.03521209               47.25937378                0.94641501               -0.95928194               -0.71799559                3.11223058               -0.10507281                0.28897330                3.14457326
               8.45429918               10.90511529               47.12002943                0.47991590               -0.94041159               -0.71037426                2.90417897               -0.20683880                0.23907240                2.67900917
               9.44508376               10.77346658               46.98643056                0.00010000               -0.91030888               -0.66228278                2.69874956               -0.35279130                0.49106237                2.21051959
              10.43609300               10.64094685               46.85755374                0.00010000               -0.87407037               -0.59874128                2.45632069               -0.46031120                0.67462506                1.79282319
              11.42760236               10.50852188               46.73168959                0.00010000               -0.80857524               -0.50987127                2.15336725               -0.51352490                0.78387172                1.42836170
              12.41992149               10.37719473               46.60758349                0.00010000               -0.71454346               -0.40357751                1.80428360               -0.50461344                0.85094750                1.11160096
              13.41331149               10.24793887               46.48429140                0.00010000               -0.60068025               -0.29171050                1.44422765               -0.43163814                0.87510661                0.80034095
              14.40790789               10.12149092               46.36094540                0.00010000               -0.47905350               -0.18866503                1.11079811               -0.30344054                0.82334315                0.48338060
              15.40373042                9.99813248               46.23646249                0.10674208               -0.36240879               -0.11424043                0.83984773               -0.14570932                0.65408221                0.15610504
              16.40065971                9.87740490               46.10955278                0.32934829               -0.26999839               -0.09685891                0.67347658               -0.02184090                0.35702420               -0.19014823
              17.39833045                9.75783563               45.97909942                0.77407694               -0.23292638               -0.15703068                0.66589996                0.01526539                0.18189712               -0.62686992
               7.59323489               12.02665371               47.21302137                0.98326702               -0.91430842               -0.85583806                3.14060327               -0.03247095                0.41715325                1.47622686
               8.58409181               11.89698611               47.07289423                0.78971239               -0.90806709               -0.81291835                2.91538009               -0.05080102                0.40767386                1.21369346
               9.57507355               11.76605243               46.93900258                0.47368684               -0.91740754               -0.74141541                2.74704756               -0.12809914                0.67366931                1.00787220
              10.56574366               11.63444455               46.80978066                0.36929157               -0.94172347               -0.65022950                2.53137831               -0.18322722                0.85535217                0.81894577
              11.55623908               11.50308657               46.68386360                0.35973787               -0.93869490               -0.54353103                2.23910061               -0.21194602                1.00014661                0.65805480
              12.54696976               11.37293218               46.56012395                0.36878346               -0.89332683               -0.42625485                1.88758618               -0.20869628                1.13004067                0.51105503
              13.53837255               11.24481611               46.43766769                0.39581590               -0.80368552               -0.31227658                1.51536185               -0.17441526                1.22463787                0.36749248
              14.53089605               11.11932176               46.31552108                0.45811331               -0.66890483               -0.21691666                1.16222525               -0.11373786                1.22773767                0.21750719
              15.52499445               10.99656503               46.19243547                0.57565302               -0.49562149               -0.15674529                0.86659562               -0.04306887                1.07815675                0.05920353
              16.52098362               10.87593232               46.06683960                0.68454830               -0.32705412               -0.14725843                0.67482033                0.00114460                0.69900218               -0.11001290
              17.51845337               10.75594011               45.93619906                0.88484290               -0.25302538               -0.18955243                0.66903726                0.01307076                0.43713696               -0.40457435
               6.40783698                2.10064968               48.55810025                1.00000000               -0.18417589               -0.13413704                0.50126154                0.00933061               -0.57092589                0.38328655
               7.40599522                1.96822693               48.43801008                1.00000000               -0.22906573               -0.15540903                0.59291388                0.03147694               -0.89698819                0.08073502
               8.40325566                1.83551525               48.31265648                1.00000000               -0.34232233               -0.16398737                0.71239895                0.03842327               -1.18140309               -0.03308945
               9.39914877                1.70182819               48.18780615                0.69652500               -0.42715653               -0.15469309                0.80688686                0.03310729               -0.97611569               -0.13536665
              10.39471253                1.56615343               48.06694357                0.75625902               -0.37921322               -0.11077107                0.58935447               -0.01220094               -0.54860625               -0.18074844
              11.39156451                1.42799034               47.95006469                0.77376169               -0.23885702               -0.06771282                0.31645260               -0.08670236               -0.20070429               -0.11088040
              12.38993539                1.28787060               47.83571811                0.67401088               -0.08785492               -0.00355330                0.10864948               -0.09242007               -0.00959927               -0.04747937
              13.38980741                1.14676358               47.72313155                0.58555469                0.04867149                0.06746877               -0.17753170               -0.06321060                0.06939460                0.01196331
              14.39090882                1.00496770               47.61103909                1.00000000                0.14463724                0.14148937               -0.42092529               -0.04510682                0.05216801                0.03956210
              15.39270015                0.86263330               47.49862291                1.00000000                0.20731736                0.21676106               -0.64618604               -0.03860076                0.00626953                0.03877943
              16.39505517                0.71966325               47.38581484                1.00000000                0.23550149                0.29675742               -0.89402100               -0.00765309               -0.01766846               -0.03691084
               6.54035303                3.09930831               48.50153289                1.00000000               -0.14758284               -0.12297982                0.41374921                0.00851806               -0.26111431                0.46794373
               7.53887720                2.96667284               48.38161949                1.00000000               -0.17568841               -0.14827215                0.50404888                0.04047415               -0.48469684                0.11958616
               8.53683926                2.83387537               48.25841624                1.00000000               -0.23582271               -0.16525498                0.60707127                0.06204281               -0.66078665               -0.05641694
               9.53416075                2.70028126               48.13590267                0.44720186               -0.26649078               -0.16288134                0.66385009                0.06261613               -0.47766559               -0.17856840
              10.53150945                2.56504572               48.01712277                0.55936652               -0.21609247               -0.12756005                0.54766157               -0.00442511               -0.09099644               -0.24299430
              11.52983890                2.42731321               47.90245705                0.59518444               -0.09424391               -0.08000873                0.24842428               -0.08313319                0.22056870               -0.12518218
              12.52962457                2.28783507               47.79037414                0.44146042                0.03939258                0.00809229               -0.08604164               -0.06861504                0.34318798               -0.01548882
              13.53062675                2.14743826               47.67941965                0.30025276                0.14491605                0.08919377               -0.37702383               -0.03517154                0.33740404                0.03987500
              14.53252289                2.00638259               47.56856940                0.85463079                0.21698079                0.16895074               -0.61830486               -0.01012051                0.27699738                0.07216006
              15.53496637                1.86480091               47.45707316                1.00000000                0.27128953                0.24503508               -0.84064848                0.00263718                0.16424287                0.06468472
              16.53794868                1.72263083               47.34436103                1.00000000                0.29823142                0.32212922               -1.08269008                0.03325868                0.08106844               -0.04336899
               6.67327828                4.09819009               48.44798250                1.00000000               -0.10406393               -0.09948036                0.30279860                0.01193337               -0.15992286                0.58412397
               7.67223764                3.96526149               48.32653059                1.00000000               -0.11950897               -0.12872371                0.40556465                0.04454681               -0.28823954                0.18231106
               8.67088810                3.83221015               48.20359193                0.80244888               -0.15034478               -0.16165277                0.50824926                0.06258128               -0.32324912               -0.09354711
               9.66923074                3.69857056               48.08238232                0.00010000               -0.16480091               -0.17627840                0.58157355                0.04636958               -0.06457369               -0.29081803
              10.66759208                3.56360223               47.96570278                0.00010000               -0.10591212               -0.15086600                0.49103051               -0.03900680                0.37851691               -0.22854292
              11.66711250                3.42639016               47.85440734                0.00010000                0.04229774               -0.06447458                0.05388265               -0.09505652                0.63151789               -0.07935332
              12.66843803                3.28803244               47.74502702                0.00010000                0.17219752                0.04483565               -0.29105249               -0.03672294                0.68945525                0.03062575
              13.67055645                3.14854745               47.63586460                0.00010000                0.24528653                0.14002759               -0.59035921               -0.02049203                0.63552913                0.05401932
              14.67334376                3.00834671               47.52647572                0.23967523                0.29741052                0.22400438               -0.82827650               -0.00422216                0.53507839                0.07857593
              15.67650466                2.86753400               47.41587416                1.00000000                0.33583696                0.29948465               -1.03308362                0.00319286                0.32330088                0.06975168
              16.68006050                2.72610584               47.30283462                1.00000000                0.35558435                0.37607852               -1.25484275                0.03092040                0.15525805               -0.04990091
               6.80644889                5.09731870               48.39475559                1.00000000               -0.07008152               -0.07158947                0.19244789                0.00468975               -0.08916294                0.53118304
               7.80574808                4.96409837               48.27172114                0.96168383               -0.08335399               -0.09961091                0.30819165                0.02376993               -0.15891231                0.16088097
               8.80478181                4.83064232               48.14814102                0.32236665               -0.10260116               -0.13879269                0.41356020                0.02006630               -0.08090419               -0.09556058
               9.80369605                4.69675569               48.02725495                0.00010000               -0.09360497               -0.18595551                0.50665489                0.00119674                0.43263921               -0.39637396
              10.80290971                4.56202840               47.91485797                0.00010000               -0.00942481                0.00907828                0.44321109               -0.06122755                0.93291854                0.43943327
              11.80350756                4.42602372               47.80690810                0.00010000                0.19115541                0.24062481               -0.28177046               -0.31428290                0.95779316                0.63347659
              12.80673282                4.28873178               47.69978500                0.00010000                0.31975420                0.38384119               -0.55042945               -0.58349097                0.96413066                0.65927337
              13.80990264                4.15023882               47.59204678                0.00010000                0.33595390                0.49236549               -0.80545885               -0.84024732                0.91387788                0.69156792
              14.81345190                4.01086268               47.48404229                0.01044570                0.36842290                0.79349585               -1.03476318               -0.90442292                0.80349690                0.89655948
              15.81727110                3.87079060               47.37457747                0.27238425                0.39857572                1.04957322               -1.21737581               -0.75370227                0.52007208                0.69603280
              16.82142341                3.73015240               47.26173475                0.75402888                0.41523140                1.67116211               -1.43084970               -0.96541153                0.28300670                0.33237185
               6.93981275                6.09675830               48.34092414                1.00000000               -0.04233235               -0.03874366                0.08814706               -0.00018349               -0.03748217                0.40858095
               7.93938942                5.96326927               48.21637096                0.62836353               -0.05903242               -0.07030037                0.22223103                0.01130421               -0.02223936                0.08366571
               8.93863210                5.82943429               48.09274388                0.11774557               -0.07604158               -0.11132890                0.32755357               -0.00692645                0.08688853               -0.10736435
               9.93786859                5.69485145               47.97034866                0.00010000               -0.07662973               -0.15593994                0.37827983                0.24678997                1.50385799               -0.28693355
              10.93709950                5.56378380               47.87371850                0.00010000               -0.18725624                0.38580238                0.36483225               -0.00594040                2.52197374                1.81915619
              11.93412347                5.43120266               47.77273568                0.00010000               -0.22731934                0.48308605                0.28118247               -0.59921669                1.85925134                1.75596420
              12.93255312                5.29570927               47.66669809                0.00010000               -0.12514316                0.61206262               -0.04131077               -1.15924554                1.45393083                1.47728500
              13.93162060                5.15839476               47.56126002                0.00010000                0.10752021                0.78651122               -0.37646960               -1.30704704                1.55997489                1.14442974
              14.93470352                5.02421663               47.45876123                0.01396749                0.52601472                1.12411387               -2.37507016               -1.37116613                0.85016665                1.76356995
              15.94214090                4.88852546               47.34671616                0.23261985                0.36625807                1.63197235               -2.51791014               -1.29279831               -0.28932712                1.11987117
              16.94202868                4.75952908               47.22891799                0.72478225               -0.01122154                2.58442456               -1.48169276               -1.22911617               -0.56416102               -0.26239724
               7.07342327                7.09654383               48.28589986                1.00000000               -0.01251103               -0.00563156               -0.00408758               -0.00566794                0.01603983                0.25067811
               8.07329816                6.96269236               48.16013152                0.46951169               -0.01810874               -0.04541278                0.13968079               -0.00664606                0.10119660               -0.02705756
               9.07306110                6.82841574               48.03650649                0.03800717                0.04920921                0.39945225                0.31285239               -0.36334307                0.41687345                2.79158326
              10.07428235                6.69363689               47.91671693                0.00010000               -0.33106995                0.58729596               -1.12403145               -0.24064983                3.23738930                3.27514333
              11.06643970                6.56974445               47.84556462                0.00010000               -0.73422967                0.47786414                0.66277742               -0.43781577                3.74427540                3.08877898
              12.05959775                6.43568544               47.74190901                0.00010000               -0.50419463                0.37854220                0.61038892               -1.05942949                1.85541165                2.49344773
              13.05635581                6.30097303               47.63416920                0.00010000               -0.21717076                0.41610366                0.37430846               -1.22008328                1.41325278                1.82521464
              14.05525434                6.16596904               47.52444154                0.00010000               -0.02289666                0.61134020               -0.08853643               -1.18867540                0.98383164                1.15244226
              15.05589787                6.03334496               47.41264627                0.02601596                0.04241725                0.76996314               -0.39915989               -1.18345381                0.63338925                0.33022683
              16.05610268                5.90343005               47.29769209                0.25355785               -0.05320074                1.23396214               -0.77467860               -1.10577955                0.38383797               -0.40235167
              17.05483386                5.78184089               47.17958258                0.74642148               -0.12688245                1.68362749               -1.15744627               -0.77649985                0.20405672               -1.18489988
               7.20740233                8.09664566               48.22946443                1.00000000               -0.00177374                0.48804581               -0.08360713                0.11702136                0.04558608                5.65683283
               8.20738459                7.96236101               48.10256827                0.39651466               -0.34908140                0.53911712                0.08269571                0.02027414                3.18053136                5.52930452
               9.20042070                7.83742334               48.03836212                0.00426760               -0.78288549                0.68137192                0.84610731               -0.26178312                4.46127301                6.00859211
              10.19172688                7.70659737               47.93507690                0.00010000               -0.70630295                0.75050984                1.05318778               -1.12997397                2.00037312                6.11140056
              11.18629464                7.57334108               47.82493039                0.00010000               -0.50102932                0.20443643                0.98200351               -1.28489667                1.65224557                3.89619265
              12.18170630                7.43877350               47.71624267                0.00010000               -0.42133968                0.15754034                0.99388682               -1.30018280                1.45226115                2.96275458
              13.17786785                7.30403134               47.60282028                0.00010000               -0.31155636                0.19042842                0.74657807               -1.29725695                1.02594873                2.09266234
              14.17547517                7.17062157               47.48707839                0.00010000               -0.21472067                0.33833466                0.43061943               -1.22524894                0.72667530                1.25842767
              15.17357343                7.03961589               47.36916114                0.03870161               -0.19728973                0.52172230                0.09976908               -1.04874562                0.49494769                0.45439713
              16.17152937                6.91320471               47.24951668                0.27494959               -0.19482153                0.76691931               -0.19214611               -0.63617595                0.29628599               -0.35128449
              17.16967700                6.79320163               47.12755552                0.76480936               -0.18523693                0.79756664               -0.38865001               -0.34883727                0.19034957               -1.12137295
               7.34433300                9.10630475               48.28304046                0.97241084               -1.14070285                0.57171633                1.75916926                0.08980015                1.03724009               10.48865930
               8.33292597                8.97347470               48.15733243                0.38144861               -1.03719618                0.62591462                1.78760733               -0.45543084                1.06253799                9.58299545
               9.32358908                8.84204318               48.04005715                0.00010000               -0.85804239                0.16160833                1.84171970               -0.70591691                1.49422287                6.16713356
              10.31576512                8.70864709               47.92731594                0.00010000               -0.75117200               -0.03469716                1.84582880               -0.93777832                1.38012813                4.87235414
              11.30856564                8.57383318               47.81018549                0.00010000               -0.64306431               -0.12763602                1.69115344               -1.16811047                0.96920653                3.93902487
              12.30290384                8.43883625               47.69142016                0.00010000               -0.50015159               -0.13092539                1.43280031               -1.24650160                0.79646498                2.90458440
              13.29856261                8.30478160               47.57171151                0.00010000               -0.38695148               -0.04854915                1.13045176               -1.17647166                0.65674102                2.04562458
              14.29516481                8.17273573               47.45059119                0.00010000               -0.31113924                0.08936783                0.80053849               -1.01027113                0.50175425                1.26486334
              15.29233982                8.04377940               47.32810969                0.05229120               -0.26856901                0.26179863                0.49389354               -0.72965662                0.34473172                0.53668770
              16.28979343                7.91876844               47.20399867                0.29156432               -0.22382758                0.36615685                0.24636593               -0.36321782                0.17476096               -0.18615842
              17.28786327                7.79779222               47.07810169                0.77485942               -0.19301594                0.27366255                0.09233540               -0.17133029                0.08977620               -0.84593615
               7.47485842               10.10807999               48.30653868                0.96136188               -1.23208784               -0.24471109                3.28598454               -0.18174976                0.37197744                7.68437148
               8.46253754                9.97487931               48.16937203                0.41603888               -1.18642241               -0.26144783                3.06701943               -0.33637113                0.31626023                6.41915597
               9.45112997                9.84065550               48.03930037                0.00010000               -1.06781150               -0.40192953                2.86962760               -0.56650036                0.52797542                5.15341987
              10.44118131                9.70590343               47.91310614                0.00010000               -0.91933482               -0.46593638                2.61658541               -0.78953919                0.55086224                3.93920409
              11.43274328                9.57078836               47.78819788                0.00010000               -0.76767351               -0.44934464                2.27320005               -0.92420360                0.47831140                3.06602655
              12.42582784                9.43615500               47.66328725                0.00010000               -0.61521753               -0.37848296                1.87100228               -0.95804910                0.42003059                2.32242159
              13.42043893                9.30306036               47.53838478                0.00010000               -0.47779506               -0.26789143                1.46504704               -0.87736753                0.40314172                1.64650706
              14.41627194                9.17240892               47.41320736                0.00010000               -0.37456629               -0.13331309                1.09424578               -0.69329938                0.36275354                1.03761131
              15.41294760                9.04485187               47.28720750                0.06880993               -0.30098718               -0.00850417                0.78221892               -0.43753559                0.26598540                0.46489538
              16.41025220                8.92052784               47.15985564                0.30579183               -0.23723878                0.05175935                0.55278000               -0.17672779                0.12934056               -0.09215047
              17.40820283                8.79867488               47.03103949                0.77729644               -0.20493732               -0.01747001                0.43284468               -0.07124020                0.06293532               -0.63143242
               7.60709937               11.10141053               48.29588110                0.93958450               -1.34763381               -0.91990951                4.35283116               -0.10463860                0.29978423                4.16191906
               8.59362304               10.96824575               48.15352856                0.46618353               -1.29322138               -0.86431690                3.94021494               -0.18747444                0.13624437                3.43959981
               9.58123495               10.83400459               48.01716820                0.00010000               -1.18907761               -0.81624031                3.58031484               -0.31107461                0.26235889                2.77698816
              10.56984148               10.69932836               47.88519974                0.00010000               -1.07024731               -0.75825067                3.17756585               -0.42686099                0.29957784                2.19341279
              11.55983000               10.56484629               47.75564299                0.00010000               -0.91853125               -0.66237157                2.69795640               -0.50845122                0.30161669                1.70197172
              12.55147086               10.43126659               47.62741424                0.00010000               -0.75343365               -0.53715004                2.18737284               -0.52518095                0.34052173                1.29329309
              13.54476133               10.29942377               47.50001400                0.00010000               -0.59817723               -0.40234813                1.70703242               -0.46970316                0.40365572                0.92934511
              14.53950731               10.17006947               47.37295986                0.00010000               -0.46455699               -0.27444108                1.29331456               -0.34925533                0.42929224                0.59478209
              15.53547019               10.04360932               47.24547816                0.09801917               -0.35357282               -0.17381957                0.96394770               -0.18968470                0.36087362                0.27926458
              16.53243586                9.91980362               47.11660831                0.32798277               -0.26628976               -0.12690270                0.73746936               -0.05196517                0.19450363               -0.03306435
              17.53014439                9.79744282               46.98567392                0.76765310               -0.22914655               -0.15803316                0.64404187               -0.00881829                0.09561147               -0.40774074
               7.73909521               12.08968180               48.24986487                0.97909091               -1.29012172               -1.17287242                4.45352232               -0.00929962                0.57426375                2.02854830
               8.72619399               11.95759297               48.10652608                0.78254683               -1.26346728               -1.06527763                4.00870760               -0.01045945                0.45929359                1.58291463
               9.71382586               11.82433070               47.97034498                0.47066608               -1.21957991               -0.96738888                3.70055047               -0.08363584                0.59243715                1.27305219
              10.70180239               11.69073842               47.83836319                0.36924038               -1.15949171               -0.85899461                3.32146160               -0.14339737                0.56913614                1.00345668
              11.69063603               11.55754093               47.70885156                0.35981515               -1.05278269               -0.73053569                2.84057749               -0.18571815                0.55535687                0.78024711
              12.68074674               11.42541199               47.58095817                0.36852394               -0.91970259               -0.58545919                2.31626572               -0.19878851                0.62081511                0.59183888
              13.67224198               11.29501340               47.45426325                0.39481610               -0.78227267               -0.44103748                1.81700725               -0.17652956                0.72790440                0.42491248
              14.66510129               11.16692010               47.32821414                0.44857627               -0.64111106               -0.31493708                1.38173797               -0.12249878                0.78799181                0.26874194
              15.65941976               11.04137547               47.20189364                0.57039032               -0.48609469               -0.22338453                1.02935517               -0.05155857                0.72623188                0.11876663
              16.65537939               10.91798979               47.07410384                0.68513963               -0.33358481               -0.18138318                0.78127098                0.00129073                0.48382412               -0.03011135
              17.65274806               10.79551422               46.94299436                0.88204349               -0.26313326               -0.19286041                0.68823700                0.01280959                0.30744749               -0.27589077
               6.52202434                2.16131203               49.56436038                1.00000000               -0.24000777               -0.19870867                0.73303760               -0.01750237               -0.50775667                0.34328000
               7.51962427                2.02583145               49.44456927                1.00000000               -0.26995497               -0.18374329                0.71169258                0.00425313               -0.79357750                0.07386977
               8.51662524                1.88999335               49.32003158                1.00000000               -0.33635786               -0.16540219                0.74607117                0.00861548               -1.05091013               -0.02765125
               9.51289711                1.75326076               49.19537703                0.69578376               -0.37894643               -0.13681710                0.73056400               -0.00551076               -0.90873607               -0.09403243
              10.50904632                1.61504531               49.07297517                0.75120307               -0.34604560               -0.09423323                0.58387998               -0.03566188               -0.59228158               -0.11168111
              11.50597620                1.47511441               48.95358413                0.76737113               -0.23608543               -0.04037178                0.34376434               -0.05464849               -0.29616697               -0.08078754
              12.50432461                1.33381160               48.83666690                0.66223176               -0.09313753                0.01985422                0.07757458               -0.05424164               -0.08908770               -0.03293456
              13.50411345                1.19158927               48.72132829                0.53609642                0.03638518                0.08592881               -0.19750682               -0.03861333                0.02210307                0.00318789
              14.50505231                1.04880181               48.60671462                0.74116646                0.13341381                0.15256636               -0.44689514               -0.02088537                0.04785728                0.02791093
              15.50678172                0.90558062               48.49202838                1.00000000                0.20270747                0.22125899               -0.66919045               -0.01641912                0.02066679                0.03623523
              16.50910646                0.76183347               48.37689604                1.00000000                0.23247377                0.28868754               -0.88232376               -0.00218827               -0.00565760               -0.02567826
               6.65732990                3.15932494               49.50681491                1.00000000               -0.20037675               -0.18042495                0.62516478               -0.00005984               -0.23017136                0.42071809
               7.65532614                3.02399401               49.38718339                1.00000000               -0.21665798               -0.17111924                0.60136461                0.02706631               -0.42566832                0.10530554
               8.65299674                2.88833933               49.26454778                1.00000000               -0.25050574               -0.15736892                0.61166958                0.03588095               -0.58703025               -0.05395874
               9.65031602                2.75189259               49.14206136                0.46329274               -0.26169352               -0.13254755                0.57764261                0.02078216               -0.45537247               -0.14005491
              10.64776287                2.61410298               49.02189126                0.57412482               -0.21347274               -0.08908411                0.42998791               -0.01621322               -0.17798947               -0.15837899
              11.64604657                2.47471069               48.90459287                0.60718575               -0.11090580               -0.02967810                0.17875853               -0.04239957                0.07919698               -0.09672280
              12.64554476                2.33401015               48.78949145                0.44675454                0.00928211                0.03633837               -0.10595006               -0.03614321                0.23885976               -0.02750563
              13.64623221                2.19244856               48.67573006                0.26955197                0.11515127                0.10640501               -0.37380910               -0.00810989                0.30769024                0.02058611
              14.64784778                2.05032748               48.56246681                0.56390285                0.19347478                0.17288767               -0.60311746                0.02013217                0.29261844                0.05081568
              15.65010170                1.90779321               48.44885020                1.00000000                0.24919742                0.23918000               -0.80205395                0.02954918                0.19294815                0.06011292
              16.65283173                1.76472034               48.33394969                1.00000000                0.27300270                0.30182833               -1.00175088                0.04036606                0.10321086               -0.02028615
               6.79268501                4.15770353               49.45200456                1.00000000               -0.15338013               -0.14420170                0.48767272                0.00530999               -0.13954873                0.52726130
               7.79115120                4.02240906               49.33098788                1.00000000               -0.16203575               -0.14236685                0.47980426                0.03747754               -0.24943932                0.16038934
               8.78944429                3.88684597               49.20862203                0.81021190               -0.18010511               -0.14006494                0.49122353                0.04703644               -0.27496890               -0.09146501
               9.78754910                3.75060981               49.08757582                0.00010000               -0.17701700               -0.12533545                0.46254042                0.02957314               -0.06449499               -0.23414106
              10.78590395                3.61326363               48.96956122                0.00010000               -0.11640312               -0.07337824                0.30840726               -0.01626593                0.26282289               -0.14930805
              11.78522104                3.47452084               48.85482799                0.00010000               -0.00200401               -0.00465671                0.00247865               -0.04240120                0.51453758               -0.07652044
              12.78586387                3.33453837               48.74199013                0.00010000                0.12064391                0.07415594               -0.31173005               -0.03610284                0.61520422               -0.01843272
              13.78763392                3.19371737               48.63013175                0.00010000                0.21232167                0.14794276               -0.56688546               -0.00491345                0.64021053                0.02530846
              14.79011030                3.05225957               48.51849192                0.20905315                0.26729609                0.21328746               -0.77363399                0.02458476                0.58062069                0.05189661
              15.79297984                2.91036422               48.40610176                1.00000000                0.29746071                0.27055218               -0.92189475                0.03345146                0.38297146                0.06735554
              16.79605952                2.76787003               48.29112731                1.00000000                0.30796778                0.32299567               -1.06009434                0.03642838                0.19766665               -0.00344804
               6.92802504                5.15644091               49.39752829                1.00000000               -0.10917983               -0.10716017                0.35050463                0.00177410               -0.07997075                0.47956032
               7.92693324                5.02114668               49.27504898                0.93145764               -0.11441569               -0.10903598                0.35591223                0.02567970               -0.13664465                0.14439611
               8.92573673                4.88553803               49.15212480                0.31125104               -0.12217077               -0.11151211                0.37217518                0.02834957               -0.05000938               -0.10931335
               9.92448983                4.74938588               49.03167886                0.00010000               -0.11051048               -0.10981979                0.35644975                0.03629189                0.39555570               -0.41412360
              10.92352652                4.61263542               48.91768802                0.00010000               -0.02830129                0.18134808                0.17832267               -0.02566793                0.79022592                0.49975080
              11.92392380                4.47461755               48.80514151                0.00010000                0.10498266                0.37039146               -0.19684865               -0.30093099                0.93696931                0.92736001
              12.92562617                4.33549327               48.69436998                0.00010000                0.22444716                0.47523805               -0.52563061               -0.54707709                0.97282491                0.96554748
              13.92841274                4.19540742               48.58430933                0.00010000                0.30332290                0.59307855               -0.75691814               -0.72421154                0.96569425                0.88695229
              14.93169263                4.05459323               48.47428916                0.00010000                0.33737603                0.72793025               -0.94060780               -0.81635706                0.88959108                0.72376534
              15.93516027                3.91320426               48.36337291                0.23592623                0.34280217                0.94390479               -1.03795818               -0.92894706                0.63114958                0.45704225
              16.93854867                3.77118026               48.24865096                0.72573191                0.33884074                1.64539637               -1.09258219               -1.26286044                0.36859035                0.23502501
               7.06330895                6.15556033               49.34249513                1.00000000               -0.07412768               -0.06812310                0.21969239               -0.00546356               -0.02614354                0.36703341
               8.06256768                6.02022834               49.21873015                0.60381719               -0.07684356               -0.07365098                0.24199568                0.01441801               -0.03171674                0.07450212
               9.06177208                5.88461573               49.09533993                0.10741901               -0.06950597               -0.07001095                0.23338562               -0.00171755                0.01599852               -0.11235238
              10.06117756                5.74841341               48.97247725                0.00010000               -0.08065826               -0.05146075                0.17619075                0.23620164                1.42079386               -0.38861042
              11.06015892                5.61689059               48.87683873                0.00010000               -0.24164926                0.59580954                0.22178625               -0.02576194                2.44879564                1.98719772
              12.05634457                5.48192867               48.77452611                0.00010000               -0.30132249                0.71560723                0.11274673               -0.64886873                1.75796391                2.27517811
              13.05413247                5.34404313               48.66601339                0.00010000               -0.11474221                0.79685694               -0.12292365               -1.10511706                1.33048302                2.06984536
              14.05404973                5.20557894               48.55582048                0.00010000                0.09269285                0.93556291               -0.52286377               -1.38516597                1.19446406                1.71222528
              15.05598632                5.06681817               48.44401613                0.00701055                0.18820708                1.18811455               -1.15189070               -1.53481800                0.84782234                1.10282358
              16.05781387                4.92924232               48.32925161                0.21247365               -0.05680088                1.62999068               -1.39649377               -1.23906038                0.23259765                0.50704388
              17.05485031                4.80077796               48.21235640                0.70675316               -0.29635627                2.48468384               -1.48312009               -1.03982673               -0.07483774                0.06403605
               7.19857974                7.15507845               49.28638819                1.00000000               -0.04135422               -0.03000654                0.09820781               -0.01051128                0.02121067                0.22495692
               8.19816620                7.01967366               49.16152664                0.45218273               -0.05312163               -0.04138770                0.13187263                0.02076670                0.08454645               -0.03134327
               9.19751731                6.88413781               49.03830565                0.02874864               -0.06135990                0.60956545                0.13132278               -0.25662750                0.18779550                3.20759866
              10.19693900                6.74835666               48.91559592                0.00010000               -0.40106452                0.69705630               -0.07402390               -0.11358531                3.01796643                4.04447439
              11.18949602                6.62455161               48.85024609                0.00010000               -0.65725565                0.65407058                0.44928900               -0.38221151                4.01731532                3.47952571
              12.18379389                6.48892970               48.74773046                0.00010000               -0.48112292                0.58438377                0.51261889               -1.11724984                1.82937230                2.94436932
              13.17987356                6.35143040               48.63748762                0.00010000               -0.29297503                0.60191908                0.30366566               -1.29205484                1.25505107                2.30342772
              14.17793439                6.21411867               48.52390929                0.00010000               -0.12703317                0.70932498               -0.03711796               -1.34340091                0.93504011                1.60277598
              15.17733290                6.07835552               48.40832437                0.02180584               -0.07575594                0.96184794               -0.40766312               -1.31101611                0.58913425                0.83070542
              16.17641927                5.94580407               48.28980827                0.24147909               -0.13260235                1.35302497               -0.74404565               -0.96541617                0.21581765                0.16498569
              17.17468085                5.82087393               48.16895094                0.73300073               -0.17384189                1.58662740               -1.02995267               -0.53358529                0.03966618               -0.51270602
               7.33390831                8.15496020               49.22903721                1.00000000                0.00153368                0.97694654               -0.00932735                0.55231335                0.03924741                6.68134919
               8.33392364                8.01940059               49.10307909                0.38247003               -0.29758903                0.88188776                0.02461099                0.43277073                3.54567698                6.51901844
               9.32795653                7.89680704               49.04723693                0.00010000               -0.77157937                1.00901937                0.88937972               -0.05601109                4.78395260                7.10798695
              10.31849206                7.76235454               48.94379440                0.00010000               -0.80074378                1.03219973                0.95283205               -0.97794331                2.08141108                7.34452584
              11.31194165                7.62997200               48.83536157                0.00010000               -0.56856395                0.36584663                1.05594625               -1.11430231                1.71877505                4.60438659
              12.30712078                7.49361635               48.72621140                0.00010000               -0.44196283                0.27323403                1.00210936               -1.38439531                1.35443819                3.44267440
              13.30310239                7.35608151               48.61041817                0.00010000               -0.34320906                0.29545045                0.76749026               -1.40428036                0.87211605                2.50741697
              14.30025660                7.21976544               48.49155673                0.00010000               -0.25108936                0.40245262                0.46200250               -1.28337863                0.59607346                1.65209647
              15.29808061                7.08605513               48.37063934                0.03638033               -0.21347335                0.58274058                0.15450015               -1.06427989                0.37658483                0.84990026
              16.29598713                6.95630282               48.24787108                0.26767082               -0.20208683                0.79672707               -0.15641750               -0.64770522                0.18349595                0.11943484
              17.29403887                6.83251051               48.12345234                0.75412964               -0.19482588                0.84378121               -0.41817960               -0.35769706                0.08673342               -0.56391726
               7.48074522                9.17461738               49.30248870                0.96541196               -1.57704561                1.34501116                1.94561755                0.41976767                1.13795333               12.84063074
               8.46497477                9.03731141               49.17672485                0.36820600               -1.36510434                1.19899962                1.97982707               -0.20881201                1.15528894               11.61965420
               9.45344314                8.90431820               49.05973196                0.00010000               -1.03797985                0.42241943                2.07022613               -0.57404751                1.56751196                7.60709212
              10.44421517                8.76900066               48.94721727                0.00010000               -0.87474886                0.24825580                2.09227096               -0.94083989                1.30600600                6.05970229
              11.43594816                8.63186854               48.82800247                0.00010000               -0.71093503               -0.04124932                1.88890902               -1.22026735                0.74507679                4.74384662
              12.42999647                8.49439438               48.70652798                0.00010000               -0.51546517               -0.10791364                1.58468253               -1.34785850                0.53188482                3.42464715
              13.42563886                8.35733941               48.58356765                0.00010000               -0.38516363               -0.04017711                1.23459694               -1.29424084                0.40136978                2.41920739
              14.42229320                8.22216773               48.45904312                0.00010000               -0.30644661                0.08565886                0.88283839               -1.09974278                0.28722900                1.57935493
              15.41950992                8.09001033               48.33334826                0.05101386               -0.26417072                0.23620713                0.55531891               -0.80078405                0.18584282                0.84077830
              16.41700978                7.96173861               48.20656953                0.28758952               -0.21992021                0.35570138                0.27077472               -0.41847443                0.08825680                0.16865115
              17.41511152                7.83774956               48.07886814                0.76587886               -0.18982631                0.31846653                0.05045259               -0.20582253                0.04241528               -0.42138410
               7.61691559               10.18186042               49.34375467                0.95551153               -1.68690102                0.02534528                4.11394143               -0.15560731                0.40680174               10.07363791
               8.60004658               10.04338058               49.20372481                0.40306522               -1.60646298               -0.02790878                3.81917632               -0.29213968                0.29383731                8.31317031
               9.58478633                9.90525543               49.07126877                0.00010000               -1.39608306               -0.31782305                3.59602552               -0.54221530                0.37659023                6.61941422
              10.57212492                9.76731965               48.94197357                0.00010000               -1.13218746               -0.47213055                3.23708932               -0.83569091                0.21437335                4.97469846
              11.56214258                9.62914702               48.81302914                0.00010000               -0.87160931               -0.49804560                2.72381072               -1.01947715                0.02012776                3.77345946
              12.55469273                9.49145807               48.68344586                0.00010000               -0.63491764               -0.45023592                2.16237133               -1.07522980               -0.03902640                2.77333788
              13.54944423                9.35527797               48.55401829                0.00010000               -0.45509543               -0.33460515                1.65433210               -0.98896631                0.02233654                1.94094681
              14.54559082                9.22147862               48.42482791                0.00010000               -0.34750935               -0.18939740                1.22552082               -0.78811636                0.07728261                1.26511116
              15.54249404                9.09077927               48.29548998                0.06726472               -0.28562067               -0.04893482                0.87240828               -0.51361319                0.07230273                0.68741086
              16.53987841                8.96341684               48.16558653                0.30449455               -0.22967591                0.03783986                0.59287903               -0.22775931                0.02783633                0.16245842
              17.53790052                8.83887984               48.03517417                0.76979742               -0.19778873               -0.00118062                0.39185197               -0.10370343                0.00769309               -0.32423560
               7.75459276               11.17512428               49.34643041                0.93252578               -1.88557916               -1.13016413                5.98550688               -0.11299651                0.35932989                5.85273982
               8.73573696               11.03675324               49.19883373                0.45118924               -1.79664984               -1.03656070                5.34070593               -0.22057769                0.04337467                4.69702693
               9.71865976               10.89796174               49.05803685                0.00010000               -1.60635997               -1.00477615                4.81797966               -0.34481699               -0.01804693                3.70978932
              10.70360976               10.75955805               48.92110505                0.00010000               -1.36197822               -0.95664316                4.16443969               -0.47796136               -0.22844647                2.85217601
              11.69142019               10.62190763               48.78564872                0.00010000               -1.06244225               -0.84363242                3.37372194               -0.57798651               -0.34802782                2.12947147
              12.68236092               10.48538966               48.65133095                0.00010000               -0.77906047               -0.68884930                2.60805580               -0.59893376               -0.26754262                1.55551357
              13.67583898               10.35064731               48.51843205                0.00010000               -0.56656750               -0.52310557                1.97026533               -0.53897227               -0.07778825                1.09218472
              14.67102957               10.21837978               48.38681169                0.00010000               -0.42697741               -0.36452980                1.47304012               -0.40905034                0.07968724                0.71371284
              15.66729944               10.08903163               48.25574145                0.09495750               -0.33377702               -0.23349309                1.08936742               -0.23745126                0.12639809                0.39256315
              16.66435403                9.96249541               48.12430216                0.33025422               -0.25939890               -0.15389087                0.80393254               -0.08123572                0.07315192                0.09975092
              17.66211146                9.83772595               47.99198026                0.76201701               -0.22425706               -0.15492121                0.61875523               -0.03090819                0.03194736               -0.23191613
               7.89139775               12.15925714               49.30209182                0.97470564               -1.86001831               -1.58671461                6.39637475                0.01972269                0.88102220                2.97955599
               8.87279757               12.02264937               49.15306838                0.77410762               -1.81562859               -1.41038701                5.66700216                0.00119906                0.58796294                2.21733784
               9.85508518               11.88515991               49.01301359                0.46772930               -1.70888831               -1.28018328                5.16496393               -0.08058659                0.47910306                1.72414789
              10.83861980               11.74818679               48.87620989                0.36912050               -1.51669721               -1.13712564                4.47767547               -0.14327296                0.10718060                1.31103578
              11.82475124               11.61227437               48.74067515                0.35988031               -1.23227145               -0.96332580                3.62882457               -0.19218077               -0.08742285                0.98260504
              12.81397437               11.47768109               48.60644926                0.36830360               -0.95382860               -0.77085711                2.80842136               -0.21157993               -0.00481384                0.71645667
              13.80567466               11.34481586               48.47400784                0.39383946               -0.74744398               -0.58314495                2.13188419               -0.19108524                0.21694822                0.50166144
              14.79902549               11.21418802               48.34315584                0.44104917               -0.60226387               -0.41917539                1.60591794               -0.13572995                0.39802523                0.32462387
              15.79362939               11.08610941               48.21302258                0.56861720               -0.47330558               -0.29222212                1.19825258               -0.05945481                0.44411380                0.17397004
              16.78955938               10.96033903               48.08246502                0.68791494               -0.34040522               -0.21563804                0.89347956                0.00413567                0.32159033                0.03677266
              17.78682128               10.83578142               47.94996380                0.87978874               -0.27381002               -0.19445289                0.70744677                0.01522141                0.21197844               -0.17595681
               6.63726407                2.22260623               50.57276100                1.00000000               -0.28116038               -0.25277317                0.92389622               -0.03815854               -0.42926134                0.29888145
               7.63445246                2.08447608               50.45224393                1.00000000               -0.29171869               -0.21157425                0.81288677               -0.01596909               -0.67244071                0.06706487
               8.63142969                1.94592984               50.32757790                1.00000000               -0.32110017               -0.17240818                0.76462499               -0.01575912               -0.90731614               -0.01648175
               9.62803046                1.80657889               50.20241743                0.69203194               -0.33849456               -0.12975182                0.69078403               -0.02417410               -0.83643275               -0.06380953
              10.62465980                1.66608764               50.07862117                0.73935247               -0.30405135               -0.07955423                0.54453077               -0.03525567               -0.62321436               -0.07597415
              11.62194943                1.52435710               49.95693997                0.74794450               -0.21251639               -0.02222084                0.32029200               -0.03892002               -0.39051975               -0.06197381
              12.62040947                1.38156282               49.83726960                0.62988977               -0.08738425                0.03989077                0.04830434               -0.03115480               -0.20847404               -0.03709090
              13.62020175                1.23802380               49.71918141                0.45493511                0.03782003                0.10227286               -0.23154454               -0.01671843               -0.08411179               -0.01170199
              14.62116588                1.09402155               49.60210119                0.39952652                0.13651625                0.16000572               -0.47975600               -0.00654719               -0.02178377                0.01338378
              15.62293207                0.94971437               49.48523910                1.00000000                0.20204101                0.22154228               -0.67978463               -0.00792020               -0.01213426                0.02852239
              16.62520670                0.80504239               49.36816837                1.00000000                0.22746222                0.29514439               -0.84216325               -0.00647525               -0.02814389               -0.04047661
               6.77501263                3.22007850               50.51403619                1.00000000               -0.23816651               -0.22921483                0.79632632               -0.00898730               -0.18959246                0.37231738
               7.77263097                3.08236034               50.39364678                1.00000000               -0.23959696               -0.19361946                0.68229273                0.01530885               -0.35218582                0.09532570
               8.77022069                2.94420576               50.27064963                1.00000000               -0.24605753               -0.15630083                0.61044869                0.01460662               -0.49839375               -0.03961426
               9.76770982                2.80528138               50.14745553                0.47364244               -0.24012756               -0.11543292                0.51416280                0.00287664               -0.41934177               -0.10268352
              10.76541814                2.66529210               50.02572253                0.57795485               -0.19435860               -0.06341633                0.34973917               -0.01049608               -0.22138886               -0.11273240
              11.76382265                2.52413489               49.90603222                0.59979715               -0.10767824               -0.00229912                0.11799432               -0.01527377               -0.01357535               -0.07975383
              12.76326458                2.38196172               49.78825514                0.42187091               -0.00087241                0.06112209               -0.14276715               -0.00297415                0.14781865               -0.04126469
              13.76380520                2.23904653               49.67194347                0.18599788                0.09952705                0.12252785               -0.39143441                0.01585020                0.24843894               -0.00165330
              14.76525512                2.09562161               49.55650705                0.25470186                0.17686266                0.17703723               -0.59595917                0.03517786                0.27191337                0.02912482
              15.76734245                1.95192979               49.44103208                1.00000000                0.22793997                0.23220166               -0.76294358                0.04844297                0.19432073                0.04611751
              16.76981392                1.80799383               49.32432601                1.00000000                0.24714677                0.31466100               -0.93442237                0.04420653                0.11807086               -0.00146629
               6.91252065                4.21802193               50.45773596                1.00000000               -0.18892639               -0.18295795                0.63845515               -0.00205154               -0.10958996                0.47129317
               7.91063138                4.08060369               50.33612667                1.00000000               -0.18599303               -0.15581564                0.54062416                0.02847949               -0.19462857                0.14456754
               8.90880078                3.94280382               50.21341640                0.81889126               -0.18148656               -0.12338058                0.46790154                0.02987966               -0.21193180               -0.07861036
               9.90700165                3.80427024               50.09163313                0.00010000               -0.16022099               -0.08547954                0.36240456                0.01748145               -0.05384858               -0.19485240
              10.90559637                3.66481931               49.97187092                0.00010000               -0.10136587               -0.02730979                0.17866304               -0.00628370                0.18578718               -0.10947702
              11.90497433                3.52431112               49.85445691                0.00010000               -0.00790038                0.03689523               -0.07756421               -0.01458634                0.39781872               -0.07724270
              12.90543836                3.38278526               49.73879242                0.00010000                0.09422683                0.10288760               -0.34493697               -0.00399197                0.54410803               -0.03716437
              13.90685887                3.24047435               49.62452689                0.00010000                0.17739061                0.16213052               -0.56380590                0.01345933                0.62463417                0.00185619
              14.90898617                3.09756229               49.51100304                0.17565989                0.23349174                0.20960867               -0.72369831                0.04045306                0.60912602                0.02964633
              15.91152870                2.95435840               49.39743627                1.00000000                0.24882824                0.24259058               -0.82177931                0.09815818                0.42487340                0.04960834
              16.91396273                2.81133561               49.28163274                1.00000000                0.24340301                0.28149889               -0.84288968                0.11898180                0.25511544                0.07225060
               7.04980809                5.21641934               50.40176568                1.00000000               -0.13894213               -0.13914364                0.47969454               -0.00257241               -0.05727299                0.43319627
               8.04841867                5.07924402               50.27883938                0.90399009               -0.13281752               -0.11610173                0.39632849                0.02988544               -0.09852814                0.12989101
               9.04715174                4.94173814               50.15558452                0.29927825               -0.11873577               -0.08987148                0.32575813                0.03659714               -0.01671433               -0.10774873
              10.04604395                4.80357179               50.03438394                0.00010000               -0.09500763               -0.05540248                0.21560961                0.03958866                0.36231552               -0.38984181
              11.04525159                4.66474590               49.91842442                0.00010000               -0.02394889                0.30751817                0.00538117               -0.01343985                0.66630111                0.61538546
              12.04556498                4.52487280               49.80297113                0.00010000                0.08849576                0.49030767               -0.27031445               -0.27963356                0.77940803                1.14579159
              13.04702150                4.38401948               49.68927238                0.00010000                0.18661863                0.56016396               -0.54130094               -0.50768033                0.92326273                1.21744944
              14.04929735                4.24228914               49.57690842                0.00010000                0.25793168                0.62824731               -0.73284923               -0.67787137                0.99335243                1.08762425
              15.05218014                4.09981378               49.46523013                0.00010000                0.31174746                0.73378006               -0.86410525               -0.81324344                0.96758799                0.83380985
              16.05553230                3.95678160               49.35381830                0.20051019                0.30294979                0.89362929               -0.89016714               -0.96330432                0.73399808                0.47560360
              17.05823913                3.81362381               49.23988311                0.69392004                0.27068341                1.45871025               -0.43044821               -1.29779822                0.34200465                0.04693645
               7.18681983                6.21523906               50.34531798                1.00000000               -0.09095451               -0.09592239                0.32717308               -0.00761548               -0.00963891                0.33171184
               8.18591028                6.07828165               50.22121088                0.57716200               -0.08074322               -0.07637329                0.25456191                0.02101457               -0.00875962                0.06758269
               9.18520496                5.94100639               50.09741160                0.09594321               -0.05623093               -0.05337149                0.18171894                0.02382577                0.02646432               -0.11392656
              10.18478567                5.80316219               49.97387247                0.00010000               -0.05892037               -0.01812730                0.08572745                0.33102863                1.45321864               -0.41895670
              11.18402656                5.67096968               49.87815423                0.00010000               -0.23387880                0.80331135                0.02785622                0.01774844                2.52202968                2.28068648
              12.18010809                5.53411727               49.77499062                0.00010000               -0.30790729                0.90073708               -0.03489389               -0.68012241                1.78005972                2.75824285
              13.17786841                5.39398854               49.66423962                0.00010000               -0.13004754                0.93086645               -0.20134591               -1.14107393                1.26774835                2.61196602
              14.17750714                5.25303930               49.55080275                0.00010000                0.01802129                0.99995846               -0.44722234               -1.39647983                1.01093530                2.16099861
              15.17822884                5.11223789               49.43572341                0.00010000                0.04727236                1.17610404               -0.70205452               -1.56034338                0.73236254                1.56102508
              16.17845259                4.97223098               49.31878628                0.19260521               -0.19532453                1.56643447               -0.91983673               -1.37339561                0.37402994                0.86523587
              17.17432235                4.84050981               49.19925558                0.68788966               -0.41302394                2.34335068               -1.32198191               -1.21698165                0.18663339                0.13126713
               7.32357059                7.21450089               50.28786402                1.00000000               -0.04989638               -0.05334630                0.18141452               -0.01424911                0.03293995                0.20041532
               8.32307163                7.07771656               50.16276898                0.43270487               -0.04114345               -0.03692406                0.11657559                0.01789750                0.10051666               -0.03661196
               9.32274772                6.94067072               50.03913294                0.01873242               -0.01851940                0.85751879                0.04435695               -0.21639183                0.18837258                3.65895243
              10.32270124                6.80320924               49.91523645                0.00010000               -0.40481257                0.93521786               -0.07961675                0.02931066                3.38088424                4.56895583
              11.31465147                6.68081213               49.85455040                0.00010000               -0.68787857                0.83513758                0.38806142               -0.30475597                4.45405455                4.08219351
              12.30894367                6.54288754               49.75216138                0.00010000               -0.46867384                0.73561010                0.41156144               -1.22724779                1.91833747                3.50850897
              13.30527799                6.40263680               49.64024251                0.00010000               -0.29126372                0.70555588                0.27078541               -1.42514034                1.23233741                2.85050307
              14.30311839                6.26228831               49.52369918                0.00010000               -0.17482053                0.77451828                0.01426195               -1.48163074                0.85082503                2.12815583
              15.30178158                6.12333586               49.40449301                0.01772904               -0.16629647                0.96760549               -0.29357903               -1.38080350                0.53008285                1.37706055
              16.29979246                5.98811029               49.28281117                0.22970370               -0.22198733                1.33005767               -0.59712695               -0.94556647                0.21690334                0.67423560
              17.29734184                5.86049083               49.15898353                0.71906469               -0.24506274                1.57481368               -0.89628984               -0.46560605                0.06186068                0.01636821
               7.46010351                8.21417213               50.22927788                0.99237840               -0.00051051                1.69495034                0.04644669                1.08956338                0.03446112                7.68782106
               8.46009841                8.07754317               50.10306048                0.36766045               -0.23595345                1.37527544               -0.02136736                0.98507490                3.99812286                7.58864555
               9.45538445                7.95815677               50.05614972                0.00010000               -0.74339728                1.47412305                0.75183828                0.30112711                5.38126720                8.34345760
              10.44523046                7.82186654               49.95413354                0.00010000               -0.85656529                1.42263638                1.01980515               -0.97854222                2.29614028                8.70668400
              11.43825314                7.68767243               49.84604931                0.00010000               -0.57460022                0.51152039                1.09360344               -1.17660377                1.84987867                5.48383101
              12.43373846                7.54882947               49.73628486                0.00010000               -0.41441511                0.36035942                1.02427865               -1.52700419                1.38229839                4.07612030
              13.42996484                7.40809965               49.61817009                0.00010000               -0.32814954                0.34644087                0.79854469               -1.57514734                0.81802918                3.00411327
              14.42717547                7.26852967               49.49631844                0.00010000               -0.25870271                0.43816728                0.51025009               -1.42496350                0.53722383                2.09757888
              15.42479078                7.13159000               49.37225114                0.03488404               -0.23945886                0.62042328                0.19897815               -1.14744234                0.32356906                1.28962803
              16.42238629                6.99883214               49.24638833                0.26104193               -0.22708149                0.81578593               -0.11119850               -0.66688449                0.13992115                0.58641091
              17.42024915                6.87200609               49.11919192                0.74287674               -0.21371379                0.85759422               -0.41789790               -0.34397833                0.05614227               -0.03205923
               7.61861978                9.24839990               50.32195281                0.95837410               -1.98312888                2.57194574                1.30555200                0.82975022                1.35131475               15.68621155
               8.59878849                9.10522207               50.19692897                0.35511830               -1.70864433                2.07453316                1.72932874                0.12775289                1.49573261               14.15810560
               9.58444689                8.97015318               50.08146167                0.00010000               -1.25868790                0.82910664                2.15249345               -0.42657611                1.91056481                9.56475617
              10.57361473                8.83166197               49.96916136                0.00010000               -1.01452137                0.48215371                2.33030387               -1.03163457                1.40722651                7.56618336
              11.56415647                8.69104254               49.84796367                0.00010000               -0.78191869                0.04694381                2.11506451               -1.40734221                0.60369824                5.78060821
              12.55797636                8.55009473               49.72311381                0.00010000               -0.50408057               -0.10053445                1.72613953               -1.55786055                0.33530054                4.06323018
              13.55407486                8.40956562               49.59640345                0.00010000               -0.34237928               -0.05423815                1.33603795               -1.47521531                0.23565363                2.85031071
              14.55112877                8.27105165               49.46824796                0.00010000               -0.27722949                0.07064568                0.96778561               -1.23254288                0.17036183                1.91951231
              15.54853027                8.13574433               49.33921607                0.05158274               -0.25450419                0.23084480                0.62768000               -0.88906938                0.10854387                1.15945200
              16.54603869                8.00442601               49.20941416                0.28498789               -0.22079480                0.36061230                0.30976050               -0.46815849                0.04361205                0.51219996
              17.54411437                7.87764271               49.07911074                0.75661750               -0.19243213                0.35359802                0.01371137               -0.23171702                0.01289324               -0.03677287
               7.76305418               10.26561105               50.38881751                0.94986294               -2.21539941                0.58641387                4.72620438               -0.11474362                0.55187120               13.81702680
               8.74090019               10.11903384               50.24575555                0.38931019               -2.13205803                0.38103241                4.55460377               -0.33882786                0.45251364               11.20462434
               9.72041302                9.97473890               50.11122088                0.00010000               -1.85958888               -0.18488090                4.55367481               -0.66842158                0.32464565                8.82873222
              10.70370841                9.83150962               49.97784792                0.00010000               -1.43697427               -0.47632042                4.04527151               -1.10408206               -0.23344592                6.51890809
              11.69167354                9.68861131               49.84267409                0.00010000               -0.98251231               -0.56264136                3.21385184               -1.31018749               -0.56974099                4.73168627
              12.68405816                9.54681878               49.70653467                0.00010000               -0.60849648               -0.53606335                2.43479449               -1.31180509               -0.52469595                3.32334520
              13.67950361                9.40701489               49.57147142                0.00010000               -0.38561285               -0.41438503                1.82542657               -1.16131206               -0.29906056                2.26970304
              14.67634591                9.26994258               49.43771777                0.00010000               -0.29342840               -0.25179220                1.35393530               -0.90725498               -0.11852531                1.49937068
              15.67363504                9.13620690               49.30465566                0.06882991               -0.26105850               -0.09081691                0.96904221               -0.59603929               -0.04083037                0.89942501
              16.67112474                9.00604438               49.17171322                0.30537595               -0.22268148                0.02470714                0.64323358               -0.27537283               -0.02359301                0.39386481
              17.66918141                8.87907805               49.03887653                0.76222333               -0.19433283                0.01860796                0.35975615               -0.13099434               -0.01981194               -0.05437268
               7.90947933               11.26012817               50.41559124                0.92475903               -2.65952503               -1.38304762                8.21805346               -0.14312861                0.52441859                8.56910065
               8.88288408               11.11284271               50.26034268                0.43533577               -2.54383260               -1.27817087                7.37885980               -0.37706621                0.02533081                6.69359534
               9.85860268               10.96645556               50.11352779                0.00010000               -2.26116975               -1.29393582                6.71170560               -0.54268814               -0.47242661                5.17755155
              10.83766069               10.82213556               49.96848854                0.00010000               -1.79795650               -1.23800802                5.54454829               -0.70449061               -1.14537523                3.84501524
              11.82264355               10.67978971               49.82311743                0.00010000               -1.21620072               -1.07355668                4.16155366               -0.78937170               -1.34775463                2.72830162
              12.81333667               10.53937346               49.67957536                0.00010000               -0.74593661               -0.86571433                3.00454398               -0.76260899               -1.01241355                1.88171487
              13.80772482               10.40127792               49.53941931                0.00010000               -0.47725035               -0.65599188                2.20610668               -0.64934456               -0.53418214                1.27162975
              14.80379167               10.26601581               49.40242066                0.00010000               -0.36085717               -0.46091466                1.64665860               -0.48243939               -0.18758850                0.83280972
              15.80050768               10.13392799               49.26726551                0.09680329               -0.30657903               -0.29571436                1.22027044               -0.28689235               -0.02667370                0.49871155
              16.79766009               10.00492015               49.13268696                0.33561756               -0.25402613               -0.18224273                0.88159701               -0.10839392                0.00267354                0.21742378
              17.79542715                9.87801487               48.99804903                0.75672500               -0.22329329               -0.15250268                0.60803915               -0.05009506               -0.00516416               -0.08417422
               8.05476253               12.23795010               50.37779237                0.97005293               -2.77310514               -2.21780786                9.30868943                0.08035220                1.42029974                4.53875528
               9.02703148               12.09347042               50.21986612                0.76548692               -2.72480590               -1.93722951                8.32638352               -0.03975577                0.84083127                3.18152629
              10.00026641               11.94886018               50.07364426                0.46489920               -2.53735173               -1.75953740                7.58721173               -0.16967471                0.12730862                2.39256860
              10.97628445               11.80674946               49.92791670                0.36899583               -2.08091062               -1.53861011                6.20163990               -0.22362476               -0.89394884                1.78349835
              11.95864820               11.66714017               49.78142805                0.35997847               -1.44833359               -1.26495386                4.58936662               -0.26178289               -1.19647439                1.28174148
              12.94731777               11.52950450               49.63712660                0.36805597               -0.93869169               -0.98689617                3.29649145               -0.26414582               -0.81892121                0.88204574
              13.93987437               11.39389505               49.49690093                0.39279357               -0.66353603               -0.73828676                2.42898610               -0.22405562               -0.28588977                0.58949722
              14.93404705               11.26072429               49.36033250                0.43549862               -0.54407599               -0.52915206                1.82892692               -0.15458328                0.08797641                0.38342693
              15.92899285               11.13029261               49.22585869                0.57001995               -0.45885381               -0.36353742                1.37360407               -0.06772054                0.24790464                0.22564407
              16.92486998               11.00239953               49.09197343                0.69251803               -0.35013885               -0.25206212                1.01442583                0.00775831                0.21759907                0.09418760
              17.92199007               10.87602800               48.95714329                0.87789286               -0.28799062               -0.19868734                0.73909892                0.01913848                0.15125713               -0.09692065
               6.75447326                2.28473929               51.58283831                1.00000000               -0.31147018               -0.29429567                1.06911261               -0.05286230               -0.35443964                0.25689630
               7.75135855                2.14436705               51.46082700                1.00000000               -0.30839135               -0.23492648                0.89447981               -0.02991027               -0.55551194                0.06112588
               8.74830543                2.00352025               51.33532408                1.00000000               -0.31166853               -0.18117010                0.78594629               -0.03146503               -0.76559232               -0.00721245
               9.74512518                1.86190837               51.20919271                0.68617984               -0.31229725               -0.12851521                0.67230867               -0.03674672               -0.74087171               -0.04519182
              10.74205948                1.71932311               51.08386579                0.72331639               -0.28039069               -0.07245270                0.51536907               -0.04100435               -0.60742426               -0.05864773
              11.73951737                1.57569044               50.95998997                0.71837617               -0.20728995               -0.00917647                0.30378495               -0.03871113               -0.45472623               -0.05574312
              12.73791368                1.43109872               50.83763299                0.57674710               -0.09588712                0.05633166                0.04704196               -0.02534558               -0.33073983               -0.04589096
              13.73759963                1.28583113               50.71669740                0.33587660                0.03226313                0.12388914               -0.24644363               -0.00710272               -0.23271640               -0.02992420
              14.73855895                1.14025776               50.59711950                0.12922770                0.14361167                0.17503599               -0.52411042                0.00054728               -0.13051179               -0.00137510
              15.74047186                0.99456511               50.47843269                1.00000000                0.20630547                0.19532922               -0.69750737               -0.00772598               -0.06043331                0.01746031
              16.74268506                0.84870865               50.36005277                1.00000000                0.22131963                0.25179999               -0.78173178                0.00637790               -0.03378072               -0.09008052
               6.89431687                3.28179633               51.52274143                1.00000000               -0.26478985               -0.26696969                0.92366287               -0.01592834               -0.15100558                0.32785384
               7.89166897                3.14201779               51.40082925                1.00000000               -0.25483744               -0.21296235                0.74617038                0.00659279               -0.28176548                0.08909465
               8.88922012                3.00170855               51.27675675                1.00000000               -0.24063420               -0.15906847                0.61366155               -0.00004011               -0.41071505               -0.02575449
               9.88685629                2.86062322               51.15234461                0.47926175               -0.22308581               -0.10620120                0.47495718               -0.01087741               -0.36873491               -0.07854153
              10.88475840                2.71859858               51.02888604                0.57297828               -0.18069170               -0.04754540                0.29773353               -0.01440570               -0.23026208               -0.09139965
              11.88324245                2.57559867               50.90695276                0.57575550               -0.10842611                0.01733202                0.07537418               -0.00990008               -0.07189185               -0.07606555
              12.88258988                2.43166203               50.78663611                0.36880205               -0.01466885                0.08395616               -0.17503383                0.01168586                0.06640494               -0.05715791
              13.88294908                2.28707002               50.66790137                0.06184127                0.08037745                0.14792056               -0.42478665                0.03312255                0.18071426               -0.02174098
              14.88419743                2.14200812               50.55054763                0.00010000                0.16100416                0.19358235               -0.62074043                0.01364378                0.24220772                0.03688110
              15.88616916                1.99651840               50.43359133                1.00000000                0.22039320                0.20025310               -0.72717518               -0.02028646                0.17007031                0.07023902
              16.88860530                1.85122665               50.31526124                1.00000000                0.24361365                0.25246520               -0.81614504               -0.02498389                0.07311928                0.03602508
               7.03371178                4.27939990               51.46477366                1.00000000               -0.21335850               -0.21367633                0.74993666               -0.00844361               -0.08072294                0.42079912
               8.03157819                4.14010781               51.34180037                1.00000000               -0.20062900               -0.16787491                0.58769634                0.02069274               -0.14353231                0.13412271
               9.02969920                4.00033888               51.21798006                0.82400439               -0.17802954               -0.11603452                0.45080127                0.01571504               -0.15686647               -0.06276073
              10.02801760                3.85978434               51.09482391                0.00010000               -0.14516438               -0.06367599                0.29196442                0.00366331               -0.04048182               -0.16700938
              11.02679591                3.71837220               50.97313448                0.00010000               -0.08808446                0.00306203                0.08860937               -0.01201589                0.13889000               -0.09633369
              12.02625591                3.57603708               50.85327671                0.00010000               -0.00599291                0.07005013               -0.14906837               -0.00864049                0.31358693               -0.07637178
              13.02667605                3.43277784               50.73509140                0.00010000                0.08300366                0.13665126               -0.40636621                0.01583571                0.47524816               -0.05098971
              14.02791599                3.28878954               50.61885563                0.00010000                0.13536960                0.19070095               -0.59858036                0.03622695                0.61999738               -0.00152364
              15.02938345                3.14412941               50.50401796                0.14365821                0.14658106                0.22704616               -0.67561044               -0.01411494                0.66642514                0.05769489
              16.03084761                2.99857017               50.38966617                0.92414342                0.16927191                0.24239550               -0.79433164               -0.06766831                0.58576290                0.10957644
              17.03276888                2.85375795               50.27426952                1.00000000                0.19212750                0.16347460               -0.87762300               -0.24852855                0.51662140                0.51942571
               7.17273218                5.27752281               51.40712218                1.00000000               -0.15883367               -0.16518345                0.57440053               -0.00532126               -0.03496698                0.39103681
               8.17114384                5.13866029               51.28297555                0.87585907               -0.14371473               -0.12287018                0.42657527                0.02928647               -0.06054846                0.12000132
               9.16985788                4.99938786               51.15863996                0.28632372               -0.11238038               -0.07750520                0.29360473                0.03149894                0.01275184               -0.09923677
              10.16889623                4.85934970               51.03599106                0.00010000               -0.07962660               -0.03012901                0.12328418                0.03768274                0.33076517               -0.35728787
              11.16826535                4.71865982               50.91779564                0.00010000               -0.01161159                0.40030752               -0.12110576                0.01677156                0.57522579                0.71106922
              12.16866400                4.57699968               50.79973522                0.00010000                0.09443908                0.59330980               -0.37558972               -0.23301513                0.67891070                1.34924127
              13.17015413                4.43439506               50.68354396                0.00010000                0.18290207                0.62672430               -0.63553567               -0.45581921                0.87964267                1.49193635
              14.17232204                4.29088404               50.56965234                0.00010000                0.19901858                0.66093088               -0.77094185               -0.64886808                1.07859865                1.35279505
              15.17413451                4.14654905               50.45700706                0.00010000                0.14326048                0.73231950               -0.68712092               -0.81255699                1.13686343                1.02713563
              16.17518725                4.00136631               50.34556957                0.15846516               -0.04376725                0.94919984               -0.89969249               -1.05691105                1.33247669                0.58559209
              17.17325916                3.85449614               50.24004199                0.65797089               -0.19280930                1.52724654               -0.94260566               -1.44324263                1.24957490                0.84173342
               7.31133039                6.27609623               51.34903859                1.00000000               -0.10315156               -0.11979749                0.40259070               -0.00976035                0.00794827                0.30058767
               8.31029887                6.13765040               51.22382139                0.55083518               -0.08453076               -0.07842401                0.26685411                0.02281559                0.01726571                0.05858968
               9.30963977                5.99878878               51.09897431                0.08376058               -0.03997882               -0.04045594                0.13682816                0.02453796                0.04511143               -0.11069198
              10.30949930                5.85918176               50.97419180                0.00010000               -0.00792050                0.00625073               -0.01449406                0.39162858                1.46790573               -0.40258803
              11.30948136                5.72637835               50.87739586                0.00010000               -0.18194610                0.98202865               -0.36975777                0.10541685                2.64028611                2.71374838
              12.30586037                5.58790327               50.77382823                0.00010000               -0.29030291                1.04029821               -0.18825643               -0.66307521                2.00005302                3.22764085
              13.30367530                5.44531233               50.66198647                0.00010000               -0.15378681                1.00574695               -0.20191277               -1.15333680                1.33365013                3.18874425
              14.30278464                5.30200816               50.54687603                0.00010000               -0.05126336                1.01410299               -0.35587326               -1.40790883                1.03870414                2.69178131
              15.30265004                5.15877580               50.42997504                0.00010000               -0.05111706                1.14099767               -0.47846783               -1.48829710                0.75850366                1.91851789
              16.30176230                5.01755417               50.31085487                0.16944209               -0.25028327                1.51602145               -0.66329824               -1.16966818                0.19903612                1.16188665
              17.29764437                4.88430288               50.18591676                0.66754188               -0.41179245                2.33844096               -0.99116889               -0.80941897                0.00113808                0.01058930
               7.44942862                7.27512686               51.29001648                1.00000000               -0.05210173               -0.07342024                0.23705056               -0.01840819                0.04352824                0.18153322
               8.44890760                7.13709181               51.16385815                0.41298754               -0.03056699               -0.03184487                0.10375525                0.00836369                0.11691621               -0.04571430
               9.44881728                6.99857874               51.03919279                0.00834367                0.01158141                1.12793461               -0.01938494               -0.13740295                0.18598948                4.03799095
              10.44913923                6.85947471               50.91400359                0.00010000               -0.35825521                1.16907740               -0.17198194                0.23688125                3.65369195                5.21284629
              11.44165218                6.73830039               50.85800732                0.00010000               -0.63353556                0.99285025                0.32429941               -0.21812627                4.90642296                4.80166465
              12.43646852                6.59780564               50.75596169                0.00010000               -0.43348325                0.81415288                0.37279014               -1.35024011                2.12757856                4.13410555
              13.43298251                6.45451000               50.64290333                0.00010000               -0.28840648                0.73452562                0.30427923               -1.54427244                1.33287887                3.43513475
              14.43070039                6.31116610               50.52419453                0.00010000               -0.20799782                0.75800387                0.11086629               -1.55028089                0.90045444                2.66661439
              15.42882256                6.16936900               50.40245279                0.01282826               -0.22167913                0.91744123               -0.12886295               -1.38236507                0.56414943                1.86412215
              16.42626681                6.03168674               50.27786573                0.21560775               -0.26246038                1.19369391               -0.39203605               -0.90107856                0.26799439                1.09414023
              17.42357335                5.90126496               50.15102514                0.70388064               -0.26934605                1.37196162               -0.72312193               -0.44667069                0.12771507                0.49971607
               7.58703232                8.27462782               51.22996614                0.98244176               -0.00180551                2.68375629                0.08237723                1.65809725                0.03050633                8.04813417
               8.58701426                8.13701350               51.10265174                0.35235658               -0.12617526                2.03433227               -0.05803046                1.65963024                4.37796143                8.39678302
               9.58450881                8.02134747               51.06227369                0.00010000               -0.62494983                2.09817076                0.28382049                0.80772844                6.15443747                9.40514283
              10.57451527                7.88256331               50.96419050                0.00010000               -0.88604530                1.85676159                0.99112091               -0.91968218                2.82452550               10.07374087
              11.56678791                7.74623535               50.85723364                0.00010000               -0.59346495                0.62777648                1.15400567               -1.29797401                2.12651520                6.42991533
              12.56264597                7.60418633               50.74669697                0.00010000               -0.36792562                0.38017632                1.08084711               -1.72191716                1.52229412                4.74125253
              13.55942940                7.46000284               50.62638906                0.00010000               -0.28629755                0.32671462                0.87731593               -1.73914181                0.88434621                3.52001165
              14.55692002                7.31716824               50.50176173                0.00010000               -0.24736486                0.39962686                0.61705487               -1.53453948                0.57827778                2.55009064
              15.55448210                7.17712463               50.37461890                0.03325257               -0.25376244                0.57129230                0.31758014               -1.20240750                0.36123848                1.71057090
              16.55184477                7.04142804               50.24564711                0.25315711               -0.24637898                0.74854909               -0.00714409               -0.68309841                0.16995837                0.98818031
              17.54955452                6.91174211               50.11509438                0.73072479               -0.22902496                0.80322704               -0.37286711               -0.34844888                0.07503424                0.36114816
               7.75781920                9.32880198               51.32859974                0.95124704               -2.24386392                4.49673544               -1.80270641                1.24987718                0.87383170               18.88052494
               8.73538056                9.17777846               51.21131142                0.34144170               -1.91985791                3.35229264               -0.39450244                0.57096906                2.75619103               17.33119404
               9.71942204                9.04054215               51.10278183                0.00010000               -1.47614300                1.42082409                2.02752381               -0.32452267                3.17392708               12.03300546
              10.70585770                8.89660994               50.99382335                0.00010000               -1.26761836                0.79036617                2.65568122               -1.40993520                1.65883752                9.46824232
              11.69406968                8.75085592               50.87030376                0.00010000               -0.87975044                0.11958124                2.29574586               -1.79638355                0.52153212                6.91768957
              12.68826269                8.60540917               50.74105077                0.00010000               -0.44259524               -0.13614520                1.86100144               -1.85280608                0.23497129                4.70996721
              13.68521777                8.46104429               50.61028841                0.00010000               -0.26874397               -0.11733301                1.45770781               -1.67000038                0.20168521                3.26892175
              14.68288782                8.31915864               50.47839884                0.00010000               -0.23515867                0.00625498                1.09107989               -1.35666913                0.17156663                2.24866907
              15.68051460                8.18079485               50.34590186                0.05284384               -0.24502310                0.17968526                0.73878942               -0.96505129                0.12356218                1.46510722
              16.67798735                8.04665772               50.21276474                0.28216167               -0.22691841                0.32966496                0.38566743               -0.50622145                0.05741305                0.82484879
              17.67597623                7.91732950               50.07914236                0.74658627               -0.20111223                0.35559943                0.01639694               -0.25166489                0.01867698                0.30395783
               7.91407692               10.36456253               51.43827876                0.94392797               -2.73834447                1.43647262                5.19944600               -0.16236555                1.00489596               19.27189968
               8.88669347               10.20405936               51.29481688                0.37513492               -2.74450218                0.93680599                5.58455965               -0.59360603                0.90122953               15.62759800
               9.85918687               10.04976395               51.16234227                0.00010000               -2.53453392               -0.07263802                5.99909133               -1.20226999                0.19754293               12.21699832
              10.83600279                9.89837063               51.02287900                0.00010000               -1.85629308               -0.51101847                4.97615095               -1.79410260               -1.03061033                8.67147398
              11.82206101                9.74862698               50.87730618                0.00010000               -1.03006573               -0.65681121                3.63627622               -1.87993008               -1.35392469                5.83152000
              12.81540148                9.60146343               50.73214175                0.00010000               -0.48905479               -0.64885692                2.64301254               -1.67113626               -0.96752725                3.86619476
              13.81227992                9.45765618               50.59052683                0.00010000               -0.26827009               -0.51969463                1.98594955               -1.35389130               -0.48559319                2.56441684
              14.81003608                9.31729334               50.45190662                0.00010000               -0.22989631               -0.33686971                1.50149076               -1.01970348               -0.18504368                1.70934329
              15.80768199                9.18071833               50.31487083                0.07229599               -0.24251954               -0.14960050                1.09393679               -0.66434656               -0.05931560                1.09032159
              16.80518569                9.04802134               50.17845120                0.30696992               -0.22521636               -0.00370270                0.72395924               -0.31137976               -0.02293819                0.60268633
              17.80317766                8.91885410               50.04236929                0.75419139               -0.20080241                0.02230975                0.36399693               -0.15133323               -0.02123667                0.18932848
               8.07557824               11.35753144               51.51079147                0.91662795               -3.72712155               -1.94662741               11.19844969               -0.02272012                1.17281034               12.41292389
               9.03830702               11.19651458               51.34641092                0.41856973               -3.72564360               -1.84131745               10.68685569               -0.56866070                0.13720994                9.50118420
              10.00106537               11.03908939               51.19227096                0.00010000               -3.35972008               -1.84928048                9.89524491               -0.98655516               -1.42546128                7.35023463
              10.97111262               10.88638957               51.03199602                0.00010000               -2.38435425               -1.66851022                7.45680076               -1.22077268               -3.06645559                5.27339150
              11.95337828               10.73771970               50.86887979                0.00010000               -1.26509259               -1.36695124                4.83120593               -1.22033543               -2.89059979                3.43878928
              12.94581077               10.59243203               50.71142183                0.00010000               -0.55341221               -1.06219568                3.27393172               -1.01738562               -1.79252607                2.19183526
              13.94231004               10.45065040               50.56255419                0.00010000               -0.31895889               -0.80068121                2.41363201               -0.77698662               -0.85852605                1.42289980
              14.93943159               10.31242124               50.41974486                0.00010000               -0.29051889               -0.56302285                1.82771509               -0.55281877               -0.32312972                0.93373768
              15.93649966               10.17780284               50.28014686                0.10247380               -0.29038031               -0.36411976                1.37066105               -0.32865097               -0.08782058                0.58943612
              16.93362399               10.04658367               50.14193410                0.34281249               -0.26078067               -0.21857538                0.98329072               -0.12930346               -0.01729022                0.32092254
              17.93128405                9.91777569               50.00414104                0.75127441               -0.23399394               -0.15998182                0.63533720               -0.06434517               -0.01722917                0.04935100
               8.23565624               12.32562998               51.48826561                0.96500958               -4.18939358               -3.19014522               12.95866732                0.16810212                2.78174749                6.81364901
               9.19376230               12.16723301               51.31959605                0.75581071               -4.30377311               -2.92815665               12.67277941               -0.09705457                1.44174156                4.55592423
              10.14958077               12.01277834               51.16475782                0.46223863               -4.04026319               -2.63110537               11.80359206               -0.26008834               -1.04974513                3.39577398
              11.11295704               11.86500043               51.00024269                0.36893726               -2.89844626               -2.13891420                8.54865135               -0.39007797               -3.30595598                2.44996726
              12.09161185               11.72128795               50.83246248                0.36004320               -1.54169835               -1.64317447                5.41883208               -0.41568926               -3.03636064                1.67246608
              13.08212307               11.58021951               50.67237909                0.36783439               -0.74304399               -1.22125137                3.65481977               -0.35104020               -1.72756467                1.03964149
              14.07675097               11.44164255               50.52258756                0.39177994               -0.51479027               -0.90078434                2.69967293               -0.26523877               -0.67652898                0.67479948
              15.07182726               11.30603288               50.37973437                0.43160614               -0.49022100               -0.63883646                2.06140355               -0.17076385               -0.10113692                0.43681432
              16.06694655               11.17343594               50.24049466                0.57385791               -0.46002513               -0.43669007                1.56597468               -0.07446339                0.13733752                0.27163609
              17.06262676               11.04364984               50.10275354                0.69826872               -0.37199224               -0.29338302                1.15196841                0.01120395                0.16161651                0.14417024
              18.05950670               10.91565447               49.96474578                0.87596406               -0.31200572               -0.21212273                0.80164628                0.02272872                0.11579831               -0.02883496
               6.87419788                2.34793790               52.59414325                1.00000000               -0.33414317               -0.32376788                1.17241210               -0.06247753               -0.28655449                0.21931822
               7.87085645                2.20569411               52.47013353                1.00000000               -0.32228705               -0.25252440                0.95664044               -0.03849247               -0.44667254                0.05595056
               8.86775214                2.06292026               52.34329683                1.00000000               -0.30925623               -0.18855637                0.80616910               -0.04225344               -0.62245271                0.00005103
               9.86467132                1.91937126               52.21586360                0.68015464               -0.30190379               -0.12919102                0.66452508               -0.04885331               -0.61972096               -0.03017272
              10.86171406                1.77487418               52.08892855                0.70562950               -0.27918090               -0.06787643                0.50264390               -0.05366068               -0.53561211               -0.04190430
              11.85908770                1.62931666               51.96301567                0.68407489               -0.23134069                0.00101853                0.30996635               -0.05706702               -0.43811748               -0.04715976
              12.85708725                1.48263876               51.83821044                0.51589163               -0.15133988                0.07213971                0.08542956               -0.05928267               -0.38663017               -0.04862090
              13.85606091                1.33501737               51.71425254                0.21317323               -0.01334482                0.14361020               -0.17281617               -0.03034223               -0.37512600               -0.03566553
              14.85682035                1.18713780               51.59161898                0.00010000                0.13646155                0.23229691               -0.52527809               -0.00465737               -0.34563187               -0.02502038
              15.85879014                1.03974629               51.47128896                1.00000000                0.22352775                0.23547909               -0.79304087                0.00831249               -0.12768392                0.00994381
              16.86129091                0.89282385               51.35253373                1.00000000                0.25007688                0.16737471               -0.67922260               -0.02768759               -0.05151312               -0.07759508
               7.01581689                3.34470022               52.53250944                1.00000000               -0.28365514               -0.29403636                1.01242124               -0.02039105               -0.11648393                0.28796346
               8.01298034                3.20316886               52.40857019                1.00000000               -0.26629333               -0.22771335                0.79387962                0.00161828               -0.21731860                0.08499901
               9.01049103                3.06103469               52.28292287                1.00000000               -0.23872573               -0.16274324                0.61984614               -0.01008696               -0.32184696               -0.01163002
              10.00820583                2.91807935               52.15695467                0.48380257               -0.21431360               -0.10438272                0.45246936               -0.02365040               -0.29632404               -0.05819117
              11.00620476                2.77419542               52.03167720                0.56280491               -0.17855432               -0.04455685                0.26516459               -0.02725992               -0.19629694               -0.07512474
              12.00463474                2.62932684               51.90753970                0.54358307               -0.12803452                0.03422815                0.04982152               -0.03169020               -0.07746674               -0.06644399
              13.00364407                2.48336016               51.78475446                0.30822960               -0.05633887                0.11094210               -0.19118877               -0.02981124                0.03063183               -0.06704594
              14.00350796                2.33645347               51.66344773                0.00010000                0.03826259                0.18377701               -0.45418909                0.01859795                0.14097104               -0.03134729
              15.00440932                2.18946077               51.54409224                0.00010000                0.12611387                0.25594778               -0.70264480                0.01656959                0.24840766                0.04676866
              16.00603024                2.04210108               51.42648858                1.00000000                0.17635796                0.24126972               -0.71542774               -0.03804564                0.20954912                0.04692300
              17.00793648                1.89449759               51.30800311                1.00000000                0.19062342                0.20597638               -0.63941965               -0.07047046                0.09379385               -0.07772323
               7.15685277                4.34205717               52.47273469                1.00000000               -0.22984313               -0.23625380                0.82629971               -0.01247754               -0.05576272                0.37485782
               8.15455434                4.20113984               52.34788060                1.00000000               -0.21064283               -0.17729184                0.62222741                0.01588954               -0.09831956                0.12784253
               9.15263991                4.05966539               52.22243242                0.82353763               -0.17583730               -0.11377693                0.44247207                0.00220026               -0.10654389               -0.04151131
              10.15103759                3.91728360               52.09747242                0.00010000               -0.13592722               -0.05106068                0.25175917               -0.01922983               -0.01928882               -0.13974842
              11.14992137                3.77398304               51.97364311                0.00010000               -0.08742192                0.02552458                0.04355096               -0.02375998                0.13019197               -0.09331007
              12.14928915                3.63000122               51.85147554                0.00010000               -0.02784874                0.09896253               -0.20163936               -0.01826571                0.27554878               -0.07401991
              13.14936439                3.48485761               51.73066510                0.00010000                0.05215498                0.18014832               -0.46118990               -0.01275707                0.42725494               -0.06757859
              14.15033225                3.33869291               51.61255528                0.00010000                0.10698693                0.24355838               -0.70730115                0.06487093                0.62740423               -0.00540377
              15.15150413                3.19225676               51.49749083                0.11534141                0.13300758                0.24693173               -0.64486810                0.02348182                0.65844838                0.17463174
              16.15299241                3.04457169               51.38154963                0.81043631                0.17921716                0.26018299               -0.63801285               -0.10983656                0.42613029                0.00368186
              17.15508848                2.89694337               51.26408028                1.00000000                0.20960705                1.21568224               -0.97199603               -0.44536585                0.36385952               -0.04373797
               7.29740201                5.33997514               52.41325369                1.00000000               -0.17120928               -0.18503314                0.63759335               -0.00719041               -0.01637705                0.35223677
               8.29568991                5.19962303               52.28737089                0.84590226               -0.15053681               -0.12844970                0.44789014                0.02747752               -0.02700563                0.11500916
               9.29439127                5.05875916               52.16145662                0.27205638               -0.10931655               -0.07128353                0.27502489                0.02659872                0.03750138               -0.07540573
              10.29350358                4.91705814               52.03684962                0.00010000               -0.06896647               -0.00928556                0.05837660                0.03156957                0.30028732               -0.32576057
              11.29301194                4.77470591               51.91600231                0.00010000               -0.00543589                0.55249613               -0.26886280                0.07612188                0.52967287                0.54000524
              12.29339486                4.63130609               51.79545933                0.00010000                0.08426472                0.62211995               -0.44578746               -0.07566976                0.60961043                1.55600776
              13.29469723                4.48696313               51.67656167                0.00010000                0.20056827                0.67732247               -0.75342540               -0.39261148                0.81790001                1.88214247
              14.29740623                4.34132464               51.56148958                0.00010000                0.21514717                0.68199125               -0.89958387               -0.63016623                1.16698763                1.74922275
              15.29900018                4.19439941               51.45148771                0.00010000                0.08703339                0.64528801               -0.25538258               -0.80519808                0.92281284                1.11139422
              16.29914690                4.04730474               51.33582445                0.11757872               -0.23571970                0.93004349               -0.73608100               -0.10444916                0.79054240                0.67331559
              17.29428578                3.91881124               51.22103099                0.62913815               -0.48611135                1.63975368               -1.75395825                0.60729255                0.99235738               -0.00964216
               7.43741320                6.33835651               52.35336980                1.00000000               -0.10933178               -0.13855700                0.45232077               -0.01077555                0.02223511                0.27308536
               8.43631988                6.19857085               52.22654796                0.52730036               -0.08382079               -0.08255540                0.27535858                0.02134698                0.03876528                0.05193170
               9.43573678                6.05823972               52.10014816                0.07138557               -0.02988227               -0.03140028                0.10235422                0.02289252                0.06276932               -0.09163934
              10.43572223                5.91709789               51.97358259                0.00010000                0.07295341                0.02046670               -0.07032984                0.51251076                1.26494022               -0.36918288
              11.43719585                5.78503297               51.87075907                0.00010000               -0.01018471                1.11508680               -1.71955799                0.15778091                2.69673388                2.45405441
              12.43551854                5.64244362               51.77122549                0.00010000               -0.28511148                1.06974083               -0.06672982               -0.67122724                2.42752665                3.81772070
              13.43149362                5.49840406               51.66020136                0.00010000               -0.26129447                0.99868891               -0.16835881               -1.05526955                1.53254188                3.87477349
              14.43029265                5.35233274               51.54368528                0.00010000               -0.10367750                0.97051247               -0.28079712               -1.45348699                1.23105177                3.41619396
              15.42942007                5.20516252               51.42615406                0.00010000               -0.19005282                1.07875179               -0.41330171               -1.43834908                1.02341320                2.30411649
              16.42649159                5.06317256               51.30552032                0.14449980               -0.25993665                1.39480565               -0.48305434               -0.89954866                0.49192964                1.31566609
              17.42422134                4.92973845               51.17943221                0.64909714               -0.22702570                1.12481424               -0.61042489               -0.37883460                0.17110196                0.18189625
               7.57675782                7.33720400               52.29260503                1.00000000               -0.05241793               -0.09024782                0.27166515               -0.02674626                0.04740825                0.16881412
               8.57623364                7.19797192               52.16484408                0.39498430               -0.02178726               -0.02726436                0.09986833               -0.00213240                0.13150522               -0.05759965
               9.57632207                7.05813115               52.03874525                0.00010000                0.03634573                1.22154314               -0.06207404                0.03466034                0.18825909                4.13147710
              10.57696055                6.91746747               51.91179681                0.00010000               -0.27501207                1.32118543               -0.24952093                0.49576457                3.96995948                5.92763286
              11.57082183                6.79700764               51.86103638                0.00010000               -0.51806626                0.94706624                0.42020692               -0.18427184                5.42377862                5.57105342
              12.56659923                6.65270091               51.75961719                0.00010000               -0.35595520                0.80609121                0.36742308               -1.52801794                2.39551197                4.76613074
              13.56370273                6.50693691               51.64632810                0.00010000               -0.25106017                0.63553768                0.43837994               -1.54363196                1.56871410                4.02016994
              14.56157803                6.36073489               51.52591650                0.00010000               -0.21546761                0.64972202                0.28658507               -1.53719626                1.07503225                3.22521381
              15.55939338                6.21597444               51.40191575                0.00613551               -0.24990141                0.85949134                0.06916396               -1.34119629                0.75182706                2.28543293
              16.55658000                6.07520086               51.27497045                0.19836129               -0.29080334                1.02620864               -0.20178897               -0.79242678                0.40201262                1.32955470
              17.55357731                5.94130752               51.14452109                0.68858346               -0.30026881                1.06866920               -0.59969434               -0.45763528                0.19730208                0.52570396
               7.71534244                8.33655155               52.23092542                0.97307444                0.00076438                4.02468868                0.11298788                0.84316271                0.02619452                5.94462168
               8.71535008                8.19802556               52.10189988                0.33795869                0.07959982                3.08544420               -0.10222836                2.48078087                4.47825189                7.37504563
               9.71693444                8.08267059               52.06182613                0.00010000               -0.42945269                2.63067804               -0.18435505                1.72937398                6.97767089               10.22399222
              10.70676103                7.94352160               51.97395596                0.00010000               -0.93287334                2.24354239                0.95368251               -0.81936482                3.67660499               11.57741999
              11.69827697                7.80397429               51.86912942                0.00010000               -0.58660569                0.61580717                1.18377145               -1.42091502                2.56131186                7.27788722
              12.69502892                7.65856544               51.75790180                0.00010000               -0.28449847                0.30741903                1.20091032               -1.83837833                1.81001626                5.34043622
              13.69258700                7.51111481               51.63571641                0.00010000               -0.22588654                0.19346938                1.04008478               -1.80902519                1.10262926                3.98427719
              14.69051119                7.36532718               51.50865954                0.00010000               -0.22284120                0.25726285                0.81511536               -1.56969178                0.75776786                2.96268483
              15.68813018                7.22235235               51.37860274                0.03010748               -0.26006038                0.44100505                0.51637901               -1.21941117                0.49618755                2.07338198
              16.68530998                7.08369673               51.24624544                0.24240055               -0.26374409                0.64590179                0.14728653               -0.69370311                0.25337207                1.28227073
              17.68285529                6.95111183               51.11173458                0.71747017               -0.24546834                0.75697161               -0.29934849               -0.35072172                0.12074137                0.62711062
               7.87067306                9.41769778               52.28589868                0.94423764                0.90571660                6.61528796               -8.06140722                1.93497308                1.68831289               16.65768962
               8.87973022                9.25968080               52.18903892                0.32822041               -0.26297737                4.92303690               -8.86982864                0.62790585                4.31113531               16.89058464
               9.86541351                9.11074471               52.12201214                0.00010000               -2.02303359                2.34595753                2.44870648               -0.89875773                5.37105962               15.51376304
              10.83926955                8.96233832               52.02227498                0.00010000               -1.90269106                1.16224127                2.66087744               -2.00248306                2.04801891               11.45153771
              11.82735969                8.80932379               51.89387858                0.00010000               -0.82892049                0.13456939                2.42527244               -2.32168550                0.53052382                7.92256410
              12.82269114                8.65884929               51.76033383                0.00010000               -0.32995987               -0.23969112                2.00198047               -2.10297180                0.35889178                5.22317489
              13.82076049                8.51080629               51.62555761                0.00010000               -0.18722453               -0.25386799                1.64214743               -1.77646351                0.35218794                3.59917947
              14.81894665                8.36588015               51.49006956                0.00010000               -0.20624463               -0.12718785                1.29177606               -1.41109504                0.30902214                2.51247954
              15.81663560                8.22479455               51.35399186                0.05353083               -0.25001008                0.07079965                0.91990893               -0.99936437                0.22505513                1.70888509
              16.81394645                8.08811889               51.21712751                0.27748717               -0.24514652                0.26160114                0.51414648               -0.52450306                0.11519429                1.07743691
              17.81173267                7.95644696               51.07943868                0.73549581               -0.22137815                0.33770559                0.06618946               -0.26393360                0.04624946                0.58509504
               8.07007585               10.46885731               52.49280643                0.93782316               -3.52145827                2.03510136                5.39969322                2.31407804                2.16128404               25.83142733
               9.03486127               10.29648630               52.35744675                0.36107865               -3.68870413                0.92032148                7.46568321               -0.74245045                1.16986119               22.54944332
               9.99630177               10.12958974               52.23120271                0.00010000               -3.33644877                0.01499931                7.11218856               -2.53125116               -0.50431791               17.77085426
              10.96813229                9.96676643               52.07737094                0.00010000               -2.04847412               -0.60493104                5.68080702               -3.12354314               -2.34278566               11.25366294
              11.95533229                9.80666568               51.91539962                0.00010000               -0.83226598               -0.79572958                3.82566516               -2.74743738               -2.14528699                6.79103717
              12.95148697                9.65377162               51.75939492                0.00010000               -0.26527054               -0.79382323                2.79755120               -1.97538066               -1.15871109                4.22157509
              13.95002688                9.50603745               51.61119042                0.00010000               -0.15929699               -0.65655557                2.18400130               -1.47587167               -0.44471765                2.76421913
              14.94830103                9.36278342               51.46774759                0.00010000               -0.20613656               -0.45086701                1.70651353               -1.07396791               -0.10859683                1.85456328
              15.94590414                9.22376834               51.32653440                0.07631973               -0.25667634               -0.23508341                1.27060703               -0.69641228                0.00107268                1.23272171
              16.94316751                9.08892875               51.18619240                0.30768450               -0.24918247               -0.05413125                0.84779900               -0.32643756                0.01499329                0.77664815
              17.94092049                8.95786594               51.04615647                0.74516741               -0.22470121                0.00892240                0.42187528               -0.15947943               -0.00486200                0.41715952
               8.26169665               11.45839981               52.63956023                0.90828521               -5.75478554               -2.47912494               12.72447353                0.85178002                2.64815893               16.67189899
               9.20414879               11.27808723               52.47407979                0.40085702               -5.85941444               -2.91338251               17.30077999               -0.14211410                1.37044679               14.22227409
              10.14450836               11.11104470               52.31143269                0.00010000               -5.22130221               -2.88938946               16.71571719               -1.27622164               -4.55988126               11.76905175
              11.09972275               10.95023970               52.11762455                0.00010000               -2.95513052               -2.37554822                9.05129415               -2.16535633               -6.88731400                7.11703393
              12.08540575               10.79340920               51.91974155                0.00010000               -0.79554948               -1.66207807                4.95321700               -1.84072845               -4.66604869                4.00213565
              13.08381176               10.64297283               51.74505399                0.00010000               -0.15872431               -1.26944117                3.47188177               -1.22897926               -2.26118069                2.35427488
              14.08223126               10.49767518               51.58769195                0.00010000               -0.20376773               -0.93565774                2.63677279               -0.85741959               -0.91192069                1.51255021
              15.07973640               10.35686281               51.43897496                0.00010000               -0.28346201               -0.66509358                2.05426427               -0.58830611               -0.32046692                0.99300498
              16.07656202               10.22009288               51.29467873                0.11031873               -0.32081535               -0.43693063                1.55932407               -0.35051242               -0.08171997                0.65091986
              17.07332010               10.08703627               51.15235278                0.34998878               -0.29466623               -0.26423424                1.11857618               -0.13918964               -0.00996089                0.40635182
              18.07066870                9.95662540               51.01075577                0.74479411               -0.26513996               -0.18120620                0.71825696               -0.07103328               -0.01711998                0.18268700
               8.44773660               12.41927481               52.63696571                0.95974482               -6.83625015               -3.91249919               15.28978650                0.49837841                4.98706664                9.53908506
               9.37937409               12.23821865               52.47332171                0.74551538               -7.45558620               -3.98685850               20.27790751                0.14888700                2.64751665                5.20908665
              10.29862487               12.07180195               52.30971610                0.45967197               -6.84567133               -3.92427503               19.30477172               -0.53650779               -4.54097746                3.88675355
              11.24246067               11.91925546               52.09888973                0.36878347               -3.64201427               -3.09842333               10.38483059               -0.64509939               -7.79062629                3.63858032
              12.22578459               11.77342412               51.88980469                0.36015441               -0.99096335               -1.99850784                5.61727066               -0.50574930               -5.15542671                1.91709550
              13.22264140               11.62838280               51.71022300                0.36759155               -0.33980414               -1.45900283                3.91473022               -0.42202674               -2.31070825                1.18216691
              14.21898850               11.48732429               51.55089439                0.39073626               -0.42620921               -1.03508874                2.98699178               -0.26933827               -0.80806815                0.73608622
              15.21411722               11.34948155               51.40156057                0.42898573               -0.51340344               -0.73812587                2.33826678               -0.17664697               -0.17080827                0.47647121
              16.20872044               11.21502973               51.25717818                0.57917609               -0.51330146               -0.50631493                1.79071326               -0.07603261                0.07095515                0.30512166
              17.20385119               11.08364407               51.11501280                0.70406021               -0.41994401               -0.33921995                1.30983496                0.01371376                0.11510052                0.18665375
              18.20032156               10.95424182               50.97317622                0.87340288               -0.35296327               -0.23835840                0.90775726                0.02506112                0.08066066                0.04250287
               6.99676162                2.41239328               53.60628655                1.00000000               -0.34900850               -0.34291112                1.23939455               -0.06764354               -0.22535465                0.18535804
               7.99327153                2.26861275               53.47995981                1.00000000               -0.33176561               -0.26420519                0.99800840               -0.04243955               -0.34569915                0.05117034
               8.99012630                2.12426919               53.35144747                1.00000000               -0.30862469               -0.19288400                0.81784554               -0.04725944               -0.47946892                0.00665536
               9.98709904                1.97912277               53.22248321                0.67508129               -0.29655668               -0.12721972                0.65440239               -0.05643051               -0.47482470               -0.01524855
              10.98419517                1.83298772               53.09391867                0.68668544               -0.28129539               -0.06061931                0.48666374               -0.06595313               -0.40177404               -0.02460495
              11.98147313                1.68569918               52.96618930                0.64909433               -0.26254797                0.01107399                0.30817492               -0.08319997               -0.30922681               -0.02624222
              12.97894421                1.53703826               52.83934158                0.45618065               -0.23922792                0.08281978                0.12618359               -0.11355951               -0.24526291               -0.01922221
              13.97668857                1.38672744               52.71324108                0.09991037               -0.21671574                0.14128997               -0.06933750               -0.13715677               -0.31882129               -0.00713875
              14.97460990                1.23481083               52.58661394                0.00010000                0.01574307                0.22608163               -0.28959357                0.03334882               -0.46595762               -0.00954107
              15.97700343                1.08436473               52.46257187                0.94523908                0.22776743                0.28314491               -0.92692609                0.01494195               -0.44652230                0.05810886
              16.97916524                0.93621799               52.34646832                1.00000000                0.21618125                0.19076488               -0.51184314                0.01401238               -0.21733997               -0.22036389
               7.13986571                3.40896417               53.54298986                1.00000000               -0.29565288               -0.31202369                1.06910662               -0.02219192               -0.08594600                0.25064333
               8.13690918                3.26597070               53.41670684                1.00000000               -0.27335041               -0.23743989                0.82529730                0.00093643               -0.15798373                0.08162363
               9.13439870                3.12234035               53.28915367                1.00000000               -0.23668546               -0.16471442                0.62311937               -0.01349608               -0.23174825                0.00288881
              10.13217547                2.97785058               53.16139400                0.48666082               -0.20756318               -0.10141765                0.43385243               -0.03183622               -0.20657568               -0.03315004
              11.13024743                2.83238153               53.03418933                0.54830007               -0.17798045               -0.04034139                0.23639478               -0.04195999               -0.11889478               -0.03897666
              12.12861586                2.68580992               52.90794919                0.51017756               -0.14764732                0.04689325                0.02433492               -0.06216479               -0.00594790               -0.03948885
              13.12729449                2.53786646               52.78281233                0.25271766               -0.10925708                0.12903998               -0.20772761               -0.12361905                0.10557550               -0.02604933
              14.12643072                2.38814034               52.65881759                0.00010000               -0.05848756                0.19560887               -0.46988246               -0.19225192                0.22140401                0.02401975
              15.12612474                2.23707165               52.53649473                0.00010000                0.00092785                0.27078707               -0.78584792               -0.09979958                0.50219933                0.34103142
              16.12644927                2.08719618               52.41928277                1.00000000                0.06636889                0.24715999               -0.83316154               -0.15843395                0.07724767                0.28650492
              17.12745211                1.93812564               52.30247285                1.00000000                0.10028401                0.18186607               -0.46319577               -0.11607759                0.00437587               -0.37961304
               7.28230471                4.40615280               53.48129965                1.00000000               -0.23906380               -0.25158653                0.87423201               -0.01365800               -0.03461410                0.33047219
               8.27991407                4.26386395               53.35424492                1.00000000               -0.21641029               -0.18387935                0.64420947                0.01568658               -0.05879968                0.12208874
               9.27797650                4.12097490               53.22682950                0.81856572               -0.17464672               -0.10881726                0.43618347               -0.00195269               -0.05214607               -0.01620405
              10.27642114                3.97709442               53.09985909                0.00010000               -0.12899401               -0.05631340                0.22491704               -0.03065963                0.03518648               -0.10222912
              11.27539662                3.83218089               52.97400550                0.00010000               -0.08381181               -0.00187814                0.01007513               -0.02278540                0.15323612               -0.11376435
              12.27474490                3.68663705               52.84924392                0.00010000               -0.06276049                0.12799802               -0.24189972               -0.04404206                0.28660471               -0.03660689
              13.27414141                3.53961906               52.72586760                0.00010000               -0.05532795                0.23175925               -0.50987523               -0.14050178                0.46899815               -0.05143138
              14.27363834                3.39063962               52.60470961                0.00010000               -0.02916772                0.32990778               -0.89266517               -0.25437262                0.98137488                0.11989759
              15.27355806                3.24022657               52.49112060                0.09084849               -0.04287882                0.15210273               -1.48702342               -0.46002640                1.51633809                1.01185869
              16.27278077                3.08930793               52.37690592                0.72306684                0.07133628                0.18328765               -0.60912611               -0.26828587                0.13776810                0.12552040
              17.27498479                2.93985531               52.25482960                1.00000000                0.22040193                0.04128654               -0.65194427               -0.18320666               -0.25786932               -0.67816482
               7.42417025                5.40393243               53.41987404                1.00000000               -0.17694381               -0.19731024                0.67602752               -0.00822943               -0.00278444                0.31415614
               8.42240081                5.26229311               53.29193335                0.82011552               -0.15205344               -0.13240547                0.46025417                0.03066592                0.00056097                0.11081311
               9.42112918                5.12016401               53.16414046                0.25724907               -0.10222602               -0.06537726                0.26039697                0.01576099                0.05433032               -0.05200670
              10.42035629                4.97672431               53.03715859                0.00010000               -0.04400386               -0.01217528                0.02565888               -0.00269973                0.21694325               -0.22995326
              11.42024910                4.83234396               52.91241838                0.00010000               -0.00297188               -0.08777652               -0.32466045                0.10110454                0.50906695               -0.56456722
              12.42029685                4.68836988               52.79081947                0.00010000                0.01163925                0.67313942               -0.50529126                0.01906966                0.62944079                2.00249093
              13.42048188                4.54250164               52.66847546                0.00010000                0.02194512                0.67111551               -0.79267493               -0.29532270                0.85329441                2.32874443
              14.42073575                4.39473849               52.55166066                0.00010000               -0.11129965                0.76327517               -1.46229284               -0.72866520                2.04416883                2.39285794
              15.41825589                4.24011370               52.45189940                0.00010000                0.03595354                0.71017629               -0.28443151               -0.80756769                1.59658824                2.21676687
              16.42145482                4.09086193               52.33084795                0.08507604                0.22186692                0.77067785               -0.31074870               -0.78101820                0.09742506                0.68431951
              17.42269323                3.93895137               52.20496283                0.61122854                0.12384070                1.22977005               -0.77970738               -1.27816438                0.08721719               -0.90692609
               7.56541877                6.40220660               53.35808501                1.00000000               -0.11229496               -0.14924608                0.48050520               -0.01265359                0.02857734                0.24708319
               8.56429582                6.26121584               53.22932856                0.50841247               -0.07791199               -0.08526055                0.27861991                0.02287231                0.04937246                0.05119171
               9.56386053                6.11966736               53.10102139                0.05930345               -0.00543159               -0.03168468                0.07889677                0.00678128                0.08325954               -0.06662275
              10.56418719                5.97685092               52.97278521                0.00010000                0.09563065                0.04648455               -0.08243525               -0.16755000                0.02220631               -0.27353062
              11.56577314                5.83042536               52.84300470                0.00010000                0.03907146                0.95035730               -1.41827233                0.26536000                2.86303781                3.23593137
              12.56496862                5.70009984               52.77249364                0.00010000               -0.19533954                0.90410320               -0.01609889                0.07031049                3.79258609                4.34114835
              13.56186635                5.55304137               52.65861929                0.00010000               -0.17578180                0.84483555               -0.07278371               -0.83095618                1.67045782                4.69145316
              14.56145298                5.40590512               52.54126009                0.00010000               -0.02915428                0.79788154               -0.06273008               -1.13668188                1.42702843                4.35000317
              15.56128326                5.25443010               52.42170901                0.00010000               -0.15651198                1.12576344               -0.19779874               -1.23171857                1.35476685                2.72985120
              16.55832274                5.10472149               52.30119378                0.12122276               -0.40203145                1.33453857               -0.32625381               -0.98662483                0.98736171                1.45835309
              17.55324264                4.96445071               52.17370826                0.63595417               -0.50801041                2.02626476               -0.74052743               -0.74083390                0.45650501                0.16498352
               7.70589868                7.40094751               53.29544978                1.00000000               -0.05011896               -0.09899983                0.29252866               -0.02653429                0.05598145                0.17507781
               8.70539749                7.26058790               53.16585552                0.37976538               -0.01344758               -0.04481331                0.09769754               -0.00172090                0.13804489               -0.07988446
               9.70562973                7.11953031               53.03795131                0.00010000                0.04248956                1.14465275               -0.08687142                0.26058593                0.17720958                4.12519342
              10.70624728                6.97765400               52.90901317                0.00010000               -0.16611761                1.33913138               -0.28475340                0.41888395                4.44248963                6.66709433
              11.70230738                6.85135111               52.86641146                0.00010000               -0.35801168                1.42627692                0.36730153               -0.14534442                6.06430133                7.34999683
              12.69908705                6.70645195               52.76331015                0.00010000               -0.21249502                0.50892863                0.54576170               -1.23310297                2.78740888                5.26832985
              13.69805748                6.55939836               52.65167093                0.00010000               -0.12368323                0.37087492                0.68344192               -1.34489646                2.00963682                4.63454046
              14.69661339                6.41069612               52.52992623                0.00010000               -0.16261647                0.31818791                0.58700251               -1.45166636                1.39750461                3.82822218
              15.69480515                6.26262897               52.40383607                0.00010000               -0.24558344                0.60430266                0.37829025               -1.38033715                1.03193292                2.80043609
              16.69170172                6.11755271               52.27382995                0.17854851               -0.31935180                1.00974542                0.00314015               -0.88473399                0.57550056                1.55618763
              17.68841811                5.97947666               52.13903126                0.67431899               -0.32836041                1.24580144               -0.53925096               -0.42018279                0.29725881                0.50131212
               7.84560731                8.40022660               53.23222590                0.96319223                0.00712928               -0.04363692                0.11377383               -0.02038723               -0.02403921                0.07113171
               8.84567860                8.26031958               53.10060717                0.32529189                0.31994206               -0.02723116               -0.09971767                1.12130644                4.44947662               -0.24104413
               9.85200615                8.14256041               53.05858659                0.00010000               -0.24672655                3.09552583               -0.19470494                1.56457047                7.47710370               11.66585904
              10.84074407                8.00363354               52.98326415                0.00010000               -0.89689215                2.22858569                0.92882990               -0.74525768                4.71403768               12.68719941
              11.83406831                7.85895090               52.88090907                0.00010000               -0.42423785                0.58429521                1.28906871               -1.45206054                3.24732947                7.92513630
              12.83225931                7.71027841               52.77071518                0.00010000               -0.16720307                0.09637964                1.41671291               -1.69087883                2.35317887                5.89846860
              13.83072424                7.56045887               52.64719076                0.00010000               -0.15351383               -0.09222426                1.33645406               -1.67706021                1.50867145                4.38414882
              14.82918904                7.41226888               52.51806404                0.00010000               -0.19521523               -0.01879741                1.14199107               -1.49610479                1.07475354                3.30292698
              15.82681994                7.26651615               52.38494648                0.02462965               -0.27043320                0.22059605                0.81131635               -1.20999397                0.71035698                2.34510392
              16.82378037                7.12491640               52.24859284                0.22798002               -0.29144345                0.53533977                0.34922881               -0.70033571                0.36191279                1.49133036
              17.82099107                6.98936674               52.10910741                0.70360354               -0.27893010                0.75664277               -0.22999556               -0.36192736                0.17136093                0.82602247
               7.98530499                9.40007478               53.16737160                0.93671174                0.01848235                6.36514654               -5.93849217                5.11758272               -0.93945828               18.11715338
               8.98548981                9.26004328               53.03391485                0.31590979                0.41510948                5.48438873               -7.78478998                5.36909328               11.18136169               20.47066761
               9.99360718                9.18144083               53.15175596                0.00010000               -0.52690827                3.66000382                1.79778841                1.96763035               13.45920938               18.16379407
              10.97495164                9.02222571               53.04704090                0.00010000               -1.34929365                1.22303902                2.47066301               -2.70988535                2.29369137               13.07896271
              11.96662130                8.86303701               52.91880921                0.00010000               -0.55950694               -0.01830713                2.54239607               -2.53915939                1.09375429                8.60962278
              12.96376151                8.70837954               52.78109038                0.00010000               -0.20477481               -0.45518178                2.23211063               -2.06529996                0.75796032                5.55422190
              13.96252581                8.55755387               52.64313136                0.00010000               -0.15637491               -0.48263237                1.94855215               -1.68753547                0.70763716                3.82558177
              14.96063401                8.41032018               52.50423436                0.00010000               -0.22840288               -0.33948387                1.60751112               -1.35909275                0.55966068                2.68189810
              15.95795775                8.26704089               52.36430004                0.05226548               -0.28947944               -0.09151310                1.18848187               -0.98109916                0.37736264                1.86132923
              16.95484442                8.12825950               52.22304767                0.26938313               -0.28394312                0.17063226                0.69116959               -0.51741305                0.18590545                1.26248335
              17.95227889                7.99460952               52.08046615                0.72299278               -0.25655319                0.32567328                0.14587393               -0.25693731                0.07592286                0.84418135
               8.22802196               10.52752953               53.54627262                0.93110181               -5.63275458                7.33676768                4.64486390                7.95764722                4.23272795               34.40718000
               9.17169441               10.37000735               53.44413055                0.34733162               -4.94228180                5.25209080                5.05056520                4.82923242                1.92261632               38.42188877
              10.12917632               10.21576049               53.30458604                0.00010000               -3.33721163                0.72581046                5.47758989               -3.45986110               -1.87201651               25.14258443
              11.10495018               10.02809432               53.13649514                0.00010000               -1.60225144               -0.75071241                5.96715784               -5.35349457               -2.96070527               13.33505181
              12.09713129                9.85858476               52.95381948                0.00010000               -0.42568600               -0.98398399                3.80315654               -3.04564909               -2.40814749                7.12710218
              13.09643646                9.70117477               52.78809278                0.00010000               -0.10491964               -0.98450440                3.04040908               -1.94516416               -0.91997475                4.40423886
              14.09503290                9.55080622               52.63420685                0.00010000               -0.19581503               -0.81782215                2.49457550               -1.40353629               -0.18801827                2.85163398
              15.09252016                9.40547920               52.48603689                0.00010000               -0.28871340               -0.59259089                2.01096161               -1.03594356                0.05111642                1.91286923
              16.08925863                9.26468589               52.34028297                0.07949879               -0.33283349               -0.34317222                1.51553158               -0.68102289                0.08031451                1.29980645
              17.08586349                9.12832904               52.19540718                0.30566477               -0.30531681               -0.11846000                1.01474515               -0.31511866                0.04934033                0.90835416
              18.08315229                8.99588020               52.05080680                0.73443503               -0.27111928               -0.00999186                0.52668171               -0.15204526                0.00731952                0.65936141
               8.45950229               11.54681013               53.76528095                0.89901531               -6.56587911               -0.29644059                9.10146149                3.56067736                7.82389591               19.26230784
               9.39384350               11.36508509               53.69242652                0.38315946               -9.65896542               -4.85382213               29.83843514                2.57073719                0.60158252               23.58370148
              10.26632298               11.19595704               53.52658531                0.00010000               -8.43930074               -6.09069509               29.25888473               -2.69283717               -8.45846109               19.27993988
              11.22505748               11.00721146               53.21302190                0.00010000               -1.68475558               -2.64263179                7.64772951               -4.02469816              -12.51264645                8.54868767
              12.23262787               10.84335733               52.96794413                0.00010000                0.37896364               -1.95405916                5.11309891               -1.92416298               -5.71489857                4.02483441
              13.23263676               10.68868945               52.78085946                0.00010000               -0.12386085               -1.38249659                3.72199388               -1.18885798               -2.06393388                2.41946612
              14.23015065               10.54119743               52.61528964                0.00010000               -0.33006452               -1.04234155                2.97836616               -0.80009813               -0.77413273                1.52796379
              15.22603547               10.39846836               52.46083015                0.00010000               -0.43316036               -0.75440592                2.36702587               -0.57064157               -0.26130713                0.99905863
              16.22148745               10.26017745               52.31133334                0.11883579               -0.43438674               -0.50732119                1.79851036               -0.34616321               -0.09474135                0.66737951
              17.21734773               10.12589030               52.16430563                0.35527118               -0.36758933               -0.31330918                1.28284206               -0.13502603               -0.02784248                0.47042425
              18.21413566                9.99440968               52.01850618                0.73623630               -0.32120722               -0.21082900                0.85582300               -0.06602290               -0.03207000                0.34087035
               8.66268557               12.52160072               53.79406134                0.95431969               -8.87233298               -2.52094081               14.10650583               -4.54865292                6.73601006               10.51901738
               9.57396224               12.27293091               53.72515420                0.73496283              -11.47461836               -9.21541843               29.16205966               -3.37083228                2.53041228               14.79681809
              10.43319321               12.09394659               53.55085326                0.45714915               -9.84531618              -10.20104509               28.63033775                1.80256119               -7.13364230               11.35267538
              11.37705592               11.97524169               53.20793930                0.36868054               -2.80115803               -3.19697775                9.95424747                1.47769272              -12.98210415                4.53822199
              12.37717004               11.81950357               52.94480789                0.36015770               -0.11183565               -2.38537602                5.73934965               -0.63162494               -6.30400368                2.23936321
              13.37481921               11.67352484               52.75067369                0.36735810               -0.39590078               -1.51646106                4.24875085               -0.25896435               -2.18208865                1.26517728
              14.36925203               11.52995939               52.58232740                0.38977501               -0.63459512               -1.12380357                3.39219787               -0.24655048               -0.75108952                0.78004697
              15.36212730               11.39039108               52.42649971                0.42720917               -0.71693034               -0.80772771                2.70057414               -0.16181257               -0.22210306                0.49005069
              16.35491342               11.25453947               52.27630892                0.58533256               -0.65982839               -0.56379818                2.05611223               -0.07381350               -0.06110856                0.31859187
              17.34893074               11.12206286               52.12895024                0.70903940               -0.50601710               -0.38274421                1.47666122                0.01450814                0.00207270                0.22181523
              18.34479308               10.99166362               51.98290092                0.86964100               -0.41376553               -0.27460561                1.04964310                0.02581841                0.00022665                0.14046524
               7.12234426                2.47823844               54.61893115                1.00000000               -0.35627100               -0.35384576                1.27569228               -0.06952222               -0.17162288                0.15447072
               8.11878155                2.33322346               54.49009370                1.00000000               -0.33524495               -0.27072273                1.01928407               -0.04234348               -0.25578206                0.04587331
               9.11563936                2.18764095               54.35965374                1.00000000               -0.30389586               -0.19305134                0.81662720               -0.04598255               -0.34607999                0.01059006
              10.11270363                2.04124472               54.22895165                0.66824291               -0.28334282               -0.12042483                0.63215456               -0.05650768               -0.32659165               -0.00420281
              11.10997250                1.89384075               54.09866183                0.66568282               -0.26116890               -0.05116956                0.44903206               -0.06871746               -0.24261138               -0.00742035
              12.10748025                1.74527203               53.96917917                0.61428213               -0.24211452                0.02104158                0.26380600               -0.08514289               -0.11173807               -0.00368774
              13.10513021                1.59531282               53.84073412                0.39929577               -0.25340649                0.10003393                0.08811856               -0.10182635                0.02661647                0.00363023
              14.10241212                1.44372157               53.71286579                0.00010000               -0.34799024                0.17437638               -0.06898623               -0.22221794                0.16919731                0.06367362
              15.09817041                1.28718541               53.58582711                0.00010000               -0.62034041                0.45893386               -0.32092884               -0.22997378                0.06899767                0.14738320
              16.09000531                1.12748666               53.45275043                0.85852541               -0.45096018                0.60104711               -1.59990102               -0.37971819               -2.45587501                0.36165963
              17.08915120                0.97640752               53.34229687                1.00000000               -0.08541110                0.21365422               -0.39440323                0.14134935               -1.18853323               -0.78036252
               7.26666401                3.47469998               54.55389158                1.00000000               -0.30071571               -0.32280039                1.09948988               -0.02208939               -0.05961445                0.21516830
               8.26365685                3.33051623               54.42507613                1.00000000               -0.27475546               -0.24341782                0.84124442                0.00387065               -0.10581058                0.07671119
               9.26116890                3.18571044               54.29538525                1.00000000               -0.23091000               -0.16432143                0.61931240               -0.00661527               -0.14862213                0.01293070
              10.25903865                3.04004047               54.16563172                0.48053783               -0.19486156               -0.08851421                0.41057556               -0.02598464               -0.11362584               -0.01473265
              11.25727167                2.89332905               54.03640510                0.52950843               -0.15729351               -0.01810205                0.19916072               -0.04646305               -0.02436389               -0.01292306
              12.25589278                2.74548244               53.90802640                0.47799492               -0.11922478                0.05633873               -0.02264528               -0.06684962                0.10191504               -0.00698432
              13.25488718                2.59631316               53.78059991                0.20343588               -0.08195685                0.14265164               -0.25720284               -0.09343268                0.25168890                0.01134354
              14.25425365                2.44546533               53.65405008                0.00010000               -0.04495277                0.22631089               -0.51175168               -0.11218907                0.41353432                0.04785103
              15.25398812                2.29177475               53.52837528                0.00010000               -0.63282850                0.49519244               -0.98811901               -0.02520074                0.94019367               -0.00115468
              16.24159708                2.13349713               53.40982535                0.94845258               -0.61721392                0.40151272               -1.13403564               -0.55986166               -0.72187548                0.52024170
              17.24164384                1.97854406               53.29873919                1.00000000                0.00467645                0.22412912               -0.43280426               -0.24868115               -0.23481707               -0.93313553
               7.41026996                4.47178243               54.49021933                1.00000000               -0.24214622               -0.26135326                0.90056956               -0.01454825               -0.01777766                0.28646982
               8.40784850                4.32835510               54.36076479                1.00000000               -0.21435743               -0.18802942                0.65441520                0.01749761               -0.02635293                0.11379009
               9.40598281                4.18435452               54.23115609                0.81354730               -0.16415890               -0.10916569                0.42751896                0.01015334               -0.00510462                0.00189905
              10.40456532                4.03947443               54.10197076                0.00010000               -0.11907743               -0.02537561                0.19750510               -0.01749733                0.08317457               -0.06653008
              11.40360127                3.89347871               53.97384461                0.00010000               -0.07030874                0.05431553               -0.04038878               -0.04074533                0.19658773               -0.09254664
              12.40315915                3.74639880               53.84663755                0.00010000               -0.01612998                0.13118752               -0.29087562               -0.06395147                0.32873556               -0.00683787
              13.40327867                3.59816585               53.72046759                0.00010000                0.07738018                0.22365798               -0.58342970               -0.10581306                0.48628168                0.02563268
              14.40470675                3.44824779               53.59470198                0.00010000                0.31779610                0.35829939               -1.01627143               -0.02322928                0.58885752               -0.12771856
              15.40963459                3.29708926               53.46775036                0.06895553               -0.63339915                0.81857930               -1.83114818               -0.74871653                2.10071448                1.77403146
              16.39203877                3.13551692               53.36936711                0.65043026               -0.77754294                0.16030644               -0.52407072               -0.48821296                1.02193548                0.63070366
              17.39408373                2.98089010               53.25104139                1.00000000                0.20449611                0.16249962               -0.56139283               -0.15485539               -0.01091799               -0.96911853
               7.55322770                5.46947292               54.42677424                1.00000000               -0.17929859               -0.20299988                0.69756078               -0.01034369                0.00596628                0.27288660
               8.55143471                5.32675564               54.29657597                0.79887341               -0.14875305               -0.13412934                0.46516978                0.02883227                0.01926789                0.10347074
               9.55025264                5.18352712               54.16666455                0.24275520               -0.09350945               -0.06290537                0.24493043                0.03699120                0.07153073               -0.03471940
              10.54956453                5.03953296               54.03736280                0.00010000               -0.03601211                0.01491327                0.01202415                0.02529845                0.18572048               -0.13254377
              11.54953240                4.89441536               53.90950910                0.00010000                0.01810403                0.11399062               -0.28436010               -0.01399288                0.45657576               -0.28288117
              12.54992661                4.74810619               53.78535351                0.00010000                0.06947661                0.51885531               -0.56555995               -0.05162622                0.66497691                2.33355502
              13.55092193                4.60078632               53.66070817                0.00010000                0.24695258                0.54358961               -0.88468511               -0.13086070                0.55485442                2.91512921
              14.55486566                4.45263132               53.53224373                0.00010000                0.04113647                0.64097210               -1.63292721               -0.08016174                2.60727108                3.31769164
              15.55174466                4.30814633               53.44579908                0.00010000               -0.34168400                0.53668115               -0.36468575               -1.44904688                3.16428205                3.82931598
              16.54803198                4.13670326               53.32960948                0.06198745               -0.19721434                0.69203488                0.01528883               -1.20757386                0.65883358                0.97354175
              17.54780037                3.98179405               53.20543685                0.60334539               -0.02316060                0.90397934               -0.21644299               -0.77898342                0.23907870               -0.40164978
               7.69549763                6.46772243               54.36297990                1.00000000               -0.11266935               -0.14541240                0.49622267               -0.01307753                0.03124864                0.21748856
               8.69437094                6.32567252               54.23212036                0.49304434               -0.07761527               -0.08300136                0.27604442                0.02161378                0.05212459                0.04674060
               9.69394533                6.18309642               54.10172609                0.04761738               -0.00939412               -0.02286523                0.06773774                0.02780769                0.10638033               -0.03983687
              10.69418306                6.03977270               53.97193389                0.00010000                0.04014235                0.03987276               -0.10154475                0.02238895                0.13798752               -0.17656425
              11.69474817                5.89575852               53.84239363                0.00010000                0.07863049                0.58439249               -0.20785876                0.26408454                3.01314150                4.39233419
              12.69575566                5.75677591               53.77090351                0.00010000                0.06940763                0.58698864                0.03155791                0.02202285                4.21229843                5.06017341
              13.69613633                5.60903765               53.65874569                0.00010000               -0.00060810                0.51349650                0.14381815               -0.46756140                2.26858255                5.64604854
              14.69574350                5.46106723               53.54243068                0.00010000                0.02226915                0.39320293                0.26890114               -0.93587219                2.00633207                5.76964415
              15.69658171                5.30782288               53.42219808                0.00010000               -0.07519642                0.02996790                0.40102798               -1.36629770                1.78892540                3.35595770
              16.69423957                5.14935762               53.29899524                0.10188846               -0.41296116                1.11111443                0.10133979               -1.19951774                0.99140084                1.59266458
              17.68832249                4.99896969               53.16462166                0.62922608               -0.59170895                1.70702810               -0.91488843               -0.97281806                0.28283832               -0.04221659
               7.83706598                7.46656467               54.29845560                0.99577182               -0.05729744               -0.08350314                0.30317321               -0.01683130                0.04883866                0.15332030
               8.83649301                7.32509562               54.16679803                0.36777148               -0.01786856               -0.02635867                0.09126518                0.00565682                0.13511832               -0.07100032
               9.83670861                7.18306982               54.03700782                0.00010000                0.04285973                0.95433502               -0.10647090                0.25545026                0.17601157                4.26287030
              10.83735020                7.04033041               53.90610175                0.00010000                0.05511343                0.97325823               -0.26728526                0.37848236                4.78531775                7.40732177
              11.83781088                6.90610321               53.86838241                0.00010000               -0.01311338                0.71603709                0.54753087                0.02699553                6.99464948                8.21905928
              12.83708793                6.75984597               53.77053242                0.00010000               -0.02657496                0.09893404                0.92854169               -0.74959118                3.62821429                6.08094204
              13.83727938                6.61105625               53.65999693                0.00010000                0.01375222               -0.08501442                1.06531618               -1.00376721                2.64999427                5.30696169
              14.83736298                6.46049538               53.53765655                0.00010000               -0.05755312               -0.19948181                1.06782900               -1.19017636                1.94872845                4.34675452
              15.83612832                6.30874569               53.40948155                0.00010000               -0.22340802                0.04837849                0.85662948               -1.31715097                1.42121279                3.14171237
              16.83289482                6.15892555               53.27503326                0.15703942               -0.35042239                0.74739980                0.31335244               -0.93316753                0.74779969                1.67200399
              17.82911987                6.01593461               53.13373607                0.66187255               -0.37749486                1.36138493               -0.52756298               -0.45254957                0.39873551                0.63895496
               7.97809911                8.46605237               54.23320090                0.95221045               -0.01201837               -0.02852734                0.11225274               -0.00413214               -0.00184808                0.08495493
               8.97797892                8.32514534               54.09990552                0.31472997                0.28602150                0.02375819               -0.06447267                0.93054169                4.55305838               -0.11891394
               9.98381954                8.20218312               54.05793203                0.00010000                0.03701946                2.24756627                0.26470237                0.94277807                8.06511890               11.92222487
              10.97871931                8.05923786               53.99253256                0.00010000               -0.40235029                1.51780859                1.10929382               -0.56819647                5.92365239               13.67231900
              11.97577253                7.91007926               53.89491080                0.00010000               -0.14542542                0.12513072                1.60246069               -1.15544297                4.17317784                8.72380064
              12.97581080                7.75875459               53.78623606                0.00010000               -0.01804809               -0.36449171                1.80234887               -1.31508151                3.09272798                6.42550804
              13.97541157                7.60733736               53.66244549                0.00010000               -0.07801343               -0.53772075                1.80055168               -1.35935600                2.11348630                4.76150108
              14.97425053                7.45707759               53.53149936                0.00010000               -0.18015258               -0.44750604                1.62689619               -1.34693525                1.53155862                3.55392226
              15.97180852                7.30879045               53.39482907                0.01628966               -0.29316152               -0.10305242                1.23500353               -1.17653822                0.99986032                2.48505235
              16.96838730                7.16430561               53.25323002                0.20915964               -0.32775727                0.38143323                0.58864183               -0.69947188                0.48117348                1.61355338
              17.96525337                7.02619738               53.10713467                0.68904550               -0.31339324                0.78482911               -0.20752355               -0.34610784                0.20831570                1.01678426
               8.11879739                9.46599412               54.16712884                0.92870421                0.01757029                4.65195983               -0.01986170                5.00343880                0.03062045               24.27654457
               9.11897310                9.32557078               54.03334312                0.30505371                0.13371296                4.06335296               -0.12058203                4.95241404               12.95986175               24.51840564
              10.12147165                9.22802115               54.15796791                0.00010000               -0.04414834                2.77144813                1.03834055                1.38965591               15.67709739               18.38740129
              11.11809013                9.07068658               54.07168824                0.00010000               -0.31431783                0.41242977                2.56891759               -1.92249427                4.20678839               14.42257283
              12.11518530                8.90860583               53.94472650                0.00010000               -0.22809614               -0.50032286                2.76687171               -1.91656430                1.98905069                9.05636626
              13.11352821                8.75255613               53.80497605                0.00010000               -0.17080196               -0.83336367                2.64931716               -1.57073414                1.38304277                5.85258813
              14.11176926                8.60030184               53.66452865                0.00010000               -0.22785125               -0.82127573                2.42151547               -1.40500227                1.16862938                3.98461118
              15.10897118                8.45154526               53.52221978                0.00010000               -0.31998607               -0.63162899                2.06016234               -1.23102386                0.85722473                2.73790762
              16.10536953                8.30668464               53.37776150                0.04862443               -0.37363665               -0.30296384                1.55090526               -0.93297081                0.52599887                1.88737772
              17.10149845                8.16655422               53.23095090                0.25651111               -0.34776837                0.07661350                0.90937361               -0.49051352                0.23217561                1.37508917
              18.09841417                8.03163120               53.08235616                0.70874857               -0.30842807                0.34078808                0.20534030               -0.24158799                0.08743138                1.15569546
               8.35901456               10.55909157               54.58570370                0.92402631               -4.40143826                6.49315641                3.44194526                6.98638467                0.01697321               36.89446222
               9.31500018               10.40641240               54.45845805                0.33402499               -4.62588550                7.15834151                3.39829792                1.72117478                1.51070885               54.75222954
              10.26649685               10.25761208               54.34075451                0.00010000               -2.76577165                1.11775659                4.94378449               -0.28269195                2.04664126               39.05945789
              11.25968474               10.06748646               54.19671410                0.00010000               -0.54625771               -1.04586493                5.12910618               -3.37592055               -1.16881392               13.34563720
              12.25557170                9.90007280               53.99146275                0.00010000               -0.34923175               -1.28441769                4.01697735               -1.86571113               -2.34435086                7.55957407
              13.25270011                9.74208732               53.82020310                0.00010000               -0.36246502               -1.18874508                3.47025219               -1.37507972               -0.43756385                4.52374638
              14.24832240                9.59091184               53.66108193                0.00010000               -0.47264311               -1.00939610                2.97488925               -1.13168185                0.07692641                2.88444635
              15.24324725                9.44444501               53.50796682                0.00010000               -0.50911268               -0.75820498                2.43321594               -0.93426415                0.16105702                1.87222297
              16.23814014                9.30273117               53.35684503                0.08117472               -0.48083831               -0.46350673                1.82563666               -0.63924760                0.08044181                1.26725605
              17.23363048                9.16583788               53.20648730                0.29953625               -0.39362447               -0.18262598                1.20418514               -0.28130362                0.02105517                0.99876831
              18.23026765                9.03301315               53.05669010                0.72120481               -0.33628286               -0.01412553                0.65026872               -0.12187225               -0.01724974                0.97564221
               8.56388341               11.59585725               54.82158946                0.89014714              -10.90073351                0.65014060                9.12009878                5.35086184               34.41833783               21.13899950
               9.45487608               11.46873761               55.07084850                0.36495642               -5.45698290                3.11436252               18.93355614                0.63546349               15.50990925               35.81217452
              10.45474376               11.25037628               54.89661038                0.00010000               -2.33825426               -0.36462617               18.51378262               -0.61491252              -21.88244493               30.51774587
              11.40811099               11.04976929               54.27057914                0.00010000               -2.57367696               -2.36506769                7.26886706               -1.91398008              -24.04800321                8.66347851
              12.40327022               10.88291747               54.02200353                0.00010000               -0.64617117               -1.77944726                5.32337565               -0.97948164               -4.82160327                4.30774989
              13.39518757               10.72878123               53.81949387                0.00010000               -0.82461480               -1.40147194                4.22590266               -0.70117709               -2.01146576                2.45454881
              14.38677792               10.58011391               53.64725927                0.00010000               -0.83605019               -1.10310586                3.48644965               -0.62908843               -0.66833716                1.51386807
              15.37846657               10.43638116               53.48631548                0.00010000               -0.77931035               -0.82507888                2.78477095               -0.51265116               -0.35165191                0.94248852
              16.37119171               10.29741451               53.33064894                0.12808847               -0.64380813               -0.56403924                2.07877688               -0.32859335               -0.26129996                0.62330777
              17.36559040               10.16290170               53.17800962                0.35760257               -0.47827606               -0.35233644                1.44904413               -0.11978320               -0.15021536                0.51095107
              18.36162619               10.03134868               53.02787223                0.72439964               -0.39642111               -0.23757556                1.01591585               -0.04744816               -0.10006673                0.56459466
               8.72027107               12.57209438               54.91909583                0.94868366               -4.70806527               -2.37628700               14.26962799                5.29929323               21.51692776               14.95658469
               9.67319042               12.46869965               55.05656290                0.72410327               -2.35520732               -0.00379583               16.57471412                5.74269287               11.83716528                9.08348821
              10.67316693               12.25031956               54.88232286                0.45459690               -4.21632355               -0.00567217               16.57770168               -0.58341041              -17.21662689                7.10851565
              11.58886395               12.02018511               54.29797468                0.36854822               -5.80984034               -2.95841803                9.92497613               -1.21648944              -22.36980265                7.45657118
              12.55697012               11.86448386               54.00459169                0.36029462               -2.36919109               -1.84336146                6.15500045                0.06362876               -6.47953106                2.43313932
              13.54148013               11.71405788               53.79519801                0.36712831               -1.44147102               -1.47233541                4.84643303               -0.15245093               -2.16198542                1.38088591
              14.52814070               11.56884973               53.61873835                0.38874204               -1.28932490               -1.12641871                3.97324349               -0.16944427               -0.79492642                0.79198298
              15.51569363               11.42794344               53.45557206                0.42566077               -1.15464807               -0.84377236                3.16581174               -0.14726064               -0.48371801                0.46990522
              16.50504774               11.29145039               53.29830043                0.59246763               -0.91964931               -0.59641197                2.34769980               -0.07201180               -0.43005982                0.30184256
              17.49730064               11.15879115               53.14454603                0.71267044               -0.63115117               -0.41105443                1.61557177                0.01158609               -0.28914503                0.25178867
              18.49242471               11.02826164               52.99416908                0.86379826               -0.48759283               -0.30870500                1.18673174                0.02690034               -0.19150439                0.29785634
               7.25100405                2.54556183               55.63180039                1.00000000               -0.35707568               -0.35824851                1.28743652               -0.06962317               -0.12693161                0.12751035
               8.24743330                2.39956535               55.50034549                1.00000000               -0.33286504               -0.27315159                1.02371956               -0.04059424               -0.18086556                0.03999860
               9.24434675                2.25301796               55.36778001                1.00000000               -0.29370921               -0.19213508                0.80410639               -0.04194704               -0.23353982                0.01113903
              10.24155911                2.10567858               55.23512631                0.65854102               -0.26156664               -0.11417614                0.59964897               -0.05086044               -0.20083864                0.00008771
              11.23911542                1.95735277               55.10289931                0.64349427               -0.21965164               -0.04124909                0.39410817               -0.06237496               -0.11256978                0.00015802
              12.23716608                1.80793097               54.97146542                0.58012149               -0.16627512                0.02808901                0.17991939               -0.06934796                0.03118649                0.00298674
              13.23578992                1.65737928               54.84110395                0.34434201               -0.10932783                0.09805747               -0.03260676               -0.06346567                0.23808607                0.00429758
              14.23497952                1.50563233               54.71186135                0.00010000                0.01576446                0.16288468               -0.22879401               -0.04120579                0.35380202                0.02866444
              15.23610521                1.35266215               54.58019537                0.00010000               -3.17816751                0.24631570               -0.54725753               -1.10439801               -0.38797741                0.26713507
              16.17141617                1.17744809               54.43057385                0.77304080               -2.99017475                0.35362457               -1.63450190               -0.22363506               -4.07662360                1.63462863
              17.17630171                1.00772608               54.33858026                1.00000000                0.48855389                0.29923180               -0.95412743               -0.10956384               -0.97185108               -1.79476119
               7.39630430                3.54197935               55.56497966                1.00000000               -0.30050162               -0.32811495                1.10890828               -0.02184180               -0.03766686                0.18339926
               8.39329929                3.39683383               55.43353173                1.00000000               -0.27168179               -0.24627170                0.84389804                0.00671117               -0.06270448                0.07003152
               9.39087067                3.25109661               55.30153992                1.00000000               -0.22080920               -0.16421899                0.60907753                0.00123367               -0.08009642                0.01644344
              10.38888310                3.10453681               55.16960551                0.47085596               -0.17525967               -0.08229204                0.38437926               -0.01596690               -0.03758592               -0.00861033
              11.38736548                2.95694028               55.03817255                0.50966578               -0.12118781               -0.00634061                0.15577277               -0.03893953                0.04914144               -0.00403534
              12.38645935                2.80821186               54.90749628                0.44844868               -0.05304467                0.06211066               -0.08599381               -0.05249392                0.17127290                0.00532756
              13.38630458                2.65835985               54.77766828                0.15897407                0.02333410                0.13220888               -0.33460934               -0.04689917                0.32683934                0.00249523
              14.38692603                2.50726117               54.64858255                0.00010000                0.14243809                0.21296372               -0.57272723               -0.00406717                0.33561899               -0.03198599
              15.38915334                2.35512530               54.51673235                0.00010000               -2.26390879                0.28106282               -0.92450345               -1.07374130                0.87265976                0.19096743
              16.34164785                2.18098434               54.39660206                0.77905700               -2.21126298                0.23448912               -0.91047360               -0.29473156               -0.93089607                1.55118117
              17.34492808                2.01071840               54.29381676                1.00000000                0.32802296                0.30246018               -0.91432352               -0.27078623                0.06512230               -1.88521322
               7.54085824                4.53899953               55.49931105                1.00000000               -0.24079907               -0.26748747                0.91058308               -0.01687132               -0.00447625                0.24608317
               8.53845025                4.39463991               55.36733322                1.00000000               -0.20949002               -0.19134377                0.65544159                0.01653088               -0.00042331                0.10388695
               9.53666844                4.24973358               55.23537988                0.80896514               -0.15270733               -0.10984975                0.41698186                0.01475572                0.02836320                0.01020199
              10.53539611                4.10403274               55.10380920                0.00010000               -0.10034283               -0.02132560                0.17666431               -0.00822887                0.11039708               -0.05198403
              11.53466159                3.95722596               54.97319772                0.00010000               -0.03497377                0.05985244               -0.07662498               -0.04175613                0.22362145               -0.08509600
              12.53469663                3.80917318               54.84342641                0.00010000                0.05705160                0.12815804               -0.34351797               -0.06322691                0.33102653                0.01065775
              13.53580262                3.66002345               54.71419900                0.00010000                0.17180478                0.20831415               -0.65011717               -0.04487034                0.39806186               -0.00544872
              14.53813273                3.50989160               54.58438418                0.00010000                0.25522981                0.30512244               -0.95273926               -0.04379102                0.42819624               -0.17224481
              15.54090722                3.35828340               54.45449763                0.04838999               -1.41021413                0.35634988               -1.08603377               -1.63656451                2.42326448                2.67540251
              16.50992844                3.18213788               54.36642450                0.58879946               -1.47446758               -0.01398505               -0.09704051               -0.55811189                1.61224075                1.33692153
              17.51141786                3.01377529               54.24360174                1.00000000                0.14894190                0.33098517               -0.95501527               -0.29165948               -0.13994303               -1.66329656
               7.68468611                5.53662960               55.43382526                1.00000000               -0.17902588               -0.20622606                0.70857132               -0.01703465                0.01338504                0.23396671
               8.68289585                5.39300696               55.30123675                0.77398441               -0.14565755               -0.13556592                0.46456289                0.02059432                0.03431285                0.09106830
               9.68177296                5.24889962               55.16903907                0.22760637               -0.08348513               -0.06031123                0.23311499                0.03047543                0.08985919               -0.01939643
              10.68122615                5.10411030               55.03739907                0.00010000               -0.01915272                0.02739748               -0.00802204                0.00605046                0.18109142               -0.09743303
              11.68138991                4.95813733               54.90673118                0.00010000                0.05855822                0.10863859               -0.27995057               -0.04652637                0.41913750               -0.23543192
              12.68239732                4.81077502               54.77950827                0.00010000                0.16494238                0.34756059               -0.60410411                0.12773464                0.56590081                2.88637536
              13.68468876                4.66252613               54.65078175                0.00010000                0.26964724                0.33250634               -0.96988605                0.12484085                0.40553508                3.68982571
              14.68779026                4.51336362               54.51900212                0.00010000               -0.02564882                0.29967870               -1.26032038               -0.01396660                3.07715581                4.36014959
              15.68417578                4.36225230               54.44460569                0.00010000               -0.63982637               -0.02083078                0.34174299               -1.65344946                4.28471038                4.24092574
              16.67499373                4.18070464               54.33115372                0.04820753               -0.41778529                0.45065654                0.65842277               -0.95577303                1.23409958                1.30979054
              17.67582007                4.01733810               54.20063397                0.60517927                0.08263396                1.07659324               -1.10465830               -0.52521799                0.43190999               -1.27659491
               7.82776283                6.53487501               55.36800946                1.00000000               -0.11707109               -0.14183375                0.50880255               -0.01941731                0.02982760                0.18331493
               8.82659212                6.39192860               55.23484945                0.47725987               -0.07941116               -0.08121132                0.27275097                0.01520694                0.05767653                0.03644280
               9.82617461                6.24852736               55.10237615                0.03561074               -0.01563571               -0.01589157                0.05079128                0.03626877                0.12803132               -0.03148605
              10.82627940                6.10458069               54.97075431                0.00010000                0.04458690                0.05457305               -0.13169839                0.01121310                0.15553510               -0.12081440
              11.82706634                5.95939873               54.83884752                0.00010000                0.32915579                0.25388972               -0.40673224                0.39617471                3.48059155                5.01261461
              12.83286252                5.81612439               54.77312480                0.00010000                0.43222443                0.09816125                0.37032544                0.24571756                5.05582527                6.13531711
              13.83571083                5.66667358               54.66149566                0.00010000                0.26323539               -0.03441708                0.47492614               -0.04973711                2.98504939                6.95455776
              14.83812723                5.51588517               54.54663811                0.00010000                0.23931887               -0.24005416                0.75600768               -0.52468583                3.14435541                7.11121468
              15.84049721                5.35786679               54.42972957                0.00010000               -0.12000234               -0.47100350                1.00684757               -1.15286222                2.76470546                3.68331604
              16.83572718                5.19115101               54.30322058                0.08657640               -0.64253195                0.80266851                1.21691657               -0.75750897                1.27256659                1.32685620
              17.82764657                5.03530715               54.15541049                0.62865224               -0.80806098                1.62023215               -1.61665670               -0.42602967                0.49527350               -1.37194650
               7.97019060                7.53379292               55.30151325                0.97867619               -0.06429514               -0.08112741                0.31611848               -0.02110538                0.04049816                0.12582199
               8.96954764                7.39138273               55.16768082                0.35685057               -0.01721739               -0.02661931                0.08800226                0.01026937                0.12845972               -0.05801349
               9.96984625                7.24858179               55.03582190                0.00010000                0.05156985                0.57587285               -0.14062232                0.41629592                0.18226361                4.72281077
              10.97057904                7.10520176               54.90366747                0.00010000                0.39617232                0.34563705               -0.13880274                0.52961393                5.38293287                8.31095663
              11.97776969                6.96321512               54.87736207                0.00010000                0.47288882               -0.11579533                1.28708092                0.21492486                7.89350102                9.34824995
              12.98003682                6.81273824               54.78188098                0.00010000                0.30817682               -0.58897248                1.33450526               -0.38303345                4.44042503                6.96617863
              13.98393323                6.66183779               54.67297725                0.00010000                0.30332597               -0.77582032                1.61068594               -0.60779340                3.58812390                6.10361902
              14.98610334                6.50856254               54.55128281                0.00010000                0.09597360               -0.85505407                1.72545313               -0.98480830                2.87351086                4.88243953
              15.98585270                6.35283223               54.42096866                0.00010000               -0.18500736               -0.49647663                1.55726414               -1.36076301                2.09907456                3.20560323
              16.98240319                6.19675801               54.28009700                0.13368510               -0.34327566                0.50594050                0.56761396               -0.88592122                1.12168164                1.47406561
              17.97898719                6.04974275               54.12848000                0.65124433               -0.34160003                1.28875926               -0.63627553               -0.21645050                0.45008763                0.52195619
               8.11216110                8.53325246               55.23447095                0.94065891               -0.01524620               -0.03450280                0.13787544               -0.02071344               -0.00796189                0.07322970
               9.11200864                8.39139621               55.09931772                0.30590962                0.42601942                0.02380662               -0.06404376                0.55463406                4.97801711               -0.09389698
              10.12068149                8.26004482               55.06388064                0.00010000                0.51148523                0.88922942                0.84083658                0.95274852                9.22444911               12.57643562
              11.12223835                8.11149343               55.00545003                0.00010000                0.15734354                0.06469321                1.86348175               -0.06061062                7.14197379               14.57992122
              12.12382836                7.95708282               54.91295828                0.00010000                0.21704186               -0.78013654                2.12440828               -0.59018328                5.19379543                9.45245484
              13.12657918                7.80434494               54.80676216                0.00010000                0.19511539               -1.06369946                2.38373987               -0.71711274                3.94028065                7.03531518
              14.12773067                7.65115717               54.68320179                0.00010000                0.04287201               -1.16140685                2.41896877               -1.04197111                2.86457453                5.14673923
              15.12743662                7.49878409               54.55060196                0.00010000               -0.13220945               -0.99758370                2.26602056               -1.23888002                2.16198176                3.67058003
              16.12508648                7.34793725               54.40964655                0.00467116               -0.31691911               -0.50298715                1.79077050               -1.18101885                1.40257929                2.40060120
              17.12109824                7.20126982               54.26036568                0.18541087               -0.38691988                0.28729969                0.91697291               -0.71824202                0.61895108                1.58244913
              18.11734808                7.06108234               54.10495694                0.67389318               -0.37501574                0.92126252               -0.39216755               -0.40725716                0.26415532                1.34276386
               8.25348883                9.53310286               55.16697437                0.91989775                0.03591397                3.88528480               -0.01733866                4.41018091                0.02687982               25.82514062
               9.25384797                9.39185886               55.03150321                0.29559313                0.76575848                1.80751796               -0.20859346                3.40563246               13.86277329               27.35874727
              10.26880400                9.26636637               55.17252277                0.00010000                0.92404243               -0.08688195                1.94841697                1.29041854               18.30051701               20.71692631
              11.27232882                9.10649563               55.09841925                0.00010000                0.21552552               -0.76886296                2.79713748               -0.50633323                5.83239467               15.23134940
              12.27311451                8.94761239               54.97414665                0.00010000               -0.03543035               -1.22918032                3.20763373               -0.60522343                2.88506988                9.76134983
              13.27162021                8.79146425               54.83407672                0.00010000               -0.22299268               -1.36065322                3.25205734               -0.87579599                2.00512163                6.23481956
              14.26865466                8.63860965               54.69156167                0.00010000               -0.35372788               -1.26963217                3.05800659               -1.08881745                1.61051247                4.11507570
              15.26454566                8.48861086               54.54543760                0.00010000               -0.44540277               -0.99780659                2.63768731               -1.16477995                1.13077908                2.65461217
              16.25974660                8.34277249               54.39531815                0.04218023               -0.48261940               -0.53968437                1.98684200               -0.94231808                0.63849171                1.73649189
              17.25489327                8.20250400               54.24123515                0.23768154               -0.42647985               -0.00120598                1.13627735               -0.46316048                0.23341600                1.41935280
              18.25121701                8.06816800               54.08457296                0.69221157               -0.36762619                0.43973200                0.22433235               -0.18091921                0.05301423                1.62500807
               8.48285273               10.61095816               55.61511153                0.91681641               -3.59949450                5.15475645                2.89538354                1.45194814                2.52218008               44.05904806
               9.44685778               10.42754657               55.51209651                0.32147534               -2.54998144                4.56824346                3.84767860                1.12609032                3.67931729               55.13628678
              10.43185310               10.25830718               55.40346173                0.00010000               -0.79960589               -0.08113822                4.58024688                1.43545164                3.07507389               37.74043362
              11.43086566               10.09611617               55.23907726                0.00010000               -0.25489146               -1.36375859                4.14707341                1.02837499               -1.12600495               15.67087304
              12.42675527                9.93249922               55.03415903                0.00010000               -0.63998310               -1.56144997                4.39352519               -0.24088603               -1.83064372                8.12509723
              13.41806600                9.77713188               54.85749782                0.00010000               -0.89737784               -1.43393680                4.07684276               -0.56016014               -0.25579865                4.81272782
              14.40880771                9.62576453               54.69370464                0.00010000               -0.90439049               -1.23956445                3.60804715               -0.84981377                0.15329220                2.88150592
              15.39997819                9.47882796               54.53470121                0.00010000               -0.82303643               -0.94489860                2.95662326               -0.87769306                0.06807543                1.71644050
              16.39234698                9.33714357               54.37679570                0.08160766               -0.67693347               -0.57921408                2.17284916               -0.63807794               -0.10389171                1.09962454
              17.38643952                9.20124570               54.21949089                0.28797234               -0.49726371               -0.22267003                1.37532394               -0.25198614               -0.13071926                1.03847334
              18.38240171                9.06987698               54.06381217                0.70437886               -0.40378136                0.00272966                0.73395935               -0.07726727               -0.10562113                1.45514964
               8.64935097               11.63619799               55.94768292                0.88074532               -2.03302141                0.73807596                8.51381189                1.46443649               24.98092986               27.18328417
               9.62902076               11.48322373               56.07109764                0.34654958               -1.02037686                2.78126462                0.02736942                1.45831779               14.87386917               28.68736863
              10.62894344               11.26474361               55.89686096                0.00010000               -0.51582401                0.31923905                0.02685681                0.57962602              -18.21819716               25.39124855
              11.61870428               11.07922046               55.35839924                0.00010000               -2.08311782               -1.32670618                6.81274964                1.40825787              -21.77041036               11.08564652
              12.58728108               10.91638339               55.07441165                0.00010000               -2.57762906               -1.47545882                5.55915209                0.35829406               -6.31109134                4.81716545
              13.56715170               10.76278552               54.86537751                0.00010000               -1.86593899               -1.36988047                4.88659257               -0.15990964               -2.16880745                2.63037353
              14.54996230               10.61381837               54.68501864                0.00010000               -1.57694702               -1.14618176                4.13669765               -0.44504388               -0.98475754                1.47768752
              15.53561276               10.46971289               54.51652557                0.00010000               -1.26974955               -0.87759647                3.28528736               -0.48587446               -0.77865526                0.81303833
              16.52456731               10.33118821               54.35290887                0.13914329               -0.92463108               -0.59351129                2.36364050               -0.33355089               -0.73925220                0.49739168
              17.51712014               10.19805060               54.19328651                0.35632046               -0.60791042               -0.36099405                1.56161640               -0.10629775               -0.46922449                0.52525655
              18.51240910               10.06822259               54.03882450                0.70781140               -0.47110354               -0.24249653                1.13165430               -0.01704242               -0.27054796                0.90136736
               8.81808998               12.62571968               56.07945390                0.94316779                2.93885412               -1.04783165               10.59419968                2.61911890               12.14351311               18.31994845
               9.84747852               12.48317186               56.05664848                0.71304243                1.46794570               -0.00518708                0.01266282                3.79439008                7.58006214                0.01292737
              10.84744889               12.26469196               55.88240729                0.45193206               -2.00437415               -0.00516521                0.01201711                1.17105475              -15.08009575               -0.00245854
              11.80739104               12.06958204               55.40643882                0.36835718               -4.85464030               -0.96384130                8.22634363                0.78357994              -21.13554891                8.74135145
              12.75035609               11.90299004               55.06790790                0.36036551               -4.49791009               -1.33933517                6.60879375                0.31511195               -8.98992899                2.82334898
              13.71743284               11.74973427               54.84760235                0.36688815               -2.86883139               -1.30512493                5.58809497                0.02065638               -2.67431088                1.48263481
              14.69297946               11.60284089               54.66179227                0.38780772               -2.22709868               -1.09774709                4.70328172               -0.12119600               -1.32676060                0.77257405
              15.67289086               11.46127603               54.48981594                0.42403375               -1.78206016               -0.84368605                3.71063801               -0.15056731               -1.18762170                0.39988134
              16.65733826               11.32527334               54.32326292                0.60163525               -1.28058397               -0.59148648                2.62256597               -0.08541618               -1.23712439                0.24363541
              17.64727918               11.19402582               54.16126167                0.71497764               -0.78106875               -0.40247857                1.65588086                0.00358981               -0.89427655                0.27692855
              18.64171688               11.06502705               54.00663556                0.85514020               -0.55623014               -0.31955449                1.23389934                0.03090102               -0.57099600                0.55424886
               7.38271542                2.61443012               56.64467988                1.00000000               -0.35308043               -0.35728057                1.28033308               -0.06880487               -0.09143041                0.10560391
               8.37918462                2.46765096               56.51056809                1.00000000               -0.32638372               -0.27218265                1.01533202               -0.03852220               -0.12178392                0.03454261
               9.37618775                2.32034391               56.37573586                1.00000000               -0.28085296               -0.19044713                0.78460124               -0.03760076               -0.14592194                0.01057707
              10.37356756                2.17228806               56.24094463                0.64866060               -0.24028762               -0.11026885                0.56468272               -0.04364923               -0.10807057                0.00100347
              11.37138200                2.02329743               56.10654399                0.62210167               -0.18341130               -0.03474966                0.34129239               -0.05272856               -0.03546062                0.00238529
              12.36989933                1.87327003               55.97277756                0.54733945               -0.09429997                0.03579769                0.09778735               -0.05904669                0.07478891                0.00392040
              13.36949600                1.72227013               55.84008198                0.29118392                0.02487080                0.09978860               -0.16147081               -0.03670934                0.22681305               -0.01982144
              14.37039675                1.57085245               55.70828991                0.00010000                0.11011815                0.14503328               -0.39264557                0.00972112                0.30316405                0.00635193
              15.37169836                1.41945414               55.57488196                0.00010000               -6.01543998                0.18376854               -0.46707062               -1.96413653               -0.81194241                0.19732705
              16.25008795                1.22812282               55.42006040                0.69568938               -5.89984980                0.05472902               -0.61856436                0.10993623               -4.11187048                2.12299434
              17.25370136                1.03003928               55.32321432                1.00000000                0.36134135                0.57790306               -1.87078867               -0.32680146               -1.28033076               -2.26876651
               7.52880653                3.61085731               56.57606974                1.00000000               -0.29640295               -0.32858145                1.10163558               -0.02178442               -0.01986956                0.15741795
               8.52584250                3.46492914               56.44195409                1.00000000               -0.26566695               -0.24615700                0.83582846                0.00843554               -0.02788573                0.06362364
               9.52349319                3.31843944               56.30756680                1.00000000               -0.20940956               -0.16422490                0.59436121                0.00712961               -0.02589632                0.01797105
              10.52165431                3.17118537               56.17331930                0.46516154               -0.15647316               -0.08234347                0.36037874               -0.00508245                0.01765074               -0.00480806
              11.52036373                3.02294993               56.03952055                0.49374885               -0.09158977               -0.00396369                0.12080190               -0.02414409                0.08793837               -0.00007720
              12.51982251                2.87362800               55.90630652                0.42312699               -0.00130185                0.06649711               -0.13633199               -0.04014243                0.17844828                0.01080774
              13.52033769                2.72326802               55.77390772                0.11887796                0.10397196                0.13366352               -0.41223721               -0.02695435                0.29944898               -0.01758787
              14.52190195                2.57230278               55.64259554                0.00010000                0.15420600                0.17654379               -0.58675847                0.02995557                0.30903566               -0.06164099
              15.52342181                2.42129183               55.50988521                0.00010000               -3.80036051                0.16349116               -0.54190942               -1.96357390                0.92001522                0.15865170
              16.44589474                2.22867011               55.39161588                0.62074261               -3.74524649               -0.02095662               -0.14983316               -0.01909941               -0.27240185                2.08551170
              17.44851688                2.03581831               55.28045272                1.00000000                0.26221383                0.53838408               -1.64226557               -0.12372769                0.04871619               -2.33134942
               7.67413609                4.60785849               56.50843099                1.00000000               -0.23648848               -0.27017390                0.90654653               -0.01977200                0.00782301                0.21446521
               8.67177120                4.46272782               56.37387362                1.00000000               -0.20309923               -0.19341778                0.64870947                0.01327912                0.02218134                0.09505495
               9.67007410                4.31705941               56.23949573                0.80195167               -0.14078914               -0.11482582                0.40556347                0.01538387                0.05907281                0.01719000
              10.66895542                4.17064119               56.10550404                0.00010000               -0.08088096               -0.02730962                0.16300621               -0.00006636                0.13276801               -0.04196387
              11.66845648                4.02321815               55.97231211                0.00010000               -0.00885116                0.05534959               -0.09379686               -0.02995028                0.22396630               -0.07179094
              12.66877840                3.87459997               55.83976719                0.00010000                0.09128226                0.12536540               -0.36806655               -0.04516083                0.28610070                0.01215400
              13.67028213                3.72494340               55.70746525                0.00010000                0.20968247                0.20090824               -0.67074362               -0.05077755                0.32099781               -0.00009200
              14.67297205                3.57438333               55.57564719                0.00010000                0.28887144                0.26388001               -0.86834472               -0.07682739                0.41681797               -0.19338962
              15.67605956                3.42272397               55.44602969                0.02856087               -1.88962842               -0.17794576               -0.43915034               -2.24070963                2.84880161                3.61946594
              16.63517948                3.22770368               55.36742630                0.53685220               -1.95645819               -0.12835555                0.39502024               -0.55630267                2.83979758                2.08839414
              17.63693039                3.04080696               55.23194109                1.00000000                0.17509161                0.43175437               -1.48840800               -0.24161151                0.00627203               -2.43636260
               7.81867242                5.60545384               56.44094567                1.00000000               -0.17652641               -0.20788737                0.70897845               -0.02539975                0.02368930                0.20581359
               8.81690716                5.46106078               56.30586723                0.74615496               -0.13924628               -0.13852614                0.45852283                0.00378308                0.05461622                0.08443645
               9.81588750                5.31614292               56.17132685                0.21072183               -0.07064587               -0.06877717                0.22328770                0.00526935                0.10976368               -0.01189633
              10.81549424                5.17063918               56.03720236                0.00010000               -0.00407760                0.02234122               -0.02285534               -0.01095193                0.18519075               -0.05578663
              11.81580595                5.02405692               55.90391009                0.00010000                0.08499026                0.10808820               -0.28720776               -0.04854178                0.37471064               -0.20326450
              12.81719405                4.87613531               55.77327143                0.00010000                0.18664179                0.12547848               -0.60931364                0.43374499                0.45592738                3.58535736
              13.81953878                4.72728618               55.64131045                0.00010000                0.26953949                0.04949512               -0.91714123                0.67434707                0.26774232                4.66255612
              14.82258484                4.57758038               55.50703732                0.00010000                0.28742392               -0.16862487               -1.19406836                0.39356937                4.14997998                5.68634053
              15.82528726                4.41773292               55.45263394                0.00010000               -0.29495725               -0.87988666                1.33423507               -1.61217996                6.72835833                5.15474690
              16.81668569                4.22610299               55.34277794                0.04353856               -0.39045863               -0.03761089                1.14183261               -0.72245050                2.15100321                2.22603758
              17.81747809                4.04445340               55.18334368                0.61668136                0.07923954                0.14388798               -1.64851531               -0.31907245               -0.33185187               -2.45683329
               7.96241420                6.60370074               56.37315595                1.00000000               -0.12564244               -0.14171115                0.51481134               -0.03092546                0.03738966                0.16074097
               8.96115778                6.45995730               56.23757538                0.45930020               -0.09065557               -0.07968524                0.26940968               -0.00852399                0.07494163                0.03432189
               9.96060109                6.31568387               56.10274192                0.02253166               -0.01676968               -0.00606897                0.02306445               -0.01947724                0.18594986               -0.03136194
              10.96082238                6.17108802               55.96929992                0.00010000                0.06942142                0.06073247               -0.17939786               -0.11647587                0.19316069                0.05435746
              11.96198952                6.02537992               55.83425898                0.00010000                0.67008266               -0.25497342               -0.46505012                0.38414776                4.07968399                6.21063369
              12.97422404                5.87710954               55.77831002                0.00010000                1.01672399               -0.53015664                0.68170740                0.68202980                6.10779734                7.36275807
              13.98232400                5.72593330               55.66824421                0.00010000                0.80863316               -0.79318430                0.91171317                0.70012677                4.04217915                8.54128703
              14.99039670                5.57101083               55.55755083                0.00010000                0.64846742               -1.17000337                1.40626615                0.17249423                4.67434997                8.73443726
              15.99529335                5.40512623               55.44233503                0.00010000                0.18066411               -1.23960712                1.79457316               -1.00255003                4.86395613                3.96628276
              16.99400998                5.22695147               55.32333357                0.07516180               -0.07226068                0.25793863                1.23603657               -1.51550467                1.98843745                0.83085859
              17.99384813                5.04368472               55.13228852                0.63378807               -0.01618490                1.61869435               -1.33405565               -2.13279735               -1.21543474               -1.20320313
               8.10554080                7.60261961               56.30477797                0.96096566               -0.07872463               -0.08224487                0.32833761               -0.02364708                0.03818345                0.10897916
               9.10475355                7.45946708               56.16855808                0.34589365               -0.05867817               -0.02561433                0.09014588                0.01868648                0.12746079               -0.04662195
              10.10436724                7.31602154               56.03419537                0.00010000               -0.06424375                0.06635402               -0.22161748                0.69809381                0.39139427                5.44079030
              11.10346868                7.17185383               55.90332569                0.00010000                0.65500721               -0.75017564                3.77651736                0.72973360                7.46444210                9.35194152
              12.11746738                7.01895745               55.89412403                0.00010000                1.34062888               -1.15180662                1.45730425                0.50125683                9.29932177               10.85828504
              13.13028126                6.86553218               55.79722253                0.00010000                1.10863231               -1.49221913                1.89423711                0.13069547                5.34265074                8.03390489
              14.13964003                6.71142250               55.69221065                0.00010000                0.82802671               -1.71227870                2.26494068               -0.24063056                4.87255774                7.00470895
              15.14684179                6.55418032               55.57216562                0.00010000                0.48277980               -1.73382122                2.45084102               -0.89165070                4.28522689                5.34492281
              16.14929562                6.39294077               55.44062683                0.00010000                0.04876597               -1.13366247                2.48000725               -1.40577530                3.31445125                3.25297732
              17.14781711                6.23126177               55.28638553                0.10818942               -0.39699998                0.39324907                1.31245820               -1.23337658                1.53103781                0.58266935
              18.14135562                6.07682729               55.12101056                0.64233451               -0.64614866                2.66374879               -1.71844066               -1.06815715                1.00874120                1.68949436
               8.24824633                8.60205585               56.23595841                0.92882223               -0.01167569               -0.03816276                0.15166086               -0.02425813               -0.00700136                0.06684885
               9.24812958                8.45944501               56.09862465                0.29781748                0.69649397                0.02499319               -0.07472489                0.04408517                5.66768875               -0.06904005
              10.26217621                8.31701095               56.07474876                0.00010000                1.21757854               -0.66214809                1.35445649                0.64191031               10.92028442               13.86643457
              11.27248115                8.15608450               56.02980219                0.00010000                0.80800476               -1.50837461                2.19060993                0.74891509                8.28622589               15.85054606
              12.27833631                8.00234378               55.93739896                0.00010000                0.59458785               -1.81626901                2.96690611                0.54712453                5.98159740               10.29985949
              13.28437290                7.84726516               55.83391085                0.00010000                0.52634713               -1.95076594                3.08004137               -0.23608456                4.86028932                7.84435917
              14.28886325                7.69168773               55.71082486                0.00010000                0.33362526               -1.96609955                3.16500386               -0.89760784                3.74941718                5.53296953
              15.29104541                7.53633440               55.57681977                0.00010000                0.06165696               -1.68210292                2.99890024               -1.41231268                3.00216243                3.61603373
              16.29009639                7.38245299               55.43064448                0.00010000               -0.27947366               -0.93377194                2.42414302               -1.42358778                2.07877564                2.03500601
              17.28545594                7.23481645               55.27156948                0.15578368               -0.43712197                0.22771486                1.21465410               -0.81992208                1.00459445                1.49308357
              18.28135395                7.09695970               55.09929132                0.65806097               -0.41019858                1.42244186               -0.49455596               -0.21351467                0.33302566                1.92639529
               8.39027730                9.60185636               56.16678207                0.91129984                0.04028518                2.87540637               -0.02085520                4.17315189                0.02922808               27.34718213
               9.39068015                9.45996694               56.02917125                0.28670995                1.51443255                0.50493451               -0.23938732                2.65144850               15.30107824               28.74198974
              10.42056595                9.30277858               56.19693625                0.00010000                2.12169969               -1.44641929                2.27726088                1.02803804               20.23131970               21.84889537
              11.43311415                9.14168634               56.12763099                0.00010000                0.83316343               -1.75802891                3.18259474                0.69198445                6.85310845               16.08590492
              12.43722922                8.98263207               56.00887918                0.00010000                0.15507362               -2.00170171                3.77480071                0.35162376                3.72598752               10.55211110
              13.43621562                8.82651686               55.87001719                0.00010000               -0.23052995               -2.01120389                4.00776335               -0.34329710                2.56010863                6.72066978
              14.43261862                8.67210050               55.72568878                0.00010000               -0.41926693               -1.83013683                3.82116390               -1.03285011                1.97965577                4.20409017
              15.42783028                8.52053826               55.57497353                0.00010000               -0.51383985               -1.43242719                3.29991451               -1.36814428                1.32950461                2.39282975
              16.42234183                8.37426533               55.41749834                0.03172927               -0.54591632               -0.76600235                2.44034439               -1.17729751                0.68537918                1.33609930
              17.41691195                8.23581606               55.25367645                0.21121409               -0.47715004               -0.01302309                1.32085606               -0.52227608                0.19767668                1.31082137
              18.41279882                8.10527612               55.08684281                0.67321258               -0.41131304                0.54524514                0.13458503               -0.14605873                0.02850261                2.46208126
               8.61548821               10.65956397               56.64361137                0.90953339               -1.52518839                3.66621033                2.20473770                2.31773629                3.02649156               46.54631621
               9.60023632               10.46954370               56.53541162                0.30910916               -0.72353152                1.89830343                1.86114507                2.05069300                5.04410570               56.27009002
              10.60101758               10.28808256               56.43235945                0.00010000                0.31155119               -1.17614476                2.55700844                1.69462419                4.18448220               37.92308648
              11.60646735               10.12092393               56.27965557                0.00010000               -0.02396568               -1.87828426                3.91503892                1.81325695               -0.19755608               16.58019429
              12.60053826                9.96230975               56.07933325                0.00010000               -0.92144077               -1.85600825                4.72143095                0.94790241               -1.51060850                9.05116833
              13.58803853                9.80704108               55.90173996                0.00010000               -1.31767056               -1.76163469                4.78881097               -0.11179724               -0.22455107                5.11601885
              14.57418485                9.65508499               55.73324287                0.00010000               -1.32604183               -1.52602348                4.35219952               -0.80195609               -0.04672329                2.83021012
              15.56151769                9.50768586               55.56709929                0.00010000               -1.14561092               -1.15055335                3.54890396               -1.03895564               -0.31300505                1.40627290
              16.55127263                9.36713294               55.40030201                0.08064392               -0.87590352               -0.66851056                2.50961662               -0.79129874               -0.56479262                0.75738839
              17.54399962                9.23455598               55.23399378                0.26939629               -0.58799886               -0.20900118                1.46723494               -0.29449995               -0.47424073                1.02126877
              18.53951265                9.10786460               55.07136929                0.68337048               -0.44869685                0.06382608                0.70596679               -0.05211642               -0.30657483                2.15900023
               8.81667257               11.67518056               56.99186570                0.87148456               -1.34971430                0.76937123                3.14555580                1.93844235               24.49346496               28.61909671
               9.80317542               11.49793301               57.07139588                0.32837765               -0.67971757                1.41564104                0.03058411                1.28385339               12.67802267               27.54744675
              10.80307821               11.27925569               56.89714752                0.00010000               -0.40116607               -0.44524203                0.03022917                1.34723694              -15.81499052               23.96455959
              11.79515210               11.10412065               56.40683414                0.00010000               -1.65040479               -1.09954762                4.40081025                2.02206163              -20.53238177               11.59797537
              12.77007012               10.94551191               56.13318657                0.00010000               -2.69738348               -1.41757140                5.75606572                1.13166288               -6.55383311                5.53791932
              13.74120443               10.79128417               55.91722572                0.00010000               -2.70677002               -1.38900936                5.54542793                0.10695716               -2.83339168                2.81407065
              14.71593472               10.64158003               55.72999322                0.00010000               -2.31006044               -1.21655233                4.88312196               -0.42749645               -1.68123335                1.40147644
              15.69500322               10.49752719               55.55202123                0.00010000               -1.81444961               -0.91627775                3.83309108               -0.58660324               -1.68602580                0.57939467
              16.67964573               10.36089512               55.37792175                0.15407061               -1.23564653               -0.57589662                2.59910884               -0.41521298               -1.66358929                0.26266231
              17.67029029               10.23163604               55.20924195                0.35159462               -0.72532325               -0.30882927                1.53368653               -0.11498135               -1.07990935                0.50067625
              18.66513926               10.10655265               55.05050532                0.68562178               -0.51510312               -0.20700574                1.09781943                0.02887885               -0.58488153                1.39172073
               9.00875216               12.67495140               57.13097982                0.93747194                1.30861037               -0.02291667                3.51150931                1.49847251               11.29547782               18.56266232
              10.02183827               12.49785653               57.05681616                0.70256189                0.65112532               -0.00764840                0.02196517                2.07760074                5.01753981                0.01719884
              11.02177467               12.27917772               56.88256320                0.44922342               -2.05929548               -0.00779633                0.02153607                1.92346801              -12.28094973               -0.00657090
              11.98065236               12.09893297               56.46250155                0.36813185               -4.28833316               -0.51876791                4.90955626                1.28905552              -19.91925701                8.17657686
              12.93600801               11.93395832               56.13676756                0.36038082               -4.32714056               -1.15535862                6.62869073                0.61018464               -9.68117718                3.12538477
              13.89410955               11.77926089               55.90695991                0.36661513               -3.83080547               -1.20232754                6.31325849                0.13029271               -3.69260184                1.54106610
              14.85939190               11.63075395               55.71280398                0.38676683               -3.18195029               -1.08260885                5.52788473               -0.14931136               -2.32221411                0.69833357
              15.83047054               11.48936031               55.52978482                0.42184273               -2.52661877               -0.81668851                4.30875204               -0.21021521               -2.49895063                0.26117700
              16.80885952               11.35561501               55.35075175                0.61424882               -1.72140339               -0.52801166                2.81826771               -0.12766570               -2.69187760                0.12645944
              17.79604247               11.22837940               55.17766364                0.71655889               -0.93012504               -0.32566416                1.48206281               -0.01930787               -1.96059203                0.29770213
              18.79025702               11.10372449               55.01884707                0.84321805               -0.57854517               -0.28281588                1.04677000                0.04628483               -1.23930134                0.95682042
               7.51739902                2.68489418               57.65740705                1.00000000               -0.34573909               -0.35175906                1.25935707               -0.06707948               -0.06446651                0.08836341
               8.51394163                2.53748419               57.52065213                1.00000000               -0.31736222               -0.26834182                0.99767357               -0.03603918               -0.07732389                0.02999796
               9.51105178                2.38956763               57.38347203                1.00000000               -0.26760271               -0.18714588                0.76069555               -0.03316938               -0.08074373                0.01038567
              10.50858958                2.24094929               57.24641996                0.63958780               -0.22392489               -0.10680545                0.53137001               -0.03673463               -0.04017791                0.00278829
              11.50657328                2.09144735               57.10972515                0.60229942               -0.17328531               -0.02767370                0.29913915               -0.04351801                0.01416040                0.00352606
              12.50512387                1.94095144               56.97342116                0.51621055               -0.08797265                0.04869378                0.05498323               -0.05407196                0.07488917                0.00898158
              13.50481383                1.78933136               56.83787454                0.23974451                0.05594788                0.12934615               -0.24118305               -0.07109456                0.15347195               -0.01835878
              14.50624283                1.63714811               56.70400844                0.00010000                0.16410247                0.15229634               -0.43862097               -0.04781676                0.18945415               -0.01169289
              15.50809587                1.48660217               56.57085395                0.00010000               -8.26982118                0.05484364               -0.19852850               -2.97381128               -0.90531299                0.15183939
              16.34084640                1.27679702               56.41820256                0.63463424               -8.18543119               -0.14683473                0.14585900                0.54217897               -3.09509976                2.29165571
              17.34438725                1.04787394               56.30116448                1.00000000                0.35408475                0.74907022               -2.47109432               -0.50816075               -1.32937785               -2.41220022
               7.66413821                3.68137659               57.58701237                1.00000000               -0.28936989               -0.32406351                1.08114453               -0.02105975               -0.00583238                0.13653567
               8.66124451                3.53480077               57.45024830                1.00000000               -0.25753397               -0.24281582                0.81933864                0.01035492               -0.00053706                0.05800416
               9.65898753                3.38769617               57.31342714                1.00000000               -0.19810721               -0.16251482                0.57570045                0.01240833                0.01702599                0.01986247
              10.65728237                3.23988124               57.17681309                0.46390424               -0.14252544               -0.08194464                0.33846724                0.00599753                0.06086317                0.00006496
              11.65613702                3.09117061               57.04058859                0.48328000               -0.08206116               -0.00233720                0.09708292               -0.00691841                0.11490840                0.00357404
              12.65564114                2.94143838               56.90476964                0.40287585               -0.00662383                0.07499568               -0.15670317               -0.02020763                0.16198105                0.01994077
              13.65600455                2.79062482               56.76942353                0.08296431                0.07440539                0.16437629               -0.44780063               -0.06192802                0.29217011                0.00443079
              14.65712925                2.63867107               56.63684739                0.00010000                0.12643813                0.22169591               -0.70846911               -0.09061926                0.47628315               -0.04663846
              15.65853331                2.48715061               56.50589416                0.00010000               -4.57484718                0.06609090               -0.23585797               -3.26670707                1.30973346                0.33986400
              16.56563231                2.27532867               56.39360540                0.47877723               -4.51522964               -0.20266574                0.48841122                0.40903132                1.10752161                2.36452853
              17.56822872                2.05536464               56.26097145                1.00000000                0.25964073                0.71415679               -2.20970342               -0.09007823                0.08334712               -2.59381881
               7.81012945                4.67841291               57.51744198                1.00000000               -0.23003067               -0.26778398                0.88936574               -0.01957481                0.01883711                0.18949193
               8.80782914                4.53262788               57.38030741                1.00000000               -0.19549870               -0.19034228                0.63421385                0.01334534                0.04251601                0.08742710
               9.80621948                4.38631733               57.24349115                0.79111322               -0.12970315               -0.11403347                0.39136875                0.01640491                0.08750872                0.02476613
              10.80523508                4.23931040               57.10706932                0.00010000               -0.06708552               -0.03412722                0.15025662                0.00738197                0.15453113               -0.02727311
              11.80487777                4.09140061               56.97132178                0.00010000                0.00152132                0.04772793               -0.09936953               -0.00905057                0.22677950               -0.05885867
              12.80526551                3.94245136               56.83606508                0.00010000                0.07324027                0.12504757               -0.36642454               -0.01536819                0.25398102                0.01807751
              13.80634257                3.79261889               56.70078413                0.00010000                0.13195725                0.21867365               -0.63677026               -0.02980829                0.30626926                0.02137966
              14.80790465                3.64158203               56.56701729                0.00010000               -0.01192171                0.32578580               -1.02687674               -0.11788900                1.00115580               -0.22059465
              15.80610414                3.48792399               56.44571463                0.00910677               -1.35458289               -0.90543603                2.09187571               -2.21846539                4.12614561                4.80200039
              16.78081300                3.27274370               56.37432491                0.49419939               -1.17952029               -0.30052762                0.91048236               -0.20475801                4.43704897                2.42524540
              17.78251373                3.06215708               56.21383358                1.00000000                0.17007374                0.62446779               -2.02796741               -0.06752066               -0.02146050               -2.73606235
               7.95531678                5.67602091               57.44800483                1.00000000               -0.17097842               -0.20776899                0.69527176               -0.02558174                0.03427334                0.18587372
               8.95360699                5.53099393               57.31040720                0.71855394               -0.13418366               -0.13518447                0.44639622                0.00352170                0.07616948                0.08031708
               9.95263310                5.38541550               57.17350482                0.19158946               -0.06301306               -0.06428643                0.20898642                0.00771756                0.13476750               -0.00811365
              10.95234673                5.23919869               57.03694196                0.00010000                0.00909749                0.01170515               -0.03080305                0.00500734                0.19300002               -0.03509597
              11.95281505                5.09212517               56.90098703                0.00010000                0.08843842                0.09984265               -0.28894890               -0.02436036                0.34918344               -0.17713963
              12.95411550                4.94393933               56.76732200                0.00010000                0.17313274               -0.15114512               -0.57053947                0.93204250                0.39912853                4.41768470
              13.95627771                4.79499829               56.63243893                0.00010000                0.26754328               -0.30098835               -0.86326054                1.61092433                0.20130201                5.80936462
              14.95946637                4.64518679               56.49512075                0.00010000                1.33623096               -0.80682027               -1.11820541                1.18311736                5.73494639                7.25313740
              15.98300233                4.46904189               56.47129039                0.00010000                1.39188477               -1.93622197                1.94549990               -0.49896096                9.67319641                6.09120525
              16.98730406                4.26931812               56.35399038                0.04836346                0.25246093               -0.42915608                1.20953877                0.17707777                3.31730087                1.94161935
              17.98805155                4.06785400               56.16766366                0.63752100                0.07474851                0.57095642               -1.70358628               -0.00069930               -0.13070305               -2.15837819
               8.09967178                6.67425753               57.37830569                1.00000000               -0.11667895               -0.14254298                0.50582851               -0.02947035                0.04700077                0.14670511
               9.09850499                6.52992419               57.24023764                0.43946372               -0.07513563               -0.07964531                0.25819689               -0.00767281                0.08997109                0.04135524
              10.09816906                6.38503160               57.10283744                0.00817081                0.00602854               -0.00123741                0.00884480               -0.00531342                0.22250425               -0.07414123
              11.09862556                6.23954450               56.96716635                0.00010000                0.07404294               -0.37301868               -0.21916076                0.79791722                0.22637659                4.06707561
              12.09964992                6.09339746               56.82954652                0.00010000                1.12038394               -0.74421655               -0.46900765                0.84640964                4.86744376                7.18024354
              13.12103324                5.93942845               56.78675894                0.00010000                1.88318407               -1.30619121                1.05147571                1.39446862                7.48765472                8.91056834
              14.13731360                5.78659912               56.67972992                0.00010000                1.82450851               -1.78234871                1.38467957                1.80903770                5.38279258               10.40674496
              15.15752341                5.62544562               56.57476343                0.00010000                1.73399950               -2.44973639                2.00844267                1.32628798                6.89321624               10.59275526
              16.17199359                5.44919955               56.46562103                0.00010000                1.40095173               -1.97297800                2.45700801               -0.31827815                6.80621993                4.34429887
              17.18554244                5.26416058               56.32794131                0.06750895                0.67171920               -0.45713128                1.41718431               -1.51435946                3.66301846                1.62850088
              18.18542798                5.07357621               56.12872938                0.64387409               -0.01144633                2.43379186               -1.35857611               -1.96541661                0.59518005               -1.27865221
               8.24339405                7.67317005               57.30808000                0.94471004               -0.07145922               -0.08360918                0.32505183               -0.02606125                0.04984625                0.10111378
               9.24267946                7.52940102               57.16948374                0.33370085               -0.02437673               -0.02609763                0.08244539                0.01438928                0.08486628               -0.03326648
              10.24290652                7.38539075               57.03138955                0.00010000                0.86298797               -0.51994889               -0.23545654                0.60389356                4.42976555                6.43571412
              11.25993922                7.23173832               56.97919781                0.00010000                1.34763884               -1.76727284                5.26507348                0.92685955                9.01640188               10.39477430
              12.26985930                7.07724084               56.90650816                0.00010000                1.44319965               -2.25362954                2.04884677                1.28894572                7.82184428               13.00604481
              13.28880321                6.91781551               56.81976573                0.00010000                1.82909998               -2.54954982                2.55818874                0.57181576                6.86086240                9.28426866
              14.30644130                6.75935132               56.71827607                0.00010000                1.72942396               -2.91303429                2.98836942                0.04365249                6.31934813                8.00984588
              15.32339169                6.59619206               56.60029963                0.00010000                1.57402569               -2.85743837                3.17259322               -0.98160722                6.18942724                5.77273262
              16.33792181                6.42958233               56.47056880                0.00010000                0.46242630               -1.87168401                3.02789763               -1.80489411                5.66311867                2.93811367
              17.33264022                6.26017549               56.30634616                0.08110158               -0.40049248               -0.01600046                2.96556812               -1.30258208                4.45240183                1.66824512
              18.32991196                6.11652984               56.09411118                0.63487230               -0.27282591                3.01008955               -3.21943682               -0.20771837                2.36841942               -0.95478374
               8.38668860                8.67258534               57.23750417                0.91710751               -0.01165350               -0.03882520                0.15004699               -0.02326255               -0.00688694                0.06307584
               9.38657207                8.52940223               57.09782322                0.28949945                1.06105165                0.02553303               -0.07646095               -0.54584139                6.63414306               -0.04916361
              10.40790964                8.37463263               57.09096977                0.00010000                1.93702957               -1.98285791                1.71784255                0.34304748               12.23189870               15.32669948
              11.42531266                8.20419905               57.04926222                0.00010000                1.57210065               -2.66889844                2.67296655                0.56005428                9.64150794               14.35981537
              12.43935165                8.04832487               56.97229640                0.00010000                1.25232062               -3.02602560                3.81604550                0.98135886                7.32058051               11.73528235
              13.45035907                7.88843746               56.86836298                0.00010000                1.02292259               -2.98834822                3.94544312               -0.13884335                5.69431233                8.73179255
              14.45981010                7.72833843               56.74650187                0.00010000                0.86505907               -2.95389343                4.00988704               -1.16452296                4.71973337                5.91316840
              15.46766025                7.56829686               56.61057997                0.00010000                0.60510911               -2.50020596                3.72403457               -2.03190298                3.97353108                3.42873450
              16.47191228                7.41176587               56.45812941                0.00010000                0.24415192               -1.48726945                2.99533011               -2.38134160                2.92404021                1.20096515
              17.47254329                7.26384057               56.28465876                0.12016305               -0.16736841                0.30603177                1.18076584               -1.05628808                1.78094524                0.73162360
              18.46856491                7.13377800               56.09506582                0.64183047               -0.39783769                1.44009091               -0.47415709               -0.22913767                1.13426301                3.51147383
               8.52929502                9.67239354               57.16655726                0.90290845                0.04203286                2.21077544               -0.02377838                4.40648675                0.02883605               28.22581455
               9.52971535                9.52991168               57.02671546                0.27812985                2.28378163               -0.93392481               -0.24228222                2.28799021               16.58901260               29.66068477
              10.57497066                9.34573359               57.21806799                0.00010000                3.38663558               -2.90374937                2.24178088                0.59189154               22.32504662               22.57400945
              11.59744806                9.17836035               57.16207114                0.00010000                1.51387029               -2.78410687                3.67670524                1.28074078                8.10134360               17.13079563
              12.60524806                9.01672033               57.04964266                0.00010000                0.42823594               -2.95548366                4.54521614                0.73976244                4.56944646               11.16536519
              13.60601278                8.85804854               56.91423199                0.00010000               -0.09783111               -2.80968647                4.91515409               -0.35702936                3.11061157                7.17967916
              14.60329144                8.70027345               56.76798494                0.00010000               -0.33432937               -2.51370705                4.69843077               -1.45783913                2.24773169                4.21231993
              15.59932619                8.54618794               56.61143589                0.00010000               -0.42700882               -1.91955671                4.00615733               -2.07189101                1.39451834                1.94584983
              16.59475126                8.39983694               56.44412503                0.01604440               -0.49119312               -0.99489760                2.84031194               -1.88237336                0.58990253                0.67954397
              17.58950233                8.26629613               56.26765227                0.17573448               -0.46484561                0.11325042                1.41001005               -1.05805705                0.02960331                1.11452062
              18.58545435                8.14533166               56.08726466                0.65204896               -0.40479815                0.78082366               -0.10114167               -0.44873245               -0.14054921                3.47287394
               8.75978206               10.71680085               57.65920628                0.90206250               -0.07902387                2.44089682                1.28567293                1.93553222                3.58277736               48.03087198
               9.75899182               10.51072374               57.54931941                0.29665676                0.57583682               -0.85717759                1.29120951                2.36704118                5.71637698               56.44522275
              10.77129880               10.31655764               57.45460190                0.00010000                1.04744587               -2.59512716                2.28458306                2.00139452                5.48797576               36.84047592
              11.77994074               10.14851691               57.31737804                0.00010000                0.15799541               -2.50131856                3.95471845                2.36135457                1.07291291               16.92453743
              12.77445870                9.98921520               57.12858765                0.00010000               -1.01376891               -2.35064302                5.26388722                1.21457962               -0.81756979                9.51242232
              13.75966536                9.83224373               56.95327404                0.00010000               -1.59723926               -2.21007832                5.61903468               -0.17432379               -0.18386438                5.31692576
              14.74251392                9.67806429               56.78074863                0.00010000               -1.65032083               -1.89933357                5.21526129               -1.20436601               -0.44862559                2.64926078
              15.72665894                9.52990572               56.60567929                0.00010000               -1.41786437               -1.37863435                4.20458177               -1.57794266               -1.02832832                0.91407661
              16.71415663                9.39186792               56.42698803                0.07614197               -1.03857546               -0.69226113                2.80227840               -1.22383008               -1.37415970                0.21293317
              17.70588743                9.26610558               56.24883558                0.24115537               -0.63187142               -0.09509298                1.38970174               -0.45186989               -1.04292304                0.93592219
              18.70151920                9.14939447               56.07793151                0.65832043               -0.43682311                0.16237837                0.45012796               -0.03459179               -0.61568336                3.11056616
               8.98015990               11.72121148               58.01059404                0.86263493               -0.28605082                0.09719111                1.49090317                0.78290506               22.56071450               29.12514263
               9.97729939               11.51276813               58.07170933                0.31072008               -0.14772617                0.09757761                0.03066287                0.49368443               11.75413753               26.87215015
              10.97720537               11.29383105               57.89746554                0.00010000               -0.26408962               -1.14142271                0.03300651                2.02057805              -13.85386261               22.86746267
              11.97201760               11.12833398               57.44641545                0.00010000               -1.56962701               -1.33690779                4.00498422                2.53686072              -17.74323729               11.63928661
              12.94581283               10.96970747               57.18953296                0.00010000               -2.91701940               -1.54397224                5.84993323                1.16642361               -5.98610186                5.73933868
              13.91367721               10.81384698               56.97628607                0.00010000               -3.21353535               -1.55782622                6.31168401                0.02291642               -3.20354674                2.89799435
              14.88154213               10.66228678               56.78268107                0.00010000               -2.98567476               -1.34391224                5.74206404               -0.70176840               -2.67901782                1.21757392
              15.85396371               10.51861525               56.59318739                0.00010000               -2.37336613               -0.94666641                4.45050676               -0.89949621               -3.11596896                0.20548471
              16.83407480               10.38599172               56.40489105                0.17107457               -1.55126648               -0.48626931                2.71014833               -0.63778726               -3.18245818               -0.13619502
              17.82293838               10.26439427               56.22396024                0.34060078               -0.79450373               -0.14845580                1.24901894               -0.16639540               -2.04427832                0.41280825
              18.81818473               10.14857922               56.06078088                0.65788884               -0.47536543               -0.09572614                0.77612762                0.07073577               -1.08605654                2.15042056
               9.19232686               12.71874467               58.14968408                0.93215309                0.39190788               -0.24668054                1.44877023                0.60975775                9.07859334               18.06680079
              10.19624594               12.51267529               58.05708778                0.69331781                0.19088234               -0.00928409                0.03192937                0.64388044                4.09875896                0.02013148
              11.19614451               12.29372918               57.88283801                0.44710564               -2.07222022               -0.01018665                0.03409068                2.34908648              -10.18544950               -0.00959379
              12.15480154               12.12177875               57.50462995                0.36796850               -4.19351638               -0.65552272                4.21003963                1.50872212              -16.64834253                7.84638538
              13.11227418               11.95833575               57.20048172                0.36040855               -4.36285792               -1.13717178                6.55498220                0.61155712               -8.93946660                3.13318031
              14.06754438               11.80108720               56.97386752                0.36639464               -4.42819528               -1.27597730                7.12046082                0.02923160               -4.20995131                1.49277106
              15.02371027               11.65118605               56.77234996                0.38579095               -4.12901472               -1.11007330                6.48756662               -0.28892589               -3.63679709                0.54394038
              15.98496408               11.51097239               56.57599099                0.41959337               -3.40441989               -0.76428622                4.97955118               -0.35213884               -4.50988574                0.01907008
              16.95562188               11.38214253               56.37962827                0.62935996               -2.24960303               -0.38491839                2.90422819               -0.23708937               -5.01783100               -0.07579212
              17.93997202               11.26313646               56.19090293                0.71611915               -1.05289364               -0.12578035                0.89804972               -0.02976559               -3.76093063                0.28777225
              18.93456400               11.14747995               56.02757096                0.82824348               -0.54080181               -0.10992754                0.41789263                0.07227593               -2.29016285                1.54704065
               7.65493593                2.75698676               58.66986702                1.00000000               -0.33627726               -0.34336558                1.22989026               -0.06460766               -0.04583252                0.07462105
               8.65157316                2.60905860               58.53052156                1.00000000               -0.30654431               -0.26246515                0.97432690               -0.03288573               -0.04725455                0.02600854
               9.64880505                2.46064140               58.39094978                1.00000000               -0.25311399               -0.18238272                0.73320545               -0.02866341               -0.03581133                0.01030785
              10.64651088                2.31155758               58.25157203                0.63108906               -0.20705228               -0.10202638                0.49728999               -0.03009083                0.00931987                0.00450703
              11.64466400                2.16164109               58.11252677                0.58385812               -0.16315741               -0.02163052                0.26134043               -0.03611044                0.06817098                0.00606832
              12.64324773                2.01075270               57.97387722                0.48663680               -0.13429216                0.06302099                0.02073836               -0.04386025                0.11117382                0.00691317
              13.64197816                1.85880497               57.83525832                0.19017589               -0.10206583                0.16420710               -0.22962591               -0.07808046                0.24753221                0.02308427
              14.64120642                1.70494070               57.69951749                0.00010000               -0.12900906                0.34204660               -0.74043869                0.05533449                0.72305477               -0.09783819
              15.63939798                1.55241052               57.57091139                0.00010000               -9.16654960                0.08179195               -1.60843052               -3.74347270                0.00643243                0.39391112
              16.45787542                1.32315026               57.42297758                0.59599111               -8.91040080               -0.33119292                0.78053931                0.99778738               -1.26565240                2.33955940
              17.46118996                1.06218134               57.27379243                1.00000000                0.33145369                0.90914982               -2.98062245               -0.67071649               -1.34790714               -2.45124412
               7.80221802                3.75355311               58.59769263                1.00000000               -0.28010402               -0.31654469                1.05169377               -0.01961472                0.00395807                0.11814505
               8.79941698                3.60643394               58.45834087                1.00000000               -0.24745501               -0.23705688                0.79680292                0.01318312                0.01863073                0.05191359
               9.79726892                3.45881758               58.31908081                1.00000000               -0.18534252               -0.15821741                0.55281909                0.01803446                0.04892000                0.02089597
              10.79571013                3.31053731               58.18008865                0.46544057               -0.12817922               -0.07953628                0.31434850                0.01558639                0.09767875                0.00460517
              11.79470534                3.16142478               58.04146221                0.47720372               -0.07414716                0.00007264                0.07593445                0.00889544                0.15189064                0.00744896
              12.79422719                3.01138291               57.90317246                0.38708342               -0.03009934                0.08282339               -0.16950779                0.00850987                0.18874559                0.01188027
              13.79410335                2.86044704               57.76495171                0.05100451                0.03648987                0.17753135               -0.43183208                0.02277030                0.28177973                0.03468567
              14.79495699                2.70836117               57.62842616                0.00010000               -0.06224407                0.33786826               -0.97352310               -0.01801755                1.05445815               -0.15766267
              15.79285847                2.55322844               57.50516806                0.00010000               -4.09945506                0.04786136               -2.03408646               -3.83229804                2.59452365                2.77582220
              16.71296789                2.31983833               57.40138410                0.35581909               -3.87033783               -0.36633254                1.05040218                0.79852428                3.17057494                2.44846313
              17.71545171                2.07127284               57.23625866                1.00000000                0.24838281                0.86060822               -2.71048335               -0.04185507                0.09323652               -2.66114928
               7.94878196                4.75065587               58.52621831                1.00000000               -0.22096097               -0.26227530                0.86238698               -0.01708513                0.02617942                0.16490016
               8.94657235                4.60431746               58.38655790                1.00000000               -0.18597974               -0.18485276                0.61341283                0.01673797                0.05746677                0.07863608
               9.94506237                4.45747706               58.24732310                0.77604837               -0.11784736               -0.10916095                0.37194837                0.02142796                0.11141104                0.02795266
              10.94421541                4.30996685               58.10850917                0.00010000               -0.05330244               -0.03485429                0.13476952                0.01636961                0.18039895               -0.01526236
              11.94399632                4.16164254               57.97032472                0.00010000                0.00901328                0.04323058               -0.10398690                0.00732776                0.24481543               -0.04755992
              12.94439567                4.01240916               57.83243870                0.00010000                0.07294925                0.12061156               -0.35508796                0.01052915                0.28103400                0.01553428
              13.94545530                3.86235560               57.69472985                0.00010000                0.18344980                0.20403226               -0.62414328                0.04758099                0.21271270                0.00360351
              14.94806467                3.71169807               57.55510966                0.00010000                0.29097736                0.32679090               -1.04394995               -0.27562659                3.76630640               -0.13995987
              15.95127485                3.55336775               57.48786720                0.00010000                0.38684191               -1.67889110                3.69567526               -1.44256800                7.81851105                5.82853273
              16.95580151                3.31582361               57.38563595                0.46136410                0.31044940               -0.42596780                1.32705348               -0.01418399                4.53894711                2.45431256
              17.95748384                3.07939351               57.19138174                0.98297938                0.16823336                0.75585973               -2.43761454               -0.03972276               -0.06346729               -2.76056075
               8.09455314                5.74830760               58.45485110                1.00000000               -0.16225854               -0.20480973                0.67058784               -0.02165409                0.03985998                0.16355195
               9.09293055                5.60273689               58.31479515                0.69199869               -0.12525257               -0.13047933                0.42852093                0.00899254                0.08774810                0.07051694
              10.09204809                5.45663436               58.17550658                0.16998468               -0.05292563               -0.05803662                0.19050966                0.00817177                0.15576131               -0.00730192
              11.09187204                5.30984023               58.03658630                0.00010000                0.01807466                0.01034150               -0.04069538                0.00402311                0.21155806               -0.02001499
              12.09240958                5.16228939               57.89813111                0.00010000                0.09263363                0.09105570               -0.27988384               -0.01478028                0.35686206               -0.15899966
              13.09372471                5.01379514               57.76186064                0.00010000                0.16782437               -0.47659928               -0.53268869                1.58181769                0.40301551                5.41400970
              14.09576607                4.86452768               57.62404524                0.00010000                0.23537950               -0.70622647               -0.79889064                2.88109526                0.24514357                7.09059858
              15.09843230                4.71489698               57.48467321                0.00010000                3.20577480               -1.70055068               -1.04831622                2.47140891                7.45645489                9.13462840
              16.15988157                4.51965062               57.49154394                0.00010000                4.41130688               -3.03169722                2.49522308                1.16935039               12.82261727                5.18355627
              17.18665844                4.31131898               57.36696871                0.06234880                1.38179482               -0.43289568                1.54578498                0.75499601                4.71948116                2.35959145
              18.18751746                4.08639004               57.14927195                0.66718934                0.08590193                0.61353231               -2.11457937               -0.15830575                0.07465586               -2.59944547
               8.23949030                6.74655967               58.38327252                0.98329202               -0.10648563               -0.14320984                0.48337342               -0.02632464                0.04473217                0.13359009
               9.23842545                6.60170787               58.24273932                0.41936965               -0.06839189               -0.07603612                0.24502052               -0.00162852                0.08932083                0.03627764
              10.23812246                6.45631632               58.10291882                0.00010000                0.01076938               -0.00154318                0.00788944               -0.01669026                0.22239028               -0.08186059
              11.23864083                6.31017368               57.96491670                0.00010000                0.08116698               -0.60933907               -0.22350474                1.19766946                0.22578911                5.75871580
              12.23974580                6.16346365               57.82487883                0.00010000                1.75764493               -1.29804625               -0.45798771                1.68151341                5.85055133                8.95354469
              13.27379373                6.00287718               57.79933954                0.00010000                3.11147784               -2.20908125                1.48956331                2.33866489                9.10386505               10.74243377
              14.30197536                5.84823107               57.69593780                0.00010000                3.42880910               -2.98401106                1.86307328                3.22684433                6.90596168               12.56676913
              15.34236991                5.67768705               57.59771969                0.00010000                3.81322531               -4.05392762                2.51890197                3.22040152                9.19474716               12.62737689
              16.37823987                5.49273380               57.49147519                0.00010000                3.08960449               -3.02279755                2.83442899                1.30542739                9.57640733                4.41614338
              17.40416200                5.30716570               57.35167726                0.06379410                1.29678672               -0.17048768                2.07071400                1.27973383                4.79320591                2.93805987
              18.40417560                5.09166415               57.10511700                0.65793405                0.00135975                0.25025663               -2.11610213               -0.26632883               -0.52438833               -2.84859907
               8.38373025                7.74544340               58.31127901                0.93011586               -0.05889163               -0.08597867                0.30840430               -0.02371428                0.03811793                0.09447592
               9.38314133                7.60121617               58.17020699                0.32148233               -0.02408887               -0.02389280                0.07408530                0.00407408                0.06368078               -0.01377054
              10.38324847                7.45660349               58.02948624                0.00010000                1.27683840               -0.97249149               -0.17582020                0.68449998                6.06613279                7.52774201
              11.40867810                7.29765345               58.00862716                0.00010000                2.50439402               -2.48831005                2.65722865                1.25344063               10.29838815               12.53495631
              12.43333635                7.13632847               57.93510097                0.00010000                2.35262481               -3.47743620                3.09784569                1.89307097                8.28959177               15.37803576
              13.45573060                6.96961351               57.84838630                0.00010000                2.60783640               -3.77212166                3.34167991                0.93894741                7.91671762               10.79831514
              14.48549308                6.80484746               57.75197804                0.00010000                3.13035007               -4.39944233                3.76165847                0.16352458                7.89248194                9.13700409
              15.51833760                6.63381843               57.63561748                0.00010000                3.55091933               -4.19571087                3.79825335               -1.45671127                7.92431941                6.12909029
              16.55651147                6.45919466               57.50118479                0.00010000                4.74925826               -2.99088725                3.30546228               -1.48253368                8.59577531                2.65859722
              17.61332277                6.30790922               57.34569690                0.05356400                2.83412503               -0.95114414                2.14066057               -4.39115340                6.19370587                1.09394243
              18.61319397                6.09139517               57.05662182                0.62889451               -0.01287963                4.11857730               -2.01605412               -7.69893108               -0.35495769               -0.85589249
               8.52747049                8.74484010               58.23895935                0.90669495               -0.01236524               -0.03864335                0.13908473               -0.02063991               -0.00237779                0.05935168
               9.52734684                8.60123002               58.09709543                0.28114779                1.39523478                0.02341415               -0.06655963               -1.00826322                7.69085925               -0.02341836
              10.55537518                8.43686649               58.10910561                0.00010000                2.83189183               -3.29884257                2.02941602                0.38200982               14.19686056               16.91413565
              11.58398467                8.26040748               58.08326152                0.00010000                2.51359867               -4.07335046                3.75951104                0.59683404               11.18704800               15.07283603
              12.60564716                8.09391493               58.01371987                0.00010000                2.00345052               -4.33401686                4.69078133                0.50741084                8.27922460               12.74118325
              13.62405368                7.92743474               57.91281972                0.00010000                1.76968869               -4.22070622                5.01258326               -0.46588692                6.52366232                9.69663706
              14.64104093                7.76024222               57.79102260                0.00010000                1.74174018               -4.13736595                4.93325324               -1.93928210                5.56547688                6.28002409
              15.65888849                7.59377283               57.65130046                0.00010000                1.67287356               -3.47312486                4.42310962               -3.30416028                4.84492028                3.15508312
              16.67449840                7.43291606               57.49055108                0.00010000                1.26249717               -2.00985356                3.29887165               -4.21089937                3.38765648                0.46342789
              17.68413843                7.28814281               57.29518480                0.08005622                0.43633410               -0.69897849                1.25585510               -4.89193626                2.18967852               -0.70847157
              18.68322509                7.17403570               57.08980818                0.62580000               -0.09133456                5.02363735               -1.09833609               -3.53225703                2.12469582                5.74246803
               8.67053762                9.74467054               58.16630650                0.89491074                0.04120556                1.56522688               -0.02767122                4.67374199                0.02645663               28.82801136
               9.67094968                9.60168445               58.02432561                0.26970544                3.05867919               -2.38878599               -0.22717154                1.88887570               17.99581576               30.47195640
              10.73171120                9.39062664               58.24177187                0.00010000                4.63083360               -4.56859820                2.74017694                0.09226312               24.62404875               22.96679131
              11.76356635                9.21618644               58.20116510                0.00010000                2.23730510               -4.26685548                4.50137988                1.44883334                9.58469450               17.50715412
              12.77645731                9.04964813               58.09978350                0.00010000                0.82596103               -4.06235154                5.64944290                0.58283280                5.54335935               11.63279396
              13.78008557                8.88519939               57.96832028                0.00010000                0.19560215               -3.80546186                6.03172981               -0.97007024                3.56602562                7.48225651
              14.78036935                8.72210014               57.81965740                0.00010000               -0.02525057               -3.34340707                5.70117507               -2.45386475                2.34922365                4.12162824
              15.77958056                8.56435593               57.65509667                0.00010000               -0.12229241               -2.47784683                4.73869487               -3.36396582                1.22073507                1.40303152
              16.77792350                8.41899759               57.47430458                0.00010000               -0.26080811               -1.11452350                3.18824724               -3.21457716                0.23454935               -0.07830612
              17.77436440                8.29392965               57.28187665                0.13083553               -0.35802235                0.44118209                1.29153721               -1.95352109               -0.32363781                1.14149877
              18.77076305                8.19186792               57.08481997                0.62994301               -0.36013408                1.12620003               -0.51097531               -0.91707097               -0.44539793                4.58628272
               8.90691750               10.77614464               58.66932483                0.89521665                1.22507431                1.12675401                1.12233722                1.48689867                4.05777489               48.76375156
               9.91916824               10.55345430               58.56123581                0.28465325                1.79004793               -3.70384076                1.36573781                2.48934408                6.52636947               56.68183355
              10.94271846               10.34549453               58.47805111                0.00010000                1.73858043               -4.11289082                2.65761083                2.05998555                7.04745299               35.64679015
              11.95393985               10.17507037               58.35874994                0.00010000                0.27862020               -3.32659808                4.58655348                2.59134791                2.71856644               16.77021946
              12.94829086               10.01266790               58.18461099                0.00010000               -1.08697945               -3.06217588                6.18718298                1.01376426                0.14135266                9.56136035
              13.93220026                9.85132551               58.01412065                0.00010000               -1.77418875               -2.82744099                6.71033042               -0.76970031               -0.08718219                5.26213806
              14.91280709                9.69337408               57.83754809                0.00010000               -1.87442710               -2.38849824                6.24327265               -2.10129565               -1.03561161                2.33135463
              15.89471172                9.54421590               57.65119092                0.00010000               -1.60869735               -1.65153737                4.95332717               -2.59275911               -2.09329668                0.27309404
              16.88063314                9.41062559               57.45634758                0.06283098               -1.12570183               -0.67333065                3.06377863               -1.99746173               -2.53347184               -0.55683274
              17.87219769                9.29696646               57.26178782                0.20011905               -0.58130024                0.19476046                1.07631298               -0.74576943               -1.71328118                0.65896779
              18.86900714                9.19655970               57.08037185                0.63083529               -0.31905481                0.40268456                0.00817746               -0.08998611               -0.90626795                4.46785169
               9.14565628               11.76720562               59.02168376                0.85391456                0.57303887               -0.90186575                1.20078000               -0.52984201               21.62214341               29.05799214
              10.15138667               11.52760764               59.07200914                0.29617748                0.28192815               -1.29760297                0.02938234               -0.36727598               11.21146368               26.28910554
              11.15129484               11.30836883               58.89780765                0.00010000               -0.15833637               -1.86268096                0.03619570                2.49259486              -11.84858122               21.70663031
              12.14821994               11.14965448               58.48693382                0.00010000               -1.54086925               -1.78193451                4.35992903                2.80688668              -14.75526132               11.27056880
              13.12047746               10.98840461               58.25018523                0.00010000               -3.21172783               -1.89717429                6.55963935                0.93431622               -4.74236352                5.61392400
              14.08398538               10.82865057               58.04345940                0.00010000               -3.75122047               -1.86860503                7.33152897               -0.41162097               -3.30267791                2.74627491
              15.04545305               10.67433018               57.84483450                0.00010000               -3.67557575               -1.55395482                6.81332047               -1.27999873               -3.82459345                0.93622878
              16.01047387               10.53132519               57.64103136                0.00010000               -3.01146685               -1.00406932                5.24200667               -1.52582048               -5.09834131               -0.33034822
              16.98522371               10.40553098               57.43212472                0.18057516               -1.84794879               -0.30004346                2.81646708               -1.02712549               -5.46898806               -0.85903236
              17.97351489               10.29782486               57.23422232                0.31638826               -0.77234341                0.16415066                0.29330449               -0.24629412               -3.59874674                0.14977347
              18.96977684               10.19992161               57.06602787                0.62689498               -0.37380503                0.22627261               -0.20300552                0.31520293               -1.63305435                3.08105890
               9.37551663               12.75810732               59.15995523                0.92704904               -0.48571093               -0.90982940                1.10937632               -0.07447386                8.00480022               17.53764039
              10.37065952               12.52750224               59.05745475                0.68700713               -0.24965541               -0.01053983                0.04022188               -0.56603568                3.60316089                0.02165660
              11.37052352               12.30824091               58.88324501                0.44754759               -2.03088573               -0.01279159                0.04678418                2.51933983               -8.10195980               -0.01195192
              12.33004180               12.13943168               58.54670234                0.36777964               -4.12712099               -1.02227947                4.47191465                1.50636129              -13.11877786                7.41222220
              13.28798110               11.97472441               58.26786720                0.36049532               -4.59997619               -1.36802004                7.25077175                0.47645045               -7.25547775                2.90729208
              14.23804228               11.81395341               58.04936913                0.36619178               -5.17243012               -1.46971605                8.22020083               -0.21578200               -4.29057426                1.30463582
              15.18453249               11.66229498               57.84255531                0.38476470               -5.25238827               -1.20351981                7.68987095               -0.58299992               -5.09422307                0.31457626
              16.13299451               11.52413451               57.62937584                0.41720035               -4.54707681               -0.71906759                5.91152778               -0.63144875               -7.17464426               -0.34131217
              17.09359096               11.40462472               57.40883631                0.64107244               -3.00566681               -0.09062634                2.82773298               -0.35752722               -8.72477986               -0.59946769
              18.07288118               11.30024947               57.19562464                0.70889641               -1.12366274                0.24246073               -0.38841046               -0.24034974               -6.42123493                0.44073187
              19.07111770               11.20108515               57.02720492                0.81160067               -0.17634722                0.11635456               -0.75389869                0.21765470               -4.31148750                2.93718647
               7.79517328                2.83073537               59.68200486                1.00000000               -0.32595049               -0.33471718                1.19863865               -0.06219958               -0.03695924                0.06485425
               8.79191378                2.68236575               59.54013867                1.00000000               -0.29441013               -0.25630430                0.94924393               -0.02966604               -0.03350387                0.02257559
               9.78928508                2.53351171               59.39813614                1.00000000               -0.23574025               -0.17709518                0.70255601               -0.02467129               -0.01348441                0.00964814
              10.78719897                2.38400619               59.25636576                0.62334493               -0.18267892               -0.09699974                0.46015882               -0.02513689                0.03873475                0.00514481
              11.78563150                2.23369784               59.11495196                0.56666182               -0.12915871               -0.01761964                0.22017329               -0.02939601                0.10216924                0.00453898
              12.78461580                2.08249923               58.97383593                0.45833592               -0.07536520                0.06152802               -0.02614163               -0.03350308                0.19059709                0.00806864
              13.78412420                1.93040626               58.83328202                0.14237029                0.02175266                0.14407456               -0.28544175               -0.03003620                0.14864417               -0.01240081
              14.78505085                1.77737402               58.68919967                0.00010000                0.03201199                0.25516385               -0.72987921                0.07316171               -0.21587103                0.12932457
              15.78476444                1.62596706               58.53868534                0.00010000               -8.61992712               -0.02558186               -1.56679335               -5.25980365                1.88942980               -0.00191927
              16.61265231                1.36677515               58.43381335                0.58371403               -8.44825225               -0.51355914                1.39028609                0.92756729                3.06540800                2.29531508
              17.61579939                1.07391661               58.24155203                1.00000000                0.31470832                1.06357388               -3.47478028               -0.83135889               -1.32067758               -2.40015590
               7.94292091                3.82738820               59.60804624                1.00000000               -0.26919589               -0.30914657                1.01921363               -0.01851990                0.00803046                0.10208761
               8.94022895                3.67980271               59.46618436                1.00000000               -0.23513784               -0.23097219                0.77123058                0.01562350                0.02748319                0.04521140
               9.93821815                3.53174076               59.32448353                1.00000000               -0.16872021               -0.15305495                0.52537711                0.02224123                0.06721163                0.01954592
              10.93685454                3.38303619               59.18310006                0.46910253               -0.10635624               -0.07493453                0.28489799                0.02116743                0.12543240                0.00628993
              11.93609102                3.23352164               59.04210727                0.47443104               -0.04639920                0.00413353                0.04811460                0.01456830                0.18576713                0.00621765
              12.93592656                3.08311451               58.90137949                0.37485686                0.01477103                0.07873174               -0.19159313                0.00953149                0.24190151                0.00363952
              13.93638644                2.93184701               58.76078689                0.02248445                0.10377564                0.15955824               -0.45182873                0.03064063                0.17703853               -0.03736281
              14.93800207                2.77992565               58.61737692                0.00010000                0.05396958                0.25808800               -0.85083991               -0.05465952               -0.34139496                0.04470514
              15.93746584                2.62571124               58.46521243                0.00010000               -2.00244317               -0.39241512               -1.94264272               -3.55512338                4.50579614                6.31884063
              16.89795321                2.36163956               58.41461344                0.25404751               -1.85607477               -0.52649034                1.60019472                0.71330988                7.95969861                2.37942126
              17.90034434                2.08455235               58.20676178                1.00000000                0.23911329                1.00079751               -3.19558115               -0.01104992                0.08782518               -2.58245681
               8.08997386                4.82455244               59.53468972                1.00000000               -0.21001781               -0.25752333                0.83287360               -0.01536429                0.02832641                0.13993147
               9.08787368                4.67774631               59.39257567                1.00000000               -0.17387211               -0.17899303                0.58945281                0.01878547                0.06296341                0.06761447
              10.08649642                4.53045061               59.25093011                0.75553167               -0.10161218               -0.10335058                0.34715305                0.02501155                0.12549008                0.02530417
              11.08584144                4.38250750               59.10976471                0.00010000               -0.03259337               -0.03226644                0.11108209                0.02143602                0.20418961               -0.00830599
              12.08584455                4.23378051               58.96924205                0.00010000                0.03198122                0.04347154               -0.12157627                0.00766494                0.27503136               -0.03681842
              13.08648107                4.08407387               58.82896332                0.00010000                0.10406575                0.11020889               -0.35672844                0.00760203                0.29841146                0.00627037
              14.08792587                3.93359743               58.68830127                0.00010000                0.18061814                0.18776503               -0.61267762                0.02217371                0.23618911               -0.02506210
              15.09009343                3.78253578               58.54613829                0.00010000                2.20111001                0.26718353               -0.86192554               -0.61919885                5.91178207               -0.01804776
              16.13194807                3.61811876               58.51962813                0.00010000                3.89919853               -2.83031115                3.01471583               -0.32985477               11.98963514                8.94758088
              17.16807740                3.35624534               58.40086598                0.43856020                1.89023689               -0.55854633                1.75824651                0.09131356                5.80723292                2.38843428
              18.16975281                3.09393256               58.16508129                0.96750834                0.16754072                0.87887371               -2.86099754               -0.00158595               -0.04499266               -2.68454946
               8.23622588                5.82223773               59.46141659                1.00000000               -0.15194000               -0.20255057                0.64408595               -0.01853954                0.03808023                0.13581789
               9.23470648                5.67622285               59.31897762                0.66605256               -0.11343462               -0.12541999                0.40775429                0.01037232                0.08633553                0.06080213
              10.23395719                5.52967375               59.17731502                0.14585662               -0.03765560               -0.05179400                0.16614153                0.00555388                0.16157575               -0.00630529
              11.23395337                5.38239087               59.03612806                0.00010000                0.03603863                0.00852282               -0.05382666                0.00286047                0.23014174               -0.01179337
              12.23467796                5.23439107               58.89538935                0.00010000                0.11541578                0.08589922               -0.26922120               -0.03393072                0.37566111               -0.13387293
              13.23626168                5.08531869               58.75666822                0.00010000                0.18450245               -0.81611993               -0.51563632                2.33908649                0.44464732                6.60663838
              14.23836801                4.93560231               58.61646112                0.00010000                0.24175401               -1.17978633               -0.73463307                4.45387267                0.28520754                8.60813959
              15.24109676                4.78526933               58.47415443                0.00010000                5.93955832               -2.77434429               -0.98662933                4.46451206                9.63751730               11.05877328
              16.35715917                4.56910502               58.52119485                0.00010000                9.14344559               -4.51185918                3.31925891                2.14077024               16.58446889                4.42037255
              17.42396567                4.35046863               58.38490608                0.08562094                3.38895022               -0.60258763                1.92943225                1.63560796                6.15504926                2.16840995
              18.42493818                4.10212983               58.12537207                0.70502389                0.09725046                0.76608949               -2.54424799                0.08151564                0.00063113               -2.41608505
               8.38163284                6.82050143               59.38797315                0.96651687               -0.09877251               -0.14324952                0.45918921               -0.02262276                0.03783902                0.11237657
               9.38064511                6.67523791               59.24513805                0.39955168               -0.05966778               -0.07266751                0.23392968               -0.00236619                0.07878891                0.03671068
              10.38043948                6.52941473               59.10299523                0.00010000                0.02681076                0.00425236               -0.00226489               -0.03540685                0.21552182               -0.07307558
              11.38118133                6.38267796               58.96269626                0.00010000                0.08993177               -0.91491194               -0.23301273                1.62113247                0.24355427                7.14671705
              12.38223812                6.23549850               58.82038677                0.00010000                2.54351173               -1.92152821               -0.39883085                2.31437715                7.06458825               10.95732998
              13.43205156                6.06775147               58.81655021                0.00010000                4.74072843               -3.25085292                2.02622367                3.42510094               10.96784634               13.01032158
              14.47705268                5.91000170               58.71699139                0.00010000                5.69146989               -4.42978529                2.36528785                4.89945854                8.46055641               15.00923980
              15.54588096                5.72704889               58.62514147                0.00010000                6.62557413               -6.00381150                2.95672199                5.47272240               11.69632735               14.74790893
              16.60956417                5.52788158               58.52230961                0.00010000                6.09418963               -4.27133178                3.24665618                2.98717126               11.88341805                3.78302532
              17.66776475                5.34419359               58.36935559                0.06423860                2.92482803               -0.59609145                1.87238717                2.92422013                6.43069189                1.80137888
              18.66806073                5.10925435               58.08640734                0.67530119                0.02959765                0.62954917               -2.03060816                0.30731497               -0.04933293               -1.89992995
               8.52630046                7.81937274               59.31424809                0.91745972               -0.05546127               -0.08782697                0.28875641               -0.02352148                0.02777938                0.08423878
               9.52574585                7.67476950               59.17096544                0.30851674               -0.02457296               -0.02113322                0.07658909               -0.00080308                0.04066712                0.00787601
              10.52580900                7.52975880               59.02787314                0.00010000                1.72732047               -1.43925129               -0.15390598                0.72822000                7.42281092                8.83562202
              11.56029226                7.36409263               59.03234239                0.00010000                3.50414967               -3.47800633                2.75135431                1.47298708               12.30365475               14.81356632
              12.59589199                7.19596051               58.96846507                0.00010000                3.49841197               -4.85162470                3.86018684                2.46744170                9.10414002               18.29729753
              13.63026049                7.02030163               58.88659932                0.00010000                4.05838811               -5.26576211                4.31141521                1.12620604                8.97276361               12.51505720
              14.67705975                6.84700660               58.79350924                0.00010000                5.12054204               -6.18710716                4.53588669                0.02388380                9.34457055               10.38519320
              15.73267134                6.66519310               58.67626470                0.00010000                6.13490724               -5.75647838                4.36898178               -2.20894999                9.65293301                6.45561357
              16.79975790                6.48367838               58.53667805                0.00010000                8.42029815               -3.99834671                3.59195062               -2.02146924                9.37240285                2.01855058
              17.90107730                6.33854680               58.34915937                0.02809029                5.06025252               -1.53511041                1.11649001               -5.98212793                5.95625082                0.20384530
              18.90096295                6.11472081               58.05379010                0.62442306               -0.01143482                5.55874282               -1.01970264               -9.69503233                0.56057152                1.40308980
               8.67036889                8.81874489               59.24028586                0.89740199               -0.01258982               -0.03922258                0.12582034               -0.01869027                0.00090318                0.05333207
               9.67024299                8.67481524               59.09649203                0.27288514                1.76559306                0.02204639               -0.05056542               -1.48473631                8.94304691                0.00377140
              10.70568075                8.50062971               59.13155809                0.00010000                3.70981813               -4.68174378                2.72632624                0.15528652               16.55740044               18.69283179
              11.74443935                8.31311783               59.12445244                0.00010000                3.48485975               -5.55388029                4.82282588                0.43371796               12.82417030               16.18944776
              12.77537795                8.13846600               59.06611203                0.00010000                2.95451169               -5.87377110                6.03882598                0.11932359                9.22588022               13.92406948
              13.80352959                7.96243622               58.96861465                0.00010000                2.86304742               -5.69544464                6.21045086               -1.25037700                7.14576190               10.64681830
              14.83263889                7.78625956               58.84516693                0.00010000                3.07502945               -5.54130386                5.90060782               -3.20385717                6.23378235                6.64598373
              15.86503018                7.61191932               58.69904216                0.00010000                3.15710900               -4.54174923                5.10669170               -5.09612661                5.42977704                2.84649749
              16.89578107                7.44791464               58.52410685                0.00010000                2.60247945               -2.56020327                3.52915368               -6.27617840                3.67613009               -0.29167237
              17.91707977                7.31349138               58.30977586                0.03861969                1.30154949               -0.80118621                1.11304780               -7.80242751                1.72480317               -0.47117010
              18.92181206                7.22042921               58.07309910                0.61085279                0.47322984                6.58864160               -1.99914834               -5.82137697                1.27956993                6.20803719
               8.81378594                9.81858829               59.16600384                0.88780805                0.03803583                0.89768683               -0.03287582                4.99954915                0.02220140               29.53487755
               9.81416630                9.67521043               59.02217203                0.26195244                3.84131016               -3.90691844               -0.19910118                1.40427883               19.74493338               31.44409157
              10.89061214                9.43612392               59.27287153                0.00010000                5.84820125               -6.35860241                3.82862676               -0.65712117               27.44624751               23.34068303
              11.93113032                9.25301502               59.25209874                0.00010000                2.91739646               -5.74826281                5.99635207                1.28369969               11.17922911               17.72713288
              12.94896007                9.07848509               59.16263152                0.00010000                1.31645379               -5.42126646                7.16447486               -0.00425950                6.32894187               11.91220906
              13.95745940                8.90639274               59.03486658                0.00010000                0.72697211               -5.00444298                7.41047967               -2.04247669                3.75872750                7.68571876
              14.96349951                8.73618053               58.88200845                0.00010000                0.58171608               -4.33726391                6.78938719               -3.99710509                2.18565503                3.97394838
              15.96909372                8.57435811               58.70620979                0.00010000                0.45813797               -3.12432039                5.47300390               -5.13714311                0.81570415                0.82610198
              16.97266227                8.43247432               58.50788998                0.00010000                0.17102298               -1.25017593                3.51058396               -4.73629046               -0.40352832               -0.73139932
              17.97251418                8.32252308               58.29348301                0.07942905               -0.10012594                0.67239400                0.91053005               -2.77314477               -0.93591766                0.97538712
              18.97065975                8.24649364               58.07704515                0.60884694               -0.18544253                1.85571988               -1.52884260               -1.38225741               -0.83207425                6.05477773
               9.05711560               10.83669862               59.68165303                0.88921861                2.36773368               -0.34236795                1.83200038                0.90612841                4.73384960               49.53853182
              10.08079293               10.59667687               59.57663416                0.27580307                2.88090673               -6.64395593                2.12325316                2.39987569                7.52316721               56.85004794
              11.11473373               10.37345766               59.50775412                0.00010000                2.34796235               -5.66770844                3.62397188                1.80863150                8.76349502               33.93804617
              12.12775218               10.19815257               59.40910911                0.00010000                0.35906538               -4.36110358                5.83024576                2.49937395                4.49485061               16.07209499
              13.12191504               10.03004067               59.25233131                0.00010000               -1.13837826               -3.98776751                7.66450480                0.48373516                1.15075900                9.20502758
              14.10498462                9.86234736               59.08748065                0.00010000               -1.85918103               -3.64343690                8.16813912               -1.75057052               -0.13352062                5.00987327
              15.08473142                9.69951428               58.90561408                0.00010000               -1.94955475               -3.00881950                7.45216370               -3.44678330               -1.89011208                1.93781888
              16.06599352                9.54943292               58.70474583                0.00010000               -1.59205608               -2.02673697                5.77745542               -4.04951008               -3.48552599               -0.37899815
              17.05289030                9.42291112               58.48826360                0.03603351               -0.91979871               -0.80759892                3.26966786               -3.18259222               -4.00483141               -1.39646187
              18.04759755                9.32693926               58.27036184                0.14586059               -0.33322551                0.55149180                0.92335620               -1.04106976               -2.29867458                0.20645368
              19.04622579                9.25754361               58.07809506                0.60440528               -0.13717596                0.84368415               -1.05126570                0.62307468               -0.86443403                5.97847083
               9.31195200               11.81174093               60.03460964                0.84606173                1.34527699               -2.18720358                1.88111054               -1.92555088               20.47709710               28.77155669
              10.32540477               11.54233131               60.07229697                0.29044780                0.66785341               -2.72298310                0.02925601               -1.23723700               10.57513147               25.52585461
              11.32530907               11.32276975               59.89818946                0.00010000               -0.04349917               -2.54211187                0.04159062                2.67928124               -9.53881241               20.23158582
              12.32453479               11.16579295               59.53361403                0.00010000               -1.54345437               -2.38332107                5.15689747                2.80057944              -11.27671653               10.44571976
              13.29443998               10.99872974               59.32072575                0.00010000               -3.57802050               -2.44615120                7.83039568                0.51569235               -3.19137340                5.11624465
              14.25297438               10.83352400               59.12291665                0.00010000               -4.34808436               -2.34934513                8.82187138               -1.03327187               -3.32396920                2.41235503
              15.20747830               10.67600414               58.91894748                0.00010000               -4.41338526               -1.87391641                8.16443693               -2.13064725               -5.15569340                0.58951102
              16.16470667               10.53382337               58.69802752                0.00010000               -3.79871080               -1.09878610                6.19431355               -2.52425588               -7.47281344               -0.77096269
              17.13150408               10.41632234               58.46122039                0.16801407               -2.38231878               -0.30905665                3.36953279               -1.91416369               -8.64658193               -2.06372857
              18.11706030               10.33355291               58.22982633                0.27110067               -0.47957628                1.11036050               -2.17031216               -0.36869243               -4.35148567               -1.78493781
              19.12191256               10.26336733               58.05672077                0.59728423                0.48522566                1.31629812               -1.79890940               -0.07116395               -1.24947930                7.71869830
               9.55742382               12.79295455               60.17187161                0.92226740               -1.24044533               -1.87863780                1.76986427               -0.52655172                6.66059117               16.80494667
              10.54501937               12.54221721               60.05789222                0.68884232               -0.62830547               -0.01140945                0.04520336               -1.55549658                3.02472245                0.02159845
              11.54485772               12.32261542               59.88377370                0.45500111               -1.86077928               -0.01543299                0.05727777                2.36831141               -5.76319205               -0.01345599
              12.50780379               12.15048615               59.59406824                0.36753732               -4.01799387               -1.53067962                5.09513943                1.25201084               -8.98705770                6.72149754
              13.46449784               11.98111765               59.34549715                0.36055232               -5.03795021               -1.76120902                8.52057577                0.24950079               -5.06337192                2.46726718
              14.40704478               11.81536046               59.13827154                0.36599385               -6.13393675               -1.81635370                9.84774914               -0.54704463               -4.17731373                0.97194605
              15.34181910               11.66203595               58.92614738                0.38380037               -6.59272911               -1.39681845                9.22493155               -0.96108288               -6.69773106                0.01791034
              16.27519020               11.52745719               58.69422154                0.41491245               -6.34708108               -0.63661783                7.06704549               -1.21694557              -10.41694509               -0.63676597
              17.21487748               11.41672999               58.43618293                0.63862515               -4.10057425                0.04076491                3.45895253               -0.57819602              -13.53237146               -1.62378234
              18.19317871               11.34914647               58.18313472                0.68861572               -1.48518973                1.55935576               -2.30109355                0.96882058              -13.80569156               -2.21350919
              19.18517369               11.28386957               58.01249298                0.79612984               -0.80050276                2.05022448               -1.91711441               -0.20157702               -9.59811177                6.51873605
               7.93792912                2.90620108               60.69383979                1.00000000               -0.31573237               -0.32910776                1.17340559               -0.06090574               -0.04191221                0.06286230
               8.93477180                2.75741874               60.54950644                1.00000000               -0.28104265               -0.25175623                0.92516032               -0.02731767               -0.04014051                0.02131541
               9.93230827                2.60813960               60.40500090                1.00000000               -0.21510219               -0.17250765                0.66682764               -0.02242451               -0.01490391                0.00925974
              10.93046976                2.45819188               60.26077520                0.61612899               -0.15355270               -0.09277205                0.42003513               -0.02339037                0.04564653                0.00382815
              11.92923722                2.30742124               60.11693024                0.55050843               -0.08700693               -0.01621926                0.18259971               -0.02784335                0.10754856               -0.00070946
              12.92872962                2.15582695               59.97335439                0.43133599                0.01750444                0.05013571               -0.06043238               -0.02810292                0.14508882               -0.00412311
              13.92958731                2.00354721               59.82954948                0.09671870                0.13780270                0.11333253               -0.35359187               -0.02677575                0.13577433               -0.00657174
              14.93148567                1.85117268               59.68491991                0.00010000                0.14927925                0.11439710               -0.39664494                0.01032450                0.04716306               -0.00237088
              15.93257289                1.69931796               59.53957552                0.00010000               -5.75843895               -0.06554939                0.07772804               -6.86931629                2.84277233               -0.00085713
              16.81631689                1.40745638               59.45078330                0.60296532               -5.66369278               -0.70822501                2.03075097                0.65159976                6.63362919                2.17576342
              17.81929904                1.08375873               59.20429683                1.00000000                0.29821425                1.23357255               -4.00414532               -1.00851597               -1.26782456               -2.27929061
               8.08610241                3.90291000               60.61807690                1.00000000               -0.25730431               -0.30584626                0.99204741               -0.01850923                0.00457002                0.09276213
               9.08352936                3.75490118               60.47376548                1.00000000               -0.22024757               -0.22711301                0.74541444                0.01619717                0.02332286                0.04059614
              10.08169746                3.60641453               60.32958835                1.00000000               -0.14671656               -0.14939765                0.49194305                0.02189186                0.07018395                0.01926222
              11.08059503                3.45726416               60.18578661                0.47432629               -0.07781031               -0.07095760                0.24944321                0.01810171                0.13985027                0.00585443
              12.08014125                3.30725905               60.04242450                0.47410938               -0.01047142                0.01014263                0.01824291                0.00626350                0.20525309               -0.00163379
              13.08038560                3.15632831               59.89934060                0.36540621                0.07527188                0.07094407               -0.21175933               -0.00017245                0.23156535               -0.01450080
              14.08164669                3.00468054               59.75591514                0.00010000                0.16589707                0.13164567               -0.46453838               -0.02974268                0.18423439               -0.01206861
              15.08370355                2.85231665               59.61140936                0.00010000                0.20455950                0.16934646               -0.56193834               -0.12651526                0.07906829               -0.03593985
              16.08573788                2.69866246               59.46631520                0.00010000                2.34544799               -1.14905072                0.10279448               -2.40877717                5.65045487                7.76278213
              17.13061250                2.40037413               59.43338800                0.17615030                2.35868254               -0.70783603                2.18867642                0.38040524               11.50074719                2.20480983
              18.13291153                2.09609445               59.17234703                1.00000000                0.22990225                1.16667517               -3.72311582                0.01474866                0.08549351               -2.40311151
               8.23357659                4.90008416               60.54287578                1.00000000               -0.19853663               -0.25847419                0.81067133               -0.01625435                0.02400675                0.11897585
               9.23159122                4.75287648               60.39834695                1.00000000               -0.15967319               -0.17553170                0.56660805                0.01484812                0.05792726                0.05842382
              10.23038312                4.60515165               60.25426616                0.72909166               -0.08019784               -0.09856932                0.31701240                0.01639818                0.12837099                0.01945954
              11.22998727                4.45677273               60.11073082                0.00010000               -0.00423924               -0.02956753                0.08051714                0.01389799                0.22293578               -0.00442634
              12.23029834                4.30762410               59.96789320                0.00010000                0.06587079                0.06040814               -0.15461835               -0.01427549                0.30060682               -0.02801969
              13.23130468                4.15724583               59.82530413                0.00010000                0.13528872                0.10063505               -0.37182932               -0.01418402                0.32627191               -0.00518581
              14.23300411                4.00618013               59.68247629                0.00010000                0.18343805                0.16599091               -0.56379334               -0.01744490                0.24333608               -0.00308726
              15.23497344                3.85455961               59.53787115                0.00010000                5.16678757                0.23763088               -0.75894116               -1.35489071                7.88388935               -0.02050678
              16.33633987                3.67633694               59.54816152                0.00010000                9.57597825               -4.66429374                3.79195372                1.69107358               16.40391720                9.45042626
              17.42649301                3.39329966               59.42080088                0.42697723                4.59067476               -0.70882853                2.26230915                0.28624960                7.92962366                2.11913428
              18.42815336                3.10709223               59.13416179                0.95888834                0.16603537                1.03239176               -3.36142835                0.06358544               -0.03634849               -2.39998448
               8.38019267                5.89774052               60.46773282                1.00000000               -0.14338360               -0.20542257                0.62541488               -0.01796272                0.03016511                0.10603794
               9.37875883                5.75139055               60.32295024                0.64013522               -0.10317500               -0.12111081                0.38890077                0.00452736                0.07184370                0.05250326
              10.37812917                5.60444314               60.17882941                0.11910707               -0.01791440               -0.04274806                0.13588780               -0.01130815                0.15387316               -0.00879947
              11.37840055                5.45667281               60.03550977                0.00010000                0.06267335                0.00604819               -0.08614584                0.00785945                0.23985124               -0.01513812
              12.37938264                5.30846721               59.89274669                0.00010000                0.15726738                0.09552157               -0.26425876               -0.07232616                0.38969467               -0.08712836
              13.38154589                5.15834101               59.75154791                0.00010000                0.23006903               -1.20466615               -0.53254725                3.23872513                0.48424603                8.10366648
              14.38398402                5.00800036               59.60935258                0.00010000                0.24515111               -1.74061913               -0.68664890                6.41596834                0.36508119               10.34142566
              15.38644891                4.85706927               59.46494062                0.00010000                9.84176392               -4.20123238               -0.79077208                6.66905127               12.10038349               13.19873532
              16.58081929                4.60537659               59.55792912                0.00010000               15.95666465               -6.17129149                3.62745939                3.22412684               20.73761975                3.33470738
              17.70558221                4.38619756               59.40555736                0.11904988                6.28893985               -0.71798413                2.26163015                2.67754050                7.73634422                1.75521413
              18.70659809                4.11674229               59.09838699                0.75119090                0.10158841                0.90776474               -2.92184518                0.10107768                0.00015003               -1.98877006
               8.52591728                6.89597570               60.39245631                0.95189701               -0.09381331               -0.14625258                0.44149047               -0.01922124                0.02546059                0.08427675
               9.52497915                6.75045426               60.24741791                0.38006503               -0.05212943               -0.06854170                0.22348340               -0.00541143                0.05554506                0.04171069
              10.52487470                6.60429669               60.10287352                0.00010000                0.05706147                0.01549662               -0.02805378               -0.06809947                0.17672808               -0.04187147
              11.52612038                6.45689369               59.96025645                0.00010000                0.11544616               -1.22521124               -0.27462004                2.04982797                0.22823172                8.93301908
              12.52718362                6.30953453               59.81690221                0.00010000                3.52128302               -2.59590291               -0.19029114                2.90191980                8.41209003               13.44167237
              13.59654604                6.13315251               59.83986401                0.00010000                6.77058042               -4.52453968                2.85607874                4.52145165               12.81263455               15.58800885
              14.66259523                5.97136774               59.74324356                0.00010000                8.72160978               -6.18122888                2.82081458                6.80587730               10.25340629               17.72127411
              15.77097824                5.77053496               59.65685413                0.00010000               10.45494412               -8.40196252                3.49184837                8.16609510               14.45333877               16.95097510
              16.87169411                5.55291111               59.55640832                0.00010000                9.88499403               -5.38040731                3.53374761                4.93252878               14.60785892                2.49530339
              17.96867812                5.37893998               59.38912500                0.07089937                4.86956731               -0.73158500                2.14792934                4.10449666                7.81101761                1.33785464
              18.96908546                5.12524753               59.06450484                0.69631047                0.04073386                0.80114566               -2.39576516                0.05804751               -0.04762747               -1.44906133
               8.67085112                7.89481547               60.31705414                0.90655721               -0.05215019               -0.09123572                0.27208293               -0.02162877                0.01231438                0.06213745
               9.67032962                7.75001971               60.17173877                0.29674871               -0.02616867               -0.01777048                0.07967977               -0.00529995                0.01807741                0.03955261
              10.67032775                7.60475307               60.02640812                0.00010000                2.19148219               -1.92859732               -0.13552342                0.79184800                9.14306889               10.62941568
              11.71415927                7.43216859               60.06365425                0.00010000                4.54172329               -4.62268070                3.96842778                1.57949225               14.97472646               17.74860352
              12.76116222                7.25654915               60.01230471                0.00010000                4.79912219               -6.56523275                5.62322780                2.72502852               10.27568128               21.17550705
              13.81014171                7.06785022               59.93461460                0.00010000                6.07784498               -7.05243297                5.24156865                0.95973005                9.96516153               14.41390697
              14.88271912                6.88437578               59.84269577                0.00010000                7.90428695               -8.33525297                5.23621634               -0.30631811               10.86371648               11.59155967
              15.96822745                6.68903001               59.72299712                0.00010000                9.41728683               -7.48886316                4.94176108               -3.45207279               11.49658693                6.49380536
              17.07106485                6.49776844               59.57302380                0.00010000               12.35541398               -4.85202176                3.72717783               -2.59354798               11.11777402                1.12767574
              18.21533573                6.37156586               59.36802670                0.00897496                7.20395455               -2.22721010                2.16549842               -8.20195586                6.78321643               -0.51543683
              19.21514394                6.13276520               59.03622777                0.62342016               -0.01917844                7.48469333               -2.04527519              -13.22583814                0.44180734                1.09781784
               8.81507622                8.89415099               60.24147576                0.88992589               -0.01406738               -0.04072712                0.11239117               -0.01550665                0.00429797                0.03739151
               9.81493555                8.75009886               60.09608412                0.26610794                2.17432781                0.02022184               -0.02879541               -1.98876092               10.64871840                0.04082192
              10.85856278                8.56572474               60.16363213                0.00010000                4.54892962               -6.17543959                4.19169688               -0.26385391               19.53728498               21.29467237
              11.90591414                8.36444008               60.17971804                0.00010000                4.37198899               -7.30480773                6.74095260               -0.21315969               14.54177846               17.93516994
              12.94600256                8.17822987               60.13449639                0.00010000                4.09999380               -7.74380615                7.66741779               -0.66150715                9.79792955               15.37741415
              13.98791402                7.99210385               60.03702873                0.00010000                4.46432539               -7.39012266                7.46061949               -2.39128515                7.28276489               11.71333457
              15.03528907                7.80466268               59.90903476                0.00010000                5.03150500               -7.16219065                6.69306129               -5.06630146                6.72266601                6.98953649
              16.08854412                7.62075769               59.75343429                0.00010000                5.09991194               -5.69278552                5.64119618               -7.35031741                6.17250973                2.42505718
              17.13728731                7.45587068               59.56113416                0.00010000                4.05490611               -2.87777972                3.86765193               -8.74235291                3.88155119               -1.13409568
              18.16964224                7.33439577               59.31744575                0.00195492                2.24413507               -0.93572230                0.61838840              -10.48870722                1.49310883               -1.30972081
              19.18217001                7.27494139               59.04982521                0.59902474                1.25277673                8.76011559               -3.72132062               -7.35277111                0.99298869                6.17168475
               8.95864526                9.89400093               60.16564898                0.88231140                0.03353921                0.20792425               -0.03514966                5.47012202                0.01326310               30.83396127
               9.95898065                9.75042415               60.02034358                0.25801299                4.60320932               -5.48842703               -0.16468280                0.79191524               22.17317835               32.98330372
              11.05070945                9.48124428               60.31834441                0.00010000                6.92051443               -8.33936079                5.97766950               -1.87005385               30.94605624               23.79017863
              12.09739094                9.28607243               60.32109214                0.00010000                3.47794278               -7.47215481                8.40589151                0.68871418               12.59837163               17.88095357
              13.12026830                9.10167303               60.24307300                0.00010000                1.92461265               -6.97778249                9.33922014               -0.95463614                6.52200741               12.22571818
              14.13588319                8.92004776               60.11652987                0.00010000                1.62354705               -6.43154735                8.98012000               -3.61040015                3.34508759                7.97409786
              15.15273924                8.74113197               59.95544514                0.00010000                1.70649565               -5.47356333                7.79132936               -6.12114312                1.60432609                3.83558473
              16.17001311                8.57517430               59.76455675                0.00010000                1.49202358               -3.79697450                6.03914142               -7.35557788                0.34414901                0.19371861
              17.18257971                8.44021285               59.54451625                0.00010000                0.82388806               -1.32523705                3.73286173               -6.23448471               -0.97128931               -1.66661802
              18.18649087                8.35285141               59.30008725                0.02870403                0.22087850                1.51782183                0.42243675               -3.27474161               -1.65834311                0.88957085
              19.18699728                8.30796751               59.05424312                0.59160677                0.05064167                3.07560526               -3.63643765               -1.78428888               -1.24970878                7.26587203
               9.21163222               10.89830948               60.70596484                0.88414733                3.18982811               -2.07913784                4.10865104                0.26099838                5.66028302               50.91114083
              10.24353050               10.64033031               60.60370088                0.27547003                3.69405991               -9.67787393                4.13574622                2.04784364                8.47880079               56.90785355
              11.28551342               10.39893753               60.55053055                0.00010000                2.78645861               -7.21316585                5.50244885                1.15793804               10.39973326               31.39209008
              12.29925967               10.21499698               60.47535485                0.00010000                0.37105436               -5.62313471                7.90354731                2.12475375                6.14698130               14.67884453
              13.29293450               10.03867422               60.33790109                0.00010000               -1.15062962               -5.20546855                9.90528469               -0.22225091                1.84944399                8.55006796
              14.27624708                9.86347290               60.17748344                0.00010000               -1.75974204               -4.69704947               10.07657786               -3.00408682               -0.79183651                4.75748483
              15.25773966                9.69519142               59.98659137                0.00010000               -1.69477010               -3.77724324                8.72452732               -5.20828167               -3.30456481                1.58108314
              16.24235168                9.54481820               59.76674003                0.00010000               -1.14095805               -2.43720398                6.42905310               -5.85469487               -5.22062464               -0.97780395
              17.23492050                9.42936594               59.52174094                0.00010000               -0.29794686               -1.19378837                3.43411446               -4.10762233               -5.45496496               -1.91261792
              18.23639274                9.36475221               59.28025494                0.08489689                0.06657628               -0.17490915                0.49890673                0.57907449               -3.66866668               -1.85337417
              19.23625203                9.33645350               59.05934653                0.58372601               -0.01407129                5.59650669               -2.84180178                2.37018278               -2.36850310                6.46269091
               9.47982355               11.85241817               61.05930597                0.83864641                1.94859265               -3.93135810                4.09142431               -3.30239988               18.23865949               28.10912228
              10.49930947               11.55686667               61.07259426                0.30478615                0.96889947               -4.17933039                0.03179738               -1.98579149                9.34937443               24.17660615
              11.49920154               11.33698096               60.89863946                0.00010000                0.04199221               -3.10671054                0.05050503                2.51566548               -6.74607470               18.10626889
              12.50014932               11.17360974               60.59007177                0.00010000               -1.59270869               -3.10218890                6.25611207                2.49501080               -7.11330415                8.79340127
              13.46734736               10.99756366               60.40679315                0.00010000               -4.04325286               -3.20736390                9.74916207                0.10364447               -1.43712469                4.23118031
              14.41928426               10.82610677               60.21989683                0.00010000               -5.00595272               -3.03951778               10.98515542               -1.71889318               -3.64809369                2.03163144
              15.36722831               10.66558710               60.00812324                0.00010000               -5.02697857               -2.34690102                9.76921918               -3.13941695               -7.15653133                0.26906720
              16.31874469               10.52643022               59.76491763                0.00010000               -4.33675238               -1.29035260                7.09252931               -3.84908217               -9.97289210               -1.12138773
              17.28049326               10.41633708               59.49951537                0.12354503               -1.38799471               -0.35709746                3.64001831               -3.89835731              -13.03077699               -2.10949458
              18.29098480               10.34935323               59.19081608                0.20484916                0.52525525               -0.76948517               -1.95268798               -0.61874397               -6.73677093               -3.68664636
              19.29099837               10.41989765               59.03004968                0.57547406                0.00135706                4.17309784               -1.33454505                6.26378720                0.41789758                6.36557944
               9.73668722               12.81968231               61.19535251                0.91798720               -1.74353439               -3.27358558                3.86552515               -0.60749332                3.87484089               15.13998281
              10.71925188               12.55674371               61.05835881                0.70547986               -0.88017818               -0.01229622                0.04542181               -2.14970967                1.86543018                0.02036636
              11.71908366               12.33680331               60.88439057                0.47706690               -1.53373436               -0.01776477                0.06394512                1.79868699               -3.07490306               -0.01430817
              12.68857719               12.15295321               60.64860513                0.36742901               -3.82866499               -2.06565318                5.45832066                0.72896859               -3.95038232                5.60281394
              13.64251036               11.97452694               60.43827872                0.36058771               -5.73657069               -2.30367169               10.35093335                0.00276655               -2.17042115                1.75527935
              14.57384578               11.80268255               60.24632411                0.36575110               -7.39412419               -2.34242254               12.31876405               -0.85752587               -4.22720228                0.51801009
              15.49462787               11.64825340               60.02705395                0.38285339               -7.96128602               -1.73337038               11.13060025               -1.44361330               -9.05424836               -0.28500553
              16.41462006               11.51901115               59.77071675                0.41261697               -8.02987615               -0.74190719                8.11389454               -1.71393393              -13.74527048               -0.89379375
              17.33403035               11.42222399               59.47801536                0.61381511               -9.70813809                0.58869072                4.39903727               -3.12872331              -18.36460796               -1.94825380
              18.22045729               11.34936251               59.14960277                0.65299103               -5.67957069                0.00092776               -1.67699794               -7.16817681              -15.06104204               -2.05454612
              19.22043894               11.41991545               58.98886263                0.78560042               -0.00183567                0.00178072               -1.18131566               -0.00064822               -6.27736142                4.74619063
               8.08300174                2.98351839               61.70547297                1.00000000               -0.30518807               -0.33109361                1.16589850               -0.06109854               -0.06989863                0.07547881
               9.07994986                2.83427398               61.55864188                1.00000000               -0.26417526               -0.24998656                0.89852194               -0.02641054               -0.07426094                0.02366164
              10.07771824                2.68452199               61.41147270                1.00000000               -0.18836507               -0.16612546                0.61558320               -0.02245597               -0.03489139                0.01155281
              11.07618256                2.53405995               61.26476646                0.60988953               -0.12574745               -0.08622760                0.37450192               -0.02805995                0.05009878                0.00463134
              12.07520329                2.38269512               61.11860396                0.53561876               -0.06421145               -0.01691116                0.16271547               -0.03689896                0.10620034               -0.00564933
              13.07489833                2.23044435               60.97262728                0.40547656                0.00354392                0.04304028               -0.05376972               -0.04068975                0.09588440               -0.01579371
              14.07527417                2.07754352               60.82621018                0.05307654                0.05348728                0.11353024               -0.27157125               -0.03201238                0.10837833               -0.00996846
              15.07596808                1.92434770               60.68126677                0.00010000                0.02411641                0.19079224               -0.46966597                0.06788118                0.33094231               -0.15463562
              16.07575650                1.77247056               60.54023990                0.00010000                0.23177556               -0.00896684                7.60575212               -8.68935401                9.55129426                5.03490610
              17.08060359                1.44508102               60.47442837                0.65606594                0.38296740               -0.93628451                2.75347507                0.12126469               11.18312120                2.00194265
              18.08341584                1.09223039               60.16146913                1.00000000                0.28122547                1.43947712               -4.60841291               -1.21303327               -1.19459639               -2.11865979
               8.23163516                3.98020745               61.62788719                1.00000000               -0.24512070               -0.31211755                0.98478907               -0.01783782               -0.01151472                0.09496990
               9.22918395                3.83177412               61.48109264                1.00000000               -0.20172322               -0.22719811                0.72030617                0.01726353                0.00128006                0.04310937
              10.22760070                3.68286074               61.33432239                1.00000000               -0.11842783               -0.14616231                0.44380229                0.01926459                0.06093142                0.02731950
              11.22681540                3.53319767               61.18808892                0.48114464               -0.04793000               -0.06820653                0.20463840                0.00779171                0.15562906                0.01250269
              12.22664210                3.38252601               61.04247213                0.47585937                0.01259182                0.01014070               -0.00502128               -0.01214135                0.22503474               -0.01473689
              13.22706723                3.23087476               60.89714430                0.35803305                0.06801374                0.06592414               -0.20901129               -0.01610539                0.22848942               -0.03238610
              14.22800237                3.07867883               60.75149612                0.00010000                0.10580693                0.12773581               -0.40351959                0.01661348                0.20561618               -0.02117726
              15.22918337                2.92625562               60.60613816                0.00010000                0.02469618                0.21233387               -0.62028927               -0.00900101                0.52260992               -0.12207373
              16.22849629                2.77238089               60.46726832                0.00010000                9.63764741               -2.84785971                7.99735128                0.54013691               18.51839656                9.27819868
              17.42193632                2.43571817               60.45838697                0.12510792                9.78199222               -0.93111751                2.86086136               -0.28448586               15.94776816                1.93941642
              18.42413614                2.10662516               60.13229947                1.00000000                0.21998191                1.38312609               -4.33716367                0.03510747                0.07652371               -2.15304997
               8.37951165                4.97727603               61.55090314                1.00000000               -0.18698070               -0.27147443                0.80933917               -0.01664209                0.01158220                0.10597562
               9.37764184                4.82973002               61.40390783                1.00000000               -0.14158378               -0.17860799                0.54672513                0.00927605                0.04137700                0.05803986
              10.37667998                4.68159875               61.25727036                0.69600660               -0.04843608               -0.09851649                0.27431286               -0.00798889                0.12909959                0.02971272
              11.37667312                4.53269582               61.11137505                0.00010000                0.03017004               -0.03175996                0.04095827               -0.03415448                0.24014330                0.01053136
              12.37728338                4.38289794               60.96614968                0.00010000                0.08751423                0.05567423               -0.17916352               -0.05706845                0.32786091               -0.01191111
              13.37842341                4.23176284               60.82152673                0.00010000                0.14710978                0.09786912               -0.37709126               -0.02631091                0.37107439               -0.04213920
              14.38022557                4.08009824               60.67702540                0.00010000                0.18312927                0.14923644               -0.53870783                0.05530432                0.27406149               -0.02169538
              15.38208599                3.92859437               60.53095946                0.00010000                9.84355535                0.20027150               -0.62156873               -2.96201788               10.70340625               -0.00618909
              16.57709668                3.71551337               60.59546721                0.00010000               17.92918037               -7.24142626                4.00144219                5.03314184               20.62367943                9.71209207
              17.74066960                3.42645867               60.44611216                0.42729168                8.26036687               -0.92346929                2.86099583                1.03389562                9.92564672                1.70108615
              18.74230402                3.11989291               60.09785272                0.95634886                0.16344165                1.26931063               -3.97281666                0.10071254               -0.02147321               -1.98184111
               8.52639435                5.97477796               61.47392488                1.00000000               -0.13475844               -0.22051934                0.62293913               -0.02224064                0.01584491                0.07474378
               9.52504676                5.82820196               61.32675564                0.61471067               -0.09596122               -0.12232128                0.37465419               -0.00952975                0.05002868                0.05268365
              10.52447512                5.68089041               61.18003277                0.09015901               -0.01068224               -0.03000740                0.10035548               -0.05919801                0.15561887                0.00042517
              11.52483312                5.53256247               61.03440514                0.00010000                0.09792924                0.02490212               -0.16030027               -0.11033848                0.32557325                0.00455533
              12.52643371                5.38363949               60.89010417                0.00010000                0.22537960                0.09379938               -0.31288792               -0.30706773                0.49169538                0.11055866
              13.52934071                5.23283214               60.74601728                0.00010000                0.29216052               -1.76589428               -0.55375958                4.07817775                0.52356124               10.13503539
              14.53227692                5.08166356               60.60272814                0.00010000                0.25935897               -2.45071266               -0.66773532                9.11670156                0.45187020               12.25210623
              15.53452789                4.93026105               60.45833899                0.00010000               14.95089595               -6.02912372               -0.31598845                9.27928970               14.20970701               15.47497309
              16.83129484                4.62755237               60.59374404                0.00010000               25.18533975               -7.64102000                3.11893977                3.96707639               26.49463891                0.75644381
              18.03823468                4.41724879               60.43013868                0.16548039               10.39935327               -0.89886636                2.79312290                3.98389953               10.02080027                1.13127371
              19.03928190                4.13201137               60.06693517                0.80774758                0.10472178                1.12697183               -3.51076057                0.17848321                0.04482083               -1.34394678
               8.67221885                6.97286565               61.39680296                0.93909280               -0.08800437               -0.15909603                0.44199130               -0.01904839                0.01178598                0.04530801
               9.67133880                6.82728359               61.24960772                0.36201267               -0.05416722               -0.06538090                0.20506423               -0.00802011                0.02253500                0.05296050
              10.67113550                6.68099860               61.10243415                0.00010000                0.01892322                0.03490428               -0.05650832               -0.09049814                0.13708587               -0.00244661
              11.67171727                6.53319386               60.95720386                0.00010000               -0.01315730               -1.64796828               -0.43642499                2.64162029                0.45629172               11.63926720
              12.67087236                6.38477392               60.81658094                0.00010000                4.51228174               -4.08815129                7.64965268                3.36313223               14.07326400               15.79615998
              13.76196290                6.19644495               60.87367178                0.00010000                9.71291678               -6.07085465                2.79742201                5.80710050               15.87153446               18.78844983
              14.86513069                6.03108399               60.77340768                0.00010000               12.99100375               -8.43084786                3.54794288                9.26208027               12.96856724               19.86826331
              16.02178298                5.80801190               60.69497844                0.00010000               15.21598887              -11.58860065                4.88592172               11.46780689               18.85931306               17.20363308
              17.16945047                5.56269297               60.59298456                0.00010000               14.70528028               -6.30231530                3.65443212                7.31292017               18.12248256                1.07568202
              18.31588858                5.40848134               60.41231418                0.08833178                7.34490196               -0.86657353                2.47055527                5.75211767                9.66430122                0.61470629
              19.31634851                5.14243235               60.03849203                0.72474109                0.04599259                0.96727096               -2.77470271                0.10085295                0.00887107               -0.71690393
               8.81717749                7.97159604               61.31968974                0.89744676               -0.04240748               -0.09838888                0.26120501               -0.01920619               -0.00561215                0.02312404
               9.81675341                7.82689434               61.17255904                0.28767907               -0.02112942               -0.01283653                0.08538975               -0.01426837               -0.01362628                0.07948143
              10.81675490                7.68158849               61.02516267                0.00010000                2.85683944               -2.32058634               -0.10108228                0.71828973               11.69347540               13.36958632
              11.87389020                7.49960311               61.11171094                0.00010000                5.68451821               -5.94052598                6.32840878                0.64906866               18.35887417               21.73844223
              12.93044526                7.30187647               61.08092963                0.00010000                6.26412285               -8.47639659                6.31846154                2.74827138               10.65498130               24.84404494
              13.99917266                7.11141504               60.99143070                0.00010000                8.77531561               -9.08286489                6.38928033                1.19268740               10.28096721               16.42527466
              15.10595157                6.91304660               60.89823356                0.00010000               11.65511966              -10.88915336                5.39384049               -1.36850219               12.52265822               12.30056091
              16.23227505                6.69848904               60.77509992                0.00010000               13.55661130               -9.45755355                4.66094877               -4.84712707               13.60765745                6.06246911
              17.37708380                6.50150606               60.61122160                0.00010000               17.06313021               -5.44763463                3.39844265               -2.93107742               13.69288734                0.33789087
              18.57353765                6.39991732               60.39246934                0.00240154                9.81565736               -2.66224665                2.26977921              -10.38934799                8.30031234               -2.02568727
              19.57339695                6.15135679               60.01288460                0.63000417               -0.01407073                9.17076039               -2.17792845              -16.82783185                0.26294440                0.02953198
               8.96123812                8.97089787               61.24253369                0.88396922               -0.01771422               -0.04088048                0.09932923               -0.01287494                0.00412981                0.01372212
               9.96106098                8.82702686               61.09591612                0.26402067                2.57772031                0.01827026               -0.01092470               -2.40649834               13.30735678                0.08505089
              11.01279253                8.63458687               61.21539203                0.00010000                5.16748416               -7.82797050                7.40433570               -1.03068550               23.56755252               24.82160853
              12.06441067                8.41438334               61.25927150                0.00010000                5.06166570               -9.23029118                9.52355888               -1.74309592               15.70113886               20.63781516
              13.11402584                8.21524599               61.21946039                0.00010000                5.51179276               -9.11408565                9.76218052               -2.30392292                9.46435942               17.08031988
              14.17464652                8.01478765               61.11782704                0.00010000                6.83304057               -9.29975262                8.53754029               -4.45643606                6.64279996               13.02946381
              15.25068666                7.81330092               60.97902816                0.00010000                8.08672268               -8.88554932                6.89920542               -7.71596224                6.71936095                7.22227563
              16.33638097                7.61886083               60.81186609                0.00010000                7.93569921               -6.67811450                5.35971064              -10.24650548                7.48909655                1.75840991
              17.40940064                7.45374027               60.60145988                0.00010000                6.09349572               -3.14854417                4.40167129              -11.15011172                6.16398915               -1.82797055
              18.45825089                7.35523641               60.32214363                0.00010000                3.37561394               -1.12060060                0.65597283              -13.59049588                1.99730078               -3.26230876
              19.47691292                7.32584756               59.99867269                0.59375760                1.86620303               11.54664846               -8.64866511               -9.74104019                2.64884289                5.88425156
               9.10466200                9.97077843               61.16530084                0.87810709                0.02724445               -0.48167094               -0.02777053                6.32868456                0.00531588               33.80268534
              10.10493444                9.82725974               61.01887838                0.26230215                5.20613574               -7.22217981               -0.12356862               -0.05035421               25.99175497               35.93698577
              11.20878471                9.52502908               61.39242492                0.00010000                7.67173594              -10.67912337                9.99264556               -3.69902851               35.91921831               24.63165465
              12.25836916                9.31499728               61.42021657                0.00010000                3.75888884               -9.58167521               12.67711183               -0.32618644               12.96711114               18.57837757
              13.28396249                9.11959476               61.34941592                0.00010000                2.68099226               -8.89620537               12.14643587               -2.34138993                5.49400494               13.19810356
              14.31198901                8.92541999               61.21446898                0.00010000                3.17983307               -8.03287748               10.65617342               -5.92240279                1.60575224                8.65174200
              15.34755915                8.73533561               61.03783503                0.00010000                3.74582905               -6.74215390                8.34367295               -9.08981853                0.23971758                3.79593934
              16.38690559                8.56492675               60.82699262                0.00010000                3.50734173               -4.46724366                5.96730136              -10.33749760               -0.01330081               -0.71782664
              17.41770599                8.43853518               60.58254721                0.00010000                2.13574320               -1.20403134                3.32655961               -8.32729976               -0.41752529               -3.10467105
              18.42962045                8.37750531               60.30193175                0.00010000                0.98239302                2.19532712               -0.50568985               -3.89388400               -0.32843881                0.03289043
              19.43735385                8.38228976               60.00431640                0.58208031                0.77333945                4.25716543               -5.60451338               -1.33357292               -0.65249403                7.98048780
               9.37484919               10.96126445               61.76382605                0.88067897                3.09540573               -4.31213637               10.37156852               -0.59378765                6.98296637               54.15724900
              10.40580324               10.68258327               61.65934909                0.29377771                3.81126174              -12.80271261                8.96350590                1.39321400                8.89281208               57.33515316
              11.45107442               10.42100440               61.61780309                0.00010000                2.87590096               -8.69969872                9.16589266                0.21459617               11.23249384               27.21378194
              12.46332126               10.22274983               61.56718005                0.00010000                0.28504565               -7.32932936               11.52339917                1.60316715                7.29131303               11.94277991
              13.45677534               10.03732188               61.45043700                0.00010000               -1.14318279               -6.83095206               13.36390225               -0.83548946                1.41681307                8.01080712
              14.44045761                9.85413010               61.28901220                0.00010000               -1.36959025               -6.00520205               12.41721133               -4.60853194               -2.90788762                4.85997484
              15.42938353                9.67845784               61.08010463                0.00010000               -0.70130755               -4.72063546                9.76765292               -7.64232156               -5.98712562                1.40835751
              16.42643146                9.52951596               60.83332689                0.00010000                0.04462779               -2.87539254                6.44193848               -8.09235410               -7.42086631               -1.68468260
              17.43027609                9.42965965               60.55694589                0.00010000                0.50935822               -1.03385752                3.13695405               -5.15444487               -7.12317648               -3.10963800
              18.43661862                9.39914295               60.28033998                0.03085976                0.51982297                0.64834282               -0.16751812                0.17506710               -5.56266405               -2.88668194
              19.44067255                9.41099087               60.02125902                0.57403352                0.40539237                3.94365251               -4.42740515                1.90726461               -4.00868415                9.16324884
               9.65014861               11.88453570               62.11643812                0.83248127                2.29101586               -6.88016622               10.15023174               -4.63007857               13.39974843               25.82315526
              10.67305877               11.57120549               62.07293292                0.35590446                1.13807293               -5.57439155                0.03636714               -2.30069600                6.49946477               21.40378193
              11.67291007               11.35103511               61.89919956                0.00010000                0.05281271               -3.50886765                0.06243002                1.96220584               -3.34792087               14.76473872
              12.67411502               11.16841069               61.65873627                0.00010000               -1.85188187               -3.86370621                6.87957575                2.17636641               -1.84655357                5.33769165
              13.63587243               10.98297571               61.51570899                0.00010000               -4.77163074               -4.20348986               12.99381756                0.17501772                0.83965856                3.33262544
              14.57868241               10.80531595               61.34261976                0.00010000               -5.82727833               -4.06320035               14.34572651               -2.43924549               -5.56970599                1.85829936
              15.51932687               10.64092290               61.11433187                0.00010000               -5.24128538               -2.99917037               11.28337393               -4.54695436              -10.74018060                0.11737325
              16.47385670               10.50741890               60.83987811                0.00010000               -3.71683864               -1.57664359                7.41797184               -5.00864808              -13.69369534               -1.47916297
              17.44499009               10.41785803               60.53402076                0.05299376               -1.10330644               -0.44473557                3.30590920               -3.92617578              -15.94915494               -1.81692980
              18.45179057               10.39047216               60.19077257                0.13160121                0.34066078               -0.43303867               -0.00539861               -0.61016157               -9.11807703               -2.43006632
              19.45180331               10.46116281               60.03002987                0.56828059                0.00127357                2.50883055               -0.00267297                4.09077413                0.00749951                2.50728042
               9.90890804               12.82366113               62.24918211                0.91390920               -1.56181193               -6.08745763                8.23648894                0.61937374               -2.27106126               11.67565536
              10.89328992               12.57109544               62.05880066                0.74701845               -0.78973509               -0.01100550                0.03918699               -1.61858887               -0.81999663                0.01574436
              11.89311334               12.35082705               61.88505260                0.52323256               -0.91909660               -0.02080581                0.06468624                0.73934033               -0.38549062               -0.01291454
              12.87490799               12.14547571               61.70323465                0.36714305               -3.48714516               -2.29349846                3.23502588                0.20054808                2.31146819                4.00905422
              13.82337043               11.95325209               61.55251582                0.36061900               -7.05912383               -2.97236277               14.23149753                0.11931935                2.05935825                0.66075688
              14.73372551               11.77286610               61.38464682                0.36555908               -9.35144674               -3.24498561               16.36272386               -1.23457249               -5.82434633                0.24263873
              15.63634150               11.61847443               61.14875938                0.38179710               -9.22010690               -2.24484678               13.08826430               -2.04268726              -13.34773635               -0.55928258
              16.54932337               11.49798308               60.85649943                0.41035538               -8.38210969               -0.94358117                8.70714998               -2.33880795              -18.35772274               -1.17972135
              17.46869930               11.42076493               60.52416368                0.56902622               -8.41063846                0.29069083                4.35752965               -3.00412414              -21.96075074               -1.20169985
              18.38111060               11.39048218               60.14959476                0.60890015               -4.37962895                0.00100159               -0.00141634               -5.04786984              -10.70292777               -0.01012896
              19.38110673               11.46116748               59.98886667                0.78356888               -0.00038775                0.00046637                0.00074904               -0.00112838               -0.01008828                0.00990344
               8.23019334                3.06288222               62.71715776                1.00000000               -0.29064806               -0.35029871                1.20769169               -0.06239093               -0.13324864                0.10402857
               9.22728686                2.91299044               62.56747688                1.00000000               -0.23537395               -0.24930241                0.85715423               -0.02725602               -0.15246622                0.02980742
              10.22548586                2.76267128               62.41731256                1.00000000               -0.14731931               -0.15080261                0.51118455               -0.02414740               -0.05727811                0.01475939
              11.22434047                2.61163960               62.26826524                0.60451316               -0.09927270               -0.07339695                0.32569234               -0.03322880                0.09631911                0.00641139
              12.22350040                2.45957191               62.12018455                0.52209589               -0.06496952               -0.01533152                0.16954948               -0.04951200                0.13772532               -0.00663526
              13.22304108                2.30647704               61.97227899                0.38095235               -0.01925084                0.03040996               -0.00918602               -0.05076488                0.11547630               -0.01928977
              14.22311539                2.15277596               61.82411806                0.01205801                0.05168578                0.06658126               -0.18685557               -0.04201608                0.06728166               -0.02938233
              15.22407480                1.99833718               61.67552659                0.00010000                5.36608940                0.18452906               -0.47316610                5.09003880                8.28152873               -0.15468499
              16.33043718                1.94595924               61.69169056                0.00010000                9.73376482              -11.69601100               13.17890333                1.40402439               18.85519036                8.01506150
              17.41875009                1.47957803               61.50585280                0.74001773                4.54442044               -1.20993646                3.61345050               -5.73305663                9.30718663                1.78125349
              18.42132558                1.09972485               61.11212857                1.00000000                0.25754921                1.69250078               -5.31232464               -1.45617600               -1.11742185               -1.93789952
               8.37946121                4.05937923               62.63777269                1.00000000               -0.23414367               -0.33581210                1.02933171               -0.00790518               -0.04952984                0.10502817
               9.37711977                3.91049742               62.48817160                1.00000000               -0.17706986               -0.23080786                0.69281059                0.02743515               -0.05156963                0.05217460
              10.37591981                3.76116325               62.33846440                1.00000000               -0.07809503               -0.13178793                0.36229725                0.02101200                0.04568462                0.04949443
              11.37555787                3.61090563               62.18987938                0.48973919               -0.01666228               -0.04862289                0.14377153               -0.00871580                0.19602168                0.02757064
              12.37558656                3.45941859               62.04232408                0.47945616                0.01867672                0.00909632               -0.01847429               -0.04605049                0.28103586               -0.01200254
              13.37593140                3.30678114               61.89516037                0.35250979                0.05892962                0.05265156               -0.18419316               -0.05837223                0.28408266               -0.04367902
              14.37676515                3.15344178               61.74784474                0.00010000                0.12260708                0.08691186               -0.34567099               -0.03307213                0.19269509               -0.05194133
              15.37838354                3.00018248               61.59900357                0.00010000               11.35459209                0.19489047               -0.61324463               -0.89588395                8.92119467               -0.05622920
              16.60385700                2.82899913               61.62626223                0.00010000               20.30765889              -10.09280903               12.66854337               -1.47401122               27.48826356                3.55026484
              17.78453672                2.46747867               61.49060522                0.09957133                9.13800028               -1.20041803                3.66589893               -0.42394696               13.54871236                1.60528935
              18.78661700                2.11664986               61.08560376                1.00000000                0.20802803                1.65474269               -5.08562942                0.06297887                0.06893905               -1.87390448
               8.52779886                5.05616598               62.55906256                1.00000000               -0.17473194               -0.30218288                0.85213129               -0.00982665               -0.01882440                0.09170379
               9.52605154                4.90837428               62.40928146                1.00000000               -0.11504855               -0.18765471                0.52825312                0.02006439                0.00123835                0.06895261
              10.52549789                4.76003552               62.25975242                0.65583971               -0.00703641               -0.09376988                0.20292019               -0.00174555                0.13093649                0.06125196
              11.52591081                4.61066714               62.11154998                0.00010000                0.06029954                0.00147435               -0.03005432               -0.04994716                0.29773885                0.01975640
              12.52670388                4.45975383               61.96430993                0.00010000                0.09698177                0.04142655               -0.19965937               -0.05596126                0.40292595               -0.00659756
              13.52785045                4.30753007               61.81776230                0.00010000                0.11743642                0.10577619               -0.36548249               -0.08889407                0.46716961               -0.06139297
              14.52905261                4.15451420               61.67170214                0.00010000                0.13746550                0.16092128               -0.57313473               -0.06802590                0.46949078               -0.03769732
              15.53059976                4.00223499               61.52543977                0.00010000               15.23040752                0.11836380               -0.70744171               -5.45837640               12.93290131                0.39908596
              16.83366076                3.74410306               61.62819036                0.00010000               29.60103335              -10.30055137                4.95135987               -0.58049698               28.46905262                0.89050727
              18.12262043                3.45556967               61.47802079                0.43963721               14.52910058               -1.24288269                3.56052437                1.84935035               13.62777126                1.23880321
              19.12424277                3.13281971               61.05470545                0.95727705                0.16223452                1.62870898               -4.71603299                0.08923009               -0.02714925               -1.54097224
               8.67484806                6.05333557               62.48019161                1.00000000               -0.11965400               -0.25244870                0.65734152               -0.02189378               -0.00794491                0.04055905
               9.67365152                5.90674432               62.33044332                0.59050354               -0.06280060               -0.13321053                0.35048119               -0.01503013                0.01257417                0.05926642
              10.67359204                5.75928785               62.18083652                0.00010000                0.05945467               -0.04588308                0.04124561               -0.06434130                0.13563503                0.04401231
              11.67484061                5.61093511               62.03230376                0.00010000                0.20061799                0.08530501               -0.23688933               -0.19260610                0.40836471               -0.05079816
              12.67760440                5.46024712               61.88648893                0.00010000                0.22762711               -1.25607811               -0.38811429                3.17193202                0.63365568                8.05398415
              13.67939315                5.30889666               61.74047272                0.00010000                0.15476550               -2.20109902               -0.51951455                6.28563139                0.66640887               11.58219498
              14.68069971                5.15666020               61.59599787                0.00010000                0.01170008               -4.06433076               -0.89207210               13.26301971                1.07556932               14.71019446
              15.67962715                5.00254975               61.45862085                0.00010000               22.91063331              -10.21941553               11.23583068               13.21578783               39.48611957                9.75309470
              17.13891238                4.62298811               61.62030792                0.00010000               37.65899658               -9.35779377                2.28282969                6.16092615               37.21483061               -0.33009394
              18.43280709                4.44262101               61.46141981                0.23106382               14.74945746               -1.33331157                3.58921946                6.00360892               13.76439639                0.37859637
              19.43390153                4.14922404               61.02817178                0.87891829                0.10944443                1.60701550               -4.38612125                0.29352268                0.05621880               -0.54540155
               8.82054349                7.05111700               62.40129613                0.92845267               -0.07448248               -0.18941751                0.46645458               -0.03308109               -0.04647007               -0.00850762
               9.81979866                6.90571007               62.25151919                0.34742823               -0.02616056               -0.07216924                0.19148762               -0.05332482               -0.02821620                0.09530162
              10.82002028                6.75911786               62.10174335                0.00010000                0.06503803               -0.00504657               -0.14178016               -0.09417622                0.05406665                0.10264662
              11.82109942                6.61237324               61.95152795                0.00010000                3.60803481               -2.30326600               -0.47826693                1.31217984                8.48816864               15.89461207
              12.89218097                6.43463227               61.96989526                0.00010000                6.80252869               -5.48482547               10.98572719                3.40362673               16.54618812               18.97660688
              13.95715000                6.26350809               61.89581245                0.00010000               10.42394722               -7.83481035                3.43837052                7.88296424               12.26242320               22.65245761
              15.10065992                6.07322759               61.81420242                0.00010000               18.57188075              -11.59468442                3.58938150               10.15709663               18.80298666               19.41078246
              16.32858761                5.79784668               61.75457256                0.00010000               20.80740527              -15.45789996                3.21560290               16.57425019               20.56027056               15.18088878
              17.51680802                5.55694719               61.62949696                0.00010000               19.39345299               -6.34685846                3.73556711               10.98487772               21.59795318                0.67859176
              18.71645667                5.42890344               61.43853611                0.12535367               10.00495735               -1.06991751                2.98520920                7.74423622               12.24053397               -0.51591045
              19.71690717                5.16496002               61.00901078                0.76801593                0.04504976                1.19755725               -3.31710635                0.88919734                0.31948518                0.46659322
               8.96500029                8.04954722               62.32227824                0.89054086               -0.04161244               -0.11513351                0.28151502               -0.03210524               -0.03582985               -0.03859241
               9.96458417                7.90530094               62.17344656                0.28374834                0.00225321               -0.01147693                0.11118999               -0.09673106               -0.06140909                0.16665682
              10.96504536                7.75918692               62.02438647                0.00010000                3.04928123               -3.21115953                9.98682755                0.30535164               17.83434649               18.50539371
              12.02556979                7.56486979               62.19022242                0.00010000                6.47483651               -7.18412424                7.91114998               -0.69335846               21.29694932               28.10943012
              13.09454209                7.35055061               62.13867394                0.00010000                8.64436643               -9.16411469                7.68745390               -1.40580515               10.43946050               23.47627749
              14.19845712                7.15220046               62.06240021                0.00010000               12.74804840              -11.69266248                7.20606434               -1.08659261               10.79444715               18.90866117
              15.34950305                6.92476651               61.95057258                0.00010000               16.44677172              -13.18604300                4.68619160               -4.19156907               12.07735634               11.92715833
              16.52739255                6.69339175               61.81621609                0.00010000               18.90250625               -9.69067435                2.55571515               -7.07044315               14.98363833                3.67516558
              17.72755318                6.49605094               61.64099265                0.00010000               22.61432129               -5.44807660                1.29012763               -1.93437835               17.76033127                1.61613464
              18.97967898                6.42122266               61.41342228                0.01779687               12.60095701               -3.46081221                1.02479127              -11.34784860                9.41563473               -3.69064035
              19.97957232                6.17317519               60.99266920                0.65192862               -0.01066613               11.81173016               -0.95728462              -16.54566868               -0.23662342               -4.20121058
               9.10839395                9.04881433               62.24346234                0.87980813               -0.01696076               -0.03924754                0.09810454               -0.00356858               -0.01103863               -0.01737255
              10.10822434                8.90548054               62.09586563                0.27043653                2.90822513                0.02149789               -0.02594082               -3.34060794               18.17588806                0.13582119
              11.16655845                8.69489466               62.31171885                0.00010000                5.38221090               -9.38603061               10.80029696               -1.70397602               28.65387572               31.65782673
              12.21586856                8.46869075               62.37018922                0.00010000                5.50878756              -10.75691831               13.67666655               -3.46861600               15.95858167               24.92736562
              13.27673421                8.25134998               62.32974000                0.00010000                7.26668400              -10.79460632               12.22727148               -4.88410048                8.04407630               20.69362489
              14.36120224                8.02965484               62.20777954                0.00010000                9.94515168              -11.51515094                9.64591309               -8.03606210                4.31244139               14.26316538
              15.47563724                7.80950673               62.04701887                0.00010000               12.73460412              -10.43961142                6.29981282              -11.50573701                5.07458705                7.26495950
              16.61589432                7.60403320               61.86062851                0.00010000               13.73261524               -7.70173945                3.06726138              -13.19393576                8.54801547                1.08146755
              17.75028954                7.44798566               61.64916758                0.00010000                9.82405633               -3.67087610                2.19191604              -13.63045496               12.31595705               -2.45002540
              18.81237545                7.35968719               61.33056521                0.00010000                6.58996021               -1.29548948               -3.13085379              -13.41585558               20.44556938               -2.39320317
              19.88208875                7.40119462               60.87685191                0.60216158                6.97132972               13.59078743               -7.48107173               -6.36896862               12.76491032               -8.68357495
               9.25159651               10.04876227               62.16509357                0.87554962                0.00951623               -0.92485781               -0.02094023                8.28943803               -0.00738093               41.33683412
              10.25169168                9.90573090               62.01787221                0.28292300                5.80795520               -8.62508509               -0.03856935               -0.90553058               32.36141830               42.21621360
              11.36775562                9.57146631               62.51819732                0.00010000                7.40252422              -12.92280697               19.21017404               -6.01127978               41.09480274               26.46611193
              12.39974216                9.34973143               62.57463438                0.00010000                3.40701855              -12.66789344               17.28080921               -2.01121809               12.28464789               20.60316511
              13.43589599                9.13465849               62.48600172                0.00010000                3.99184839              -10.93763388               15.85137670               -5.25647900                2.24530014               15.12758390
              14.47957913                8.92189744               62.32965334                0.00010000                5.45569848               -9.85666083               12.39423007               -9.57323692               -1.98216835                9.78567217
              15.54500996                8.71597429               62.12231860                0.00010000                7.27278904               -8.13224966                8.13396636              -13.22476255               -2.96855421                3.86837216
              16.62503491                8.53935696               61.88390278                0.00010000                7.71400614               -5.28970657                4.30464827              -14.60710547               -0.95164325               -1.79212695
              17.69929008                8.42263342               61.61104745                0.00010000                6.65589977               -1.61430122                1.69469278              -12.44448727                1.51166909               -6.11752873
              18.75815290                8.39531287               61.28997346                0.00010000                3.49440067                2.92452767               -2.05685056               -6.45958003                1.97904146               -2.75644479
              19.76917809                8.44499093               60.94215285                0.58666649                1.10251900                4.64051906               -9.35694561               -5.42461841                4.86679793               13.39576757
               9.56024547               11.03031718               62.91339621                0.87863528                0.71642320               -8.26185314               26.42705881               -0.57221382               10.87939059               58.67897369
              10.56740970               10.73297883               62.78297099                0.34254578                2.10434318              -16.01200795               21.23412997                0.04835038                8.78370650               53.39814940
              11.60233233               10.43643853               62.73384840                0.00010000                2.25211631              -10.32200390               16.05952907               -1.94808978               11.34003584               20.75004093
              12.61245202               10.21533288               62.70582283                0.00010000               -0.14468568              -10.27112277               19.86366730                2.15627149                6.76425961                9.37109194
              13.59943862               10.03259730               62.60517914                0.00010000               -1.20151598               -8.62605669               17.76724791               -0.92251025               -1.04125452                8.22509872
              14.58842170                9.83252162               62.42582766                0.00010000               -0.28780762               -7.71296468               15.17841298               -7.80237153               -7.58343684                5.94211991
              15.59368246                9.64686173               62.18194443                0.00010000                1.43356907               -5.83472389               10.21657255              -11.20630839              -10.77659265                1.37841585
              16.61709308                9.49823906               61.89557880                0.00010000                2.58807131               -3.28412679                5.25567150              -11.55075586              -10.85216240               -2.75816239
              17.64544389                9.41569963               61.58448002                0.00010000                2.18666234               -0.49263588                1.19103148               -8.43678492               -8.34785476               -4.73020872
              18.66082633                9.41817775               61.27690458                0.00111246                1.43981840                1.80921241               -1.78210009               -3.36166970               -5.26522733               -3.15667414
              19.67424026                9.49400500               60.97079843                0.58100258                1.34139251                2.87223360               -4.58469670               -0.24449178               -4.39109864               12.47441309
               9.83482892               11.88352521               63.26231061                0.82855568                1.17084123              -12.13048664               22.31973359               -4.21427542               -0.42888333               22.17177124
              10.84653733               11.58549074               63.07332161                0.45718307                0.58054245               -7.38278580                0.05177777               -0.94636096               -0.77611851               15.23597820
              11.84643977               11.36502623               62.89988806                0.10019329                0.00857413               -3.57997908                0.05412592                1.17128778                0.05903024                8.99863165
              12.84670882               11.14430897               62.72766329                0.00010000               -2.30913638               -3.55976813                3.46066775                2.60012152                5.59131888               -0.11714671
              13.80025704               10.96213735               62.66666950                0.00010000               -6.87207771               -5.92344398               21.43686795                1.30879558                0.74018840                3.03244614
              14.70926726               10.76763814               62.50681136                0.00010000               -7.25453469               -5.45202127               17.86152821               -4.50819812              -10.37395369                2.59374007
              15.65516635               10.59927981               62.23379072                0.00010000               -4.20426851               -3.93245109               12.45246034               -6.59128206              -17.21744749                0.07576569
              16.62518189               10.47367443               61.91327707                0.00010000               -2.22753253               -1.80324940                6.66988867               -6.57654438              -18.94921684               -1.90626955
              17.61061570               10.41278070               61.56563356                0.00010000               -0.62838762                0.11022581                2.25838502               -4.29505935              -19.55962412               -2.23773941
              18.61261414               10.43149712               61.19070811                0.07597219                0.10090259                0.66689004               -0.00749076               -1.47378383              -10.70059400               -2.26705586
              19.61263375               10.50243561               61.02999622                0.58009180                0.00196108                0.42174627               -0.00397199                0.46650320                0.01043364                5.02940391
              10.07202890               12.78770744               63.36008229                0.91057900               -0.50474444               -9.58177666               19.29741741                3.48156538              -15.62163753                3.79243215
              11.06698146               12.58532312               63.05914255                0.81946643               -0.25445259               -0.01676197                0.03848577                0.90098730               -6.36127895                0.00746185
              12.06693985               12.36483894               62.88568429                0.59947613                0.01809374               -0.01872867                0.04387094               -0.00927191                0.06863280               -0.00420455
              13.06734333               12.14413752               62.71330565                0.36696681               -3.23272481               -0.01714495                0.50647525               -0.47207473               10.11012146               -0.77850025
              14.00228535               11.91412842               62.72290867                0.36057445              -10.31140237               -4.80089329               24.41143899               -0.82998512                5.19508448               -0.46232346
              14.86111529               11.72348120               62.57357859                0.36539412              -12.32324081               -4.41569448               20.86959644               -2.11098317              -11.33399178                0.18013749
              15.75582054               11.56821271               62.28881923                0.38095717               -9.45269893               -3.10670965               14.79103508               -2.99993732              -20.98825428               -0.71200675
              16.67206131               11.46217408               61.94485975                0.40812163               -7.70502651               -1.15003504                8.40583126               -2.82748676              -24.95331715               -1.35347886
              17.60172001               11.41790415               61.56516596                0.51751810               -6.51827799                0.51234499                3.50173080               -2.42249556              -27.03399140               -0.78696491
              18.54169575               11.43151555               61.14957444                0.57081173               -3.00133291                0.00184280               -0.00251600               -2.86505040              -12.75872861               -0.01334531
              19.54169335               11.50243993               60.98887761                0.79165361               -0.00023971                0.00043208                0.00105387               -0.00160231               -0.01369164                0.01343391
               8.37969854                3.14436911               63.72962681                1.00000000               -0.29527985               -0.39658957                1.35268549               -0.07402223               -0.23881097                0.12582872
               9.37674574                2.99348068               63.57578496                1.00000000               -0.19571127               -0.24676536                0.81440138               -0.02126934               -0.28485620                0.03600964
              10.37578431                2.84251350               63.42169639                1.00000000               -0.07543917               -0.11027356                0.28892041               -0.02380864               -0.09763203                0.00839239
              11.37523695                2.69095991               63.27128031                0.60046257               -0.09201339               -0.04955629                0.30971988               -0.04758744                0.12256145                0.03070263
              12.37394404                2.53828336               63.12199495                0.51009619               -0.09813030               -0.01227763                0.19527482               -0.02942760                0.16137472               -0.01714892
              13.37327435                2.38429580               62.97244356                0.35785179               -0.02859178                0.02220623                0.02435715               -0.04365519                0.12491486               -0.02431268
              14.37337221                2.22950251               62.82247307                0.00010000                0.03758999                0.05534147               -0.12776197               -0.03570235                0.07178188               -0.01687112
              15.37402615                2.07430003               62.67180344                0.00010000               12.45809426                0.09178249               -0.27522357                7.22266127               14.14180042               -0.11111768
              16.62253409                2.06362846               62.80381797                0.00010000               23.61415842              -15.67420715               10.30535702               -1.74235725               25.29840152                5.84673716
              17.84630932                1.51120124               62.54669738                0.85137994               11.29908872               -1.55452733                4.64938886               -9.12935027               10.70126587                1.57647596
              18.84851587                1.10652202               62.05522264                1.00000000                0.22065503                2.00481670               -6.10948967               -1.76772353               -1.05935361               -1.80341012
               8.52984673                4.14040321               63.64847383                1.00000000               -0.23858882               -0.38389579                1.17778209                0.01092430               -0.11627404                0.09450566
               9.52746085                3.99101303               63.49494886                1.00000000               -0.15200608               -0.23216680                0.66017318                0.06192855               -0.13761089                0.06908558
              10.52680661                3.84141076               63.34156833                1.00000000               -0.02923475               -0.10309191                0.20607320                0.03485908                0.04379485                0.08984421
              11.52687615                3.69046434               63.19096435                0.50030571                0.00876026               -0.01466740                0.09417165               -0.02083722                0.29366327                0.03909909
              12.52698182                3.53816058               63.04210265                0.48491486                0.01760348                0.01588892               -0.01539522               -0.03804730                0.35811776               -0.01948558
              13.52722822                3.38451787               62.89346044                0.34867231                0.05156266                0.04634120               -0.15778345               -0.05022084                0.34651763               -0.04440014
              14.52801307                3.23005592               62.74458270                0.00010000                0.09807809                0.08443295               -0.29892948               -0.03671496                0.23230754               -0.08686573
              15.52918978                3.07521785               62.59387326                0.00010000               17.93234217                0.13293916               -0.44947892               -0.64699409               13.97698913               -0.13202692
              16.88665992                2.90688639               62.72063919                0.00010000               35.21896261              -16.21753209                8.47535127               -0.40996360               28.78084802                2.09996868
              18.23356904                2.49565597               62.53170495                0.09751160               17.44289677               -1.53905478                4.65137885               -1.99577947               15.68176064                1.22356279
              19.23551785                2.12657019               62.03058688                1.00000000                0.19488150                1.99917120               -6.00595743                0.08521446                0.06031715               -1.59804210
               8.67869738                5.13669119               63.56794577                1.00000000               -0.17206266               -0.35238193                0.97958942                0.00887981               -0.07405505                0.05309265
               9.67697675                4.98883735               63.41447289                1.00000000               -0.08336001               -0.19317416                0.50257007                0.04764781               -0.06783380                0.07668866
              10.67703018                4.84045166               63.26132877                0.60897850                0.05468205               -0.08155201                0.08093836                0.01749919                0.14591880                0.11880160
              11.67807039                4.69066656               63.11077397                0.00010000                0.10496975                0.05520986               -0.13186465               -0.06893357                0.42924185                0.02771418
              12.67912957                4.53860114               62.96215649                0.00010000                0.11520981                0.04866299               -0.22200057               -0.07439428                0.55595739               -0.00362281
              13.68037459                4.38522263               62.81421708                0.00010000                0.14041732                0.09540128               -0.34757124               -0.07391233                0.55079351               -0.03026860
              14.68193792                4.23119117               62.66556270                0.00010000                0.19406033                0.16556207               -0.55205103               -0.03183594                0.50842202               -0.23400698
              15.68425580                4.07695881               62.51681063                0.00010000               25.59793938               -8.95138503               -0.72801852               13.94185543               16.82384776               12.02793630
              17.19389671                3.73927782               62.69449440                0.00010000               45.12270672              -14.36212524                7.15775563                4.47969536               37.49773732               -4.57453371
              18.58670993                3.48042014               62.51732265                0.45979210               19.72475021               -1.56752823                4.50305779                3.96586668               16.86955989                0.74136988
              19.58839171                3.14650544               62.00353206                0.95778312                0.16817812                2.01139131               -5.76037052                0.17775463                0.05402354               -1.09610922
               8.82573201                6.13335557               63.48707171                1.00000000               -0.10786834               -0.30411624                0.76842447               -0.01330501               -0.07931868               -0.02196948
               9.82465333                5.98714955               63.33376526                0.56800673               -0.02023133               -0.13254795                0.31566061               -0.01126689               -0.06637944                0.07906921
              10.82532739                5.83977972               63.18085769                0.00010000                0.13473388               -0.04750419               -0.07925897               -0.02015533                0.10688091                0.07737821
              11.82734801                5.69156854               63.02966735                0.00010000                0.28052383                0.12504396               -0.30791623               -0.26937760                0.50821288               -0.03308837
              12.83093786                5.53913384               62.88234189                0.00010000                0.29059681               -1.32400417               -0.44215032                3.66196972                0.81466159               11.69957213
              13.83315994                5.38642589               62.73562699                0.00010000                0.23511528               -2.88280090               -0.50632815                8.83814721                0.67065565               14.25922023
              14.83564017                5.23336716               62.58488670                0.00010000               23.33901467               -8.32331213               -0.90573175               10.51283262               12.93433082               16.69359686
              16.29994024                4.89619015               62.68305560                0.00010000               36.85761608              -16.14621861               13.97438995               15.98573863               47.87344532                7.10285222
              17.57279249                4.61964389               62.63940063                0.00010000               30.28592544               -9.18488784                4.59734201               14.58322625               36.23091908               -4.01456339
              18.90565875                4.46430540               62.50192307                0.32277646               16.70549251               -1.71297387                4.19525725                7.08148166               18.92858160               -0.42357454
              19.90690234                4.16679801               61.97921274                0.96985038                0.12435949                2.03806747               -5.11508113               -0.08088130               -0.31773241                0.37666863
               8.97084333                7.13060886               63.40613205                0.91930293               -0.05160647               -0.23487932                0.55916865               -0.02263632               -0.10420389               -0.06698327
               9.97032726                6.98618639               63.25343747                0.33908332                0.06823766               -0.06342522                0.14985985               -0.11718126               -0.16845919                0.18534382
              10.97220808                6.83950158               63.09959855                0.00010000                0.15007324                0.09705724               -0.29288324                1.91598138               -0.05820497               10.39605840
              11.97332873                6.69316744               62.94763852                0.00010000                4.26517693               -2.42190510               -0.21407176                1.54065948               12.01717662               20.12780044
              13.05751162                6.51212105               63.03629549                0.00010000                9.47877427               -6.37882809                7.06115395                3.52589956               15.66164802               24.81381152
              14.16290421                6.32756661               62.94243920                0.00010000               16.24593471              -10.44023570                4.37070259                6.13034397               10.25295872               25.88241678
              15.38243031                6.06472492               62.84519531                0.00010000               22.73948173              -15.72969239                2.69637429                9.22552403               17.56082086               20.35334251
              16.61769385                5.75403444               62.75929050                0.00010000               26.75078366              -11.51268742                0.05146197                1.62213261               21.67349418                2.59430176
              17.91744599                5.55558006               62.66769590                0.00010000               28.17457957               -5.27428786                1.34036734               12.72089854               27.34189139               -3.17987266
              19.18118544                5.44616067               62.47201836                0.19116258               13.21714381               -1.51149950                4.23677773                6.81008903               17.20306467               -2.66126566
              20.18178886                5.18726679               61.97214991                0.83459409                0.06034237                1.63467217               -4.63189411               -0.72597256                1.97681913                2.79280746
               9.11412424                8.12865798               63.32532004                0.88542271               -0.07072470               -0.14368907                0.35940153               -0.00932127               -0.00366826               -0.08698058
              10.11341699                7.98588104               63.17478284                0.28862357                2.12708640               -0.04343757                0.09964423               -0.04710704               10.01272710                0.23433098
              11.15666597                7.84172087               63.22489922                0.00010000                3.60623665               -3.27845072               15.85338488               -0.17061157               22.72085339               25.03865936
              12.18554172                7.64313044               63.26993394                0.00010000                5.51953584               -8.23243696               11.85944314               -1.89655868               17.58393947               35.46520188
              13.26705668                7.41155728               63.23467871                0.00010000               10.88106137              -11.51651713               10.86531970               -4.28519153               10.63758540               26.44049853
              14.40316295                7.17762118               63.13555198                0.00010000               16.33130687              -14.73843881                8.14951001               -5.60358454                8.01602937               20.15766616
              15.59368282                6.91877332               62.99195739                0.00010000               21.91823986              -13.89354152                3.82735871               -9.73928276                8.42035042               11.08726867
              16.84152775                6.66593640               62.82621423                0.00010000               27.07007075               -9.06154740               -0.73669828               -5.85582323               11.67747102                1.37777678
              18.13508424                6.51415813               62.63702416                0.00010000               28.43230244               -6.04475473               -5.35605218                1.82380498               15.34894838               -3.15269938
              19.41017380                6.43407541               62.41296517                0.06591961               13.75431995               -0.76697481               -0.16854625                7.18129198               10.12729337               -2.81378051
              20.41017063                6.19949146               61.99373891                0.69939080               -0.00031633                0.77128077                0.18508030               -0.56595231                0.38242477                2.87762620
               9.25621078                9.12773508               63.24449578                0.87787087                0.01114524               -0.05383703                0.18347862               -0.00010145               -0.01071188               -0.05016891
              10.25632224                8.98531764               63.09539731                0.29019957                2.76678346               -0.07011974               -0.11327790               -3.40802227               24.24846303                0.30777909
              11.31154645                8.77393256               63.43139797                0.00010000                5.46194540              -10.47495489               16.81734146               -6.97731504               38.15048756               35.20945727
              12.36556114                8.52851870               63.53280483                0.00010000                6.28852981              -12.58517356               18.31588983               -7.07129297               17.45367005               29.93537086
              13.43731705                8.28179071               63.46400581                0.00010000                8.90276704              -13.24249882               15.76647763               -9.44640087                5.22153624               23.52989128
              14.54361648                8.03279783               63.31074530                0.00010000               13.10061909              -13.72679324               11.39602641              -13.10354067                0.18724697               15.26099407
              15.69932943                7.78685409               63.10502442                0.00010000               18.07880417              -12.04979097                5.59568741              -15.98692692               -0.49425509                6.64697887
              16.90519257                7.57280349               62.87321131                0.00010000               24.32268239               -8.59012445               -0.92910742              -15.72764975                3.91316141               -0.24450461
              18.18578308                7.43468497               62.64529820                0.00010000               36.71426909               -6.66429826               -6.61418894              -11.75989332                8.72939026               -2.32703718
              19.63947795                7.43082117               62.25952655                0.00795767               22.69273225               -2.90191860               -3.51790590              -25.20352420               22.05440291                3.31903319
              20.63963772                7.20269241               61.84905125                0.63556515                0.01597735               17.83835690               -1.43175027              -31.80485711               17.33773114              -11.23558138
               9.39895710               10.12758124               63.16488204                0.87498089                0.01019649               -4.50540959               42.46936803               15.54357298               21.66919780               65.67828011
              10.39905906                9.98447865               63.01810699                0.32463235                3.74807523              -14.51103874               42.64306148                0.46717393               53.60643111               52.79006996
              11.47391860                9.63222177               63.77662840                0.00010000                6.85993274              -15.98090446               24.60673748               -7.47874174               51.32552090               32.09014853
              12.53625772                9.39142697               63.76583276                0.00010000                4.99654631              -13.56879675               24.01509472               -6.18999462                8.80355918               24.96949083
              13.57384953                9.14670730               63.66644346                0.00010000                4.98855175              -13.03173162               20.19880237              -10.48566432               -1.01470206               16.84058962
              14.63602875                8.90308531               63.46235358                0.00010000                8.00445466              -11.84916772               14.68656974              -15.02613554               -7.87430378               10.65183707
              15.73393862                8.67777750               63.20051436                0.00010000               12.15575613               -9.61500271                7.75248513              -18.20901435               -9.43128547                3.63162947
              16.87914388                8.49413392               62.91308558                0.00010000               15.39650335               -6.39125362                0.25334926              -19.76226424               -5.86481833               -2.53197271
              18.04186869                8.38087216               62.61644107                0.00010000               12.94759988               -2.71078047               -2.72511980              -21.09433720                2.92900856               -7.49190360
              19.13809587                8.37603704               62.26079474                0.00010000                9.42311614                0.22268234              -11.17457361              -25.95479261               19.71900050                0.78427453
              20.23033101                8.55625860               61.81717749                0.61579265                9.22351389               18.49716751               -0.88591846              -15.70658692               15.72776375                6.81128730
               9.85328743               11.03762689               64.29236722                0.87883408               -9.22622473              -12.31480979               42.74496655               -3.22341049               11.84439410               72.68113811
              10.76102519               10.69509686               64.08403169                0.42531608               -4.91320676              -19.23625762               38.53614357                1.87937305                7.67682245               56.26025336
              11.75502330               10.45431448               63.93899367                0.04437489               -1.68747328              -12.65249615               33.24690636                5.39381453               10.17336324               12.11000439
              12.72727572               10.25714276               63.96445340                0.00010000               -1.95389406              -11.64210107               26.94706334                2.48719254                5.61966984                1.36800813
              13.71594542               10.02115608               63.80578196                0.00010000               -0.76260703              -11.04061004               24.38618914               -8.18248439               -7.45496852               11.43668189
              14.71202358                9.79581448               63.59258046                0.00010000                1.40775620               -9.68227438               18.03977174              -12.92743403              -13.97333273                6.43819675
              15.74410054                9.59455404               63.28443608                0.00010000                4.74145175               -7.11070424               10.32507299              -15.81312395              -18.41580367                1.46657366
              16.80685261                9.44497842               62.93844032                0.00010000                6.89463345               -3.70606803                2.72874593              -16.50995134              -17.30401955               -3.50392035
              17.88199321                9.38046936               62.58076652                0.00010000                6.90715259                0.57725692               -3.46759275              -13.76028610              -11.81041790               -7.05518120
              18.94499567                9.43527482               62.24469798                0.01172990                4.15348315                4.82120725               -5.51671745               -8.62567233               -6.33463573               -4.44956613
              19.96506287                9.57263576               61.92956509                0.61276456                2.00672065               -0.62934441               -6.11054709               -9.10866854               -1.88896510               20.27524225
              10.01954895               11.88128505               64.56283280                0.82614121                0.04099954              -16.68302452               52.55500290              -10.89978878              -14.68941644               19.48838132
              11.01995894               11.59975350               64.07396848                0.60343122                0.01000240               -4.77470429                0.06834142               -1.13380236              -15.76004759                0.21738992
              12.01974899               11.37917185               63.90028208                0.24858937               -0.03994869               -3.75819863                0.04089658                2.20655246                0.05875596               -1.21993554
              13.01915997               11.15858495               63.72794962                0.00010000               -7.41104338               -4.92608929               32.26658443                2.96667852               10.88824089              -12.48770876
              13.87152813               10.92589510               63.94444635                0.00010000              -10.75389283               -9.48144032               28.69475739               -4.90456781                4.95867326                5.69793980
              14.80408211               10.70943983               63.69985032                0.00010000               -5.15079611               -7.64400484               21.58029858               -8.06100784              -20.15734449                2.98224468
              15.76851220               10.53556341               63.36338107                0.00010000               -2.05262914               -5.01883802               13.22639607               -9.41162794              -25.70446160                0.18836378
              16.76302953               10.42001255               62.97327588                0.00010000                0.39271832               -1.86151357                5.01363694               -8.80442094              -26.50038047               -2.16757515
              17.77636657               10.39241730               62.57918846                0.00010000                0.51932502                1.27457391               -0.99585676               -5.31198976              -23.86315187               -2.43112075
              18.77341603               10.47246118               62.19062276                0.06095833               -0.14654069                1.86038963               -0.00988466               -4.57584449              -11.38663058               -0.66330343
              19.77343576               10.54367171               62.02995043                0.61481537                0.00197282               -1.44811950               -0.00509016               -6.02076413                0.00925054                7.08535171
              10.19835476               12.70396640               64.63513046                0.90832288                4.21075764              -17.73186467               53.76452875                7.44421913              -23.73189732                1.49030108
              11.24046234               12.59960278               64.05957037                0.91508156                2.09840678               -0.01507186                0.04095722                5.80954467              -20.09398869               -0.00277724
              12.24032290               12.37915050               63.88593002                0.69739395               -0.02881500               -0.00213464                0.01981044                0.00830029                0.05525470               -0.00010898
              13.23988604               12.15862098               63.71336416                0.36669880               -8.66618576                0.00360315               38.32972142               -5.30855459               16.79464604              -14.88313344
              14.06699918               11.83152727               64.04074460                0.36072015              -14.93754622               -9.43678311               33.38958625               -6.23722426                8.78133263               -0.25495025
              14.94113511               11.64293438               63.80203875                0.36514751              -11.08519644               -6.65054428               25.40529961               -3.16219938              -22.88308853                0.10904040
              15.84529525               11.49417728               63.44458009                0.37997601               -8.36124044               -4.13861327               16.16626408               -4.08100690              -30.92651197               -0.65850555
              16.77391030               11.40774815               63.02461606                0.40582660               -6.09952338               -1.22644070                7.22314010               -3.32274438              -33.70071534               -1.24034463
              17.72330479               11.40596084               62.59419830                0.47435863               -3.58429660                1.35435359                1.01202708               -2.06945548              -32.84036545               -0.42008044
              18.70222437               11.47248261               62.14954444                0.55313569               -1.05391202                0.00214250               -0.00343216               -0.23353908              -14.21348307               -0.01169438
              19.70222655               11.54367337               61.98888775                0.81053378                0.00021724                0.00016625                0.00015332               -0.00184518               -0.01258336                0.01259707
               8.53310080                3.22770475               64.74421147                1.00000000               -0.35806516               -0.47543710                1.64400959               -0.12370466               -0.31297972                0.10724128
               9.52952015                3.07538285               64.58376490                1.00000000               -0.25314660               -0.21916454                0.78609527               -0.05518681               -0.39124845                0.00590749
              10.52803787                2.92309523               64.42309097                1.00000000               -0.15135057                0.02325219               -0.09701772                0.14936979                0.25838099                0.05262265
              11.52649314                2.77288557               64.27445964                0.59764287               -0.12366122               -0.06916153                0.37143553                0.23628253                0.19578880                0.12383610
              12.52556465                2.61901353               64.12409005                0.49967828               -0.07159434               -0.01461933                0.18961740                0.02239168                0.10625035               -0.03413218
              13.52506125                2.46395703               63.97276614                0.33608470               -0.01867524                0.01625851                0.04101409               -0.00766782                0.08535876               -0.02981303
              14.52519114                2.30821928               63.82156282                0.00010000                0.02523254                0.03955503               -0.07378015               -0.01835831                0.06510212               -0.02418259
              15.52556590                2.15197519               63.67002212                0.00010000               21.81600658                0.05595587               -0.09477372               11.68170722               18.98382472               -0.11270406
              16.96151127                2.22925155               63.89779770                0.00010000               42.79024204              -24.89294763                8.38618698               -2.53103898               34.57192159                9.41986265
              18.38137075                1.54109241               63.59884058                0.98610182               21.07883606               -1.97677583                5.86316050              -15.13081946               14.49934000                1.51188487
              19.38308800                1.11292816               62.98993878                1.00000000                0.17172499                2.34514297               -6.98890598               -2.11927629               -1.05032067               -1.81283763
               8.68418566                4.22295038               64.66132833                1.00000000               -0.29126183               -0.45374059                1.46735411                0.03221769               -0.18794455                0.02818618
               9.68127304                4.07319120               64.50137506                1.00000000               -0.17027259               -0.21455980                0.62856123                0.10845445               -0.21407414                0.05842170
              10.68078021                3.92332776               64.34258586                1.00000000               -0.01881126                0.00134811               -0.10420784                0.15400329                0.21142966                0.16137918
              11.68089682                3.77219395               64.19176281                0.51274765               -0.02636902               -0.01835739                0.15862019                0.13571816                0.40157054                0.06583374
              12.68025283                3.61886733               64.04201617                0.49204344               -0.02575597                0.02143039               -0.00414170                0.03704681                0.39877195               -0.03619021
              13.68038170                3.46411962               63.89200470                0.34617777                0.03728247                0.04005574               -0.12332085                0.00731746                0.35571783               -0.05851430
              14.68099848                3.30861483               63.74186615                0.00010000                0.07425703                0.06553939               -0.23303457               -0.00742548                0.23457846               -0.10935106
              15.68186684                3.15253475               63.59001399                0.00010000               28.03218975                0.08180956               -0.29555601               -0.78568215               17.99759434               -0.11886626
              17.24164227                2.98032208               63.79576925                0.00010000               55.31787021              -24.77003041                7.19517202               -0.48089405               38.81829891                2.07972503
              18.78822424                2.52132465               63.58363280                0.11457336               27.42086024               -2.04567329                5.79051664               -3.71696299               20.36257038                1.03799009
              19.79005948                2.13637959               62.96548461                1.00000000                0.18352351                2.46717470               -7.03942728               -0.00368504                0.05366841               -1.52970157
               8.83326352                5.21862994               64.57865435                1.00000000               -0.19516484               -0.41202428                1.23096938                0.03061716               -0.14793853               -0.03855889
               9.83131187                5.07109165               64.41933286                1.00000000               -0.05741637               -0.19150396                0.45514296                0.08785822               -0.13814378                0.09182010
              10.83211519                4.92312220               64.26137119                0.55553729                0.11780282               -0.03810612               -0.12563472                0.02370628                0.20996556                0.22439178
              11.83366793                4.77251842               64.10891269                0.00010000                0.11323631                0.06074208               -0.17670200               -0.05281072                0.61673797                0.04962271
              12.83437992                4.61944214               63.95986992                0.00010000                0.08960912                0.06161171               -0.22068544               -0.00375498                0.74539373               -0.03905328
              13.83546011                4.46475815               63.81081088                0.00010000                0.11237921                0.08696671               -0.29107870               -0.00161563                0.60710387               -0.04630190
              14.83662750                4.30953007               63.66066112                0.00010000                0.13424538                0.11423535               -0.40934511               -0.00937623                0.51005461               -0.29165319
              15.83814502                4.15361138               63.51087940                0.00010000               37.32379954              -12.52039117               -0.47727962               16.25180797               20.97316248               15.17063251
              17.58310349                3.73385094               63.77134547                0.00309395               65.64144758              -20.54133690                6.92172991                7.47942905               44.66333772               -5.45237546
              19.15097397                3.50017895               63.56808195                0.47292778               28.49004608               -2.09354241                5.91645375                5.58815390               21.25123815                0.05278678
              20.15290441                3.16227166               62.93949804                0.94637427                0.19304458                2.58799874               -7.32798321                0.35467382                0.03243902               -0.46035400
               8.97987458                6.21470990               64.49556010                1.00000000               -0.13366297               -0.35504683                0.99692938               -0.00562467               -0.17371504               -0.10336222
               9.97853796                6.06936112               64.33675654                0.55137689               -0.00235071               -0.13461394                0.27623942               -0.02465745               -0.14067154                0.09014154
              10.97982757                5.92256563               64.17925134                0.00010000                0.24913550               -0.00623555               -0.34450007               -0.17061955                0.25115847                0.21352492
              11.98352067                5.77340879               64.02614544                0.00010000                0.40552150                0.10721208               -0.48753566               -0.56939867                0.87860026                0.24565158
              12.98793800                5.62009957               63.87764592                0.00010000                0.33703951               -2.04352275               -0.43410901                3.43417506                1.08809075               15.76316863
              13.99026146                5.46585895               63.73034616                0.00010000                0.20098594               -4.17633583               -0.45744276               10.43246060                0.78739271               16.64752766
              14.99195772                5.31089954               63.57788324                0.00010000               29.61603336              -11.81531640               -0.57146849               11.73327528               16.08049836               18.20997723
              16.58258212                4.90212693               63.73810865                0.00010000               52.63527870              -22.35186454                4.62612094               18.00038417               36.42798778               10.36958252
              18.04466329                4.56949534               63.71225476                0.00010000               44.44922427              -11.90623656                5.39325854               17.25706857               37.75448405              -13.43476737
              19.47156661                4.47945381               63.54532496                0.44024795               21.41521185               -1.77714598                4.81957424               11.18671142               22.85629306               -0.93842693
              20.47296753                4.18813957               62.92587016                1.00000000                0.14009227                2.20091730               -5.99318300                1.03237906                0.34226063                0.98631069
               9.12384857                7.21152901               64.41247951                0.91248854               -0.08855864               -0.26330048                0.76489448               -0.00662547               -0.22667464               -0.14299767
              10.12296298                7.06839937               64.25451639                0.33965544                0.04032797               -0.06666984                0.09603299               -0.09049730               -0.31923446                0.25584387
              11.12465513                6.92299748               64.09588569                0.00010000                0.08915159                0.27975278               -0.68076704                2.53735188                0.10780079               16.76273392
              12.12474602                6.77466266               63.94724651                0.00010000                4.29790634               -4.22006350               14.03000957                1.97613139               19.54425570               27.55269474
              13.21061326                6.57857168               64.11111834                0.00010000               11.42816676               -8.42246565                7.34296782                3.01532610               18.45404942               30.24771681
              14.35330935                6.38123143               63.98322650                0.00010000               21.22058869              -13.94056392                5.44076046                5.29448122                7.07626618               29.46384444
              15.63502503                6.07322374               63.86812990                0.00010000               29.31237729              -21.21083792                3.01375229                8.03163809               13.38519148               22.04993461
              16.93955690                5.70657409               63.75560180                0.00010000               35.79464771              -14.75502275                0.58159808               -2.21022180               19.25266128               -4.78097099
              18.35091798                5.49572621               63.65630431                0.00010000               40.82535334               -5.70503436               -6.34731867                8.05899221               24.70307208              -21.04470354
              19.75606396                5.46463603               63.52327166                0.28794005               20.26312404                4.89925281                2.93166938                3.22536416               23.54562478               -5.20454952
              20.75618047                5.20629000               62.91637290                0.92867341                0.01165017                8.28433966               -3.08903173               -8.19931179               -0.17374532                5.20579363
               9.26600134                8.20944389               64.32946627                0.88255151               -0.07418089               -0.16400231                0.48928332               -0.01521156                0.02212343               -0.13122075
              10.26525953                8.06802773               64.17543945                0.30485691                2.91549915               -0.00437035                0.00430819                0.10226162               16.02400606                0.27999825
              11.32431132                7.92816069               64.34145417                0.00010000                5.11047838               -3.78214256               13.03046647               -0.57573259               29.99629250               35.52259205
              12.36746910                7.68900752               64.42741129                0.00010000                5.86822145              -10.15816522               16.46441739               -3.44611665               18.74465380               43.24128581
              13.44167575                7.45165026               64.35598033                0.00010000               11.70149616              -14.41943137               15.41052278               -5.46743235                8.39600186               29.34908362
              14.60149902                7.18704767               64.22539041                0.00010000               19.27860346              -18.65791553               10.85788546               -9.71741243                3.83934706               21.82739357
              15.82724782                6.88668278               64.02711976                0.00010000               25.71880958              -16.96672004                4.83127822              -15.58800536                1.44247164                9.28357784
              17.11587521                6.60702647               63.80148213                0.00010000               31.02666920               -9.71511739               -2.78928374              -10.84806301               -0.35591945               -4.64866742
              18.44778120                6.45539465               63.53387161                0.00010000               35.48174433               -3.68491062               -9.86266285                7.90282560                2.89837223              -16.04024440
              19.82551010                6.57743886               63.41005136                0.15301973               18.89460670                5.68011323              -16.69999325                9.60391042              -10.77503990              -17.26255061
              20.82567334                6.35382636               62.99637081                0.78022784                0.01632392                7.33772027               -5.85196869               -7.68057457              -12.21053802                8.12811086
               9.40637666                9.20824896               64.24713191                0.87813558               -0.00852452                5.25062713                0.27434005               21.63276236               -0.08337196               42.36299215
              10.40629142                9.06831197               64.09360007                0.32400604                4.28920108               -4.75649068               -0.19485131                4.29600408               35.31035523               43.14361181
              11.49216068                8.84735463               64.64806568                0.00010000                6.30213502              -11.12435578               25.58570551               -8.72918317               51.84406839               38.48605825
              12.53233412                8.57149936               64.73650701                0.00010000                5.55318876              -13.57674254               24.99427052              -11.93211952               17.78499787               33.16573711
              13.60322446                8.29018305               64.64506956                0.00010000                9.57972318              -16.09780618               21.05347410              -14.30104335                2.91346477               25.00157497
              14.72392858                8.00807312               64.43570007                0.00010000               15.00308336              -16.69743298               14.89743369              -18.48852930               -5.56650544               14.94994135
              15.90328613                7.73388934               64.15893262                0.00010000               21.49775922              -13.87437823                6.53007415              -20.86984736              -10.05482750                4.78013399
              17.15388376                7.51227175               63.84204636                0.00010000               31.76379916               -9.17689874               -3.72360476              -16.79623586              -11.54340774               -4.36653680
              18.53856211                7.42202800               63.51688380                0.00010000               44.79133481               -5.90338129              -15.70509487                1.41732216               -6.04143687               -2.85972204
              20.04971046                7.57823829               63.26020709                0.08658440               25.56159320               -7.58059603               -7.33343853                2.86514030               -6.04577318              -16.69756649
              21.04979397                7.35304441               62.84821690                0.70666890                0.00835116                7.34382415                5.61415878              -15.25466189              -12.62794065               15.11028688
               9.97853057               10.31445643               65.01448093                0.87731389              -26.64566336               -6.11298878               75.42704190                6.21553622               26.26548030               93.43470496
              10.71207394                9.97289791               64.87073344                0.38463248              -16.59951506              -13.29947761               74.01306991                2.96227114               31.12430264               77.07170651
              11.64654027                9.70567357               65.01033207                0.01426810               -1.30378247              -14.61848482               34.34238389               -6.11040216               31.47617807               40.78402640
              12.68599829                9.41747267               65.05493627                0.00010000                3.62704243              -14.54615886               32.51324253              -12.51282123               11.55565807               24.55709023
              13.71908112                9.12969413               64.88997776                0.00010000                5.10119307              -15.34275036               26.20825107              -17.26929673               -5.10576545               17.30972249
              14.78802215                8.85309901               64.62338473                0.00010000                9.32855654              -14.21421508               18.35913803              -20.70632832              -14.31864587                9.64649008
              15.90565225                8.60919521               64.27736830                0.00010000               15.18948418              -11.02814231                8.51890494              -22.66950561              -20.00151463                2.16822395
              17.09181183                8.42348850               63.88896977                0.00010000               25.22544262               -7.21506918               -2.68460994              -22.55348525              -18.24861377               -3.20894998
              18.41016110                8.33732702               63.55654505                0.00010000               42.99923311               -5.50896906              -15.04669385              -21.66228938              -15.75722056               -6.85591065
              19.95179650                8.42582694               63.06648198                0.07016019               28.04033803               -8.94399427               -7.30390300              -35.04997938               19.41073071                1.95431860
              20.97096786                8.50070285               62.92443448                0.68473145                1.91713670               16.68462462                2.07924619              -31.66577160               33.07998127               -2.30006084
              10.21380442               11.08598918               65.76829554                0.88132572              -13.94847233              -19.19634148               65.21662263               -1.35474385               20.28551727               74.72619289
              11.07431970               10.80232241               65.55369386                0.52781378              -14.42132691              -17.92990318               55.40790905               -2.45955415               14.15278570               19.94815997
              11.92537788               10.55498494               65.39878653                0.14155822              -10.81312816              -15.59911984               49.50079615                1.26736182                6.35867418               -0.42218379
              12.85805713               10.28057618               65.24476410                0.00010000               -5.15828506              -13.59143171               38.16922164              -11.86729077                0.60672101               12.22882808
              13.82221218                9.98332805               65.09290292                0.00010000               -1.38781005              -14.42803116               32.08048734              -17.41693341               -9.40381218                9.73294311
              14.83030093                9.72378882               64.78662310                0.00010000                2.86471748              -11.76371321               21.76339050              -18.54190282              -21.76313457                5.63282310
              15.87950653                9.51332649               64.38844589                0.00010000                7.21906580               -8.31460695               11.15520412              -19.69095727              -28.11277208                0.72591208
              16.97468225                9.36797036               63.95015372                0.00010000               11.17356741               -3.96706535                0.02944936              -20.69614034              -28.81327390               -2.81780223
              18.10297788                9.31184862               63.51512817                0.00010000               10.53264022                0.66997434               -8.51059226              -23.13836351              -22.11721995               -7.34681555
              19.18533505                9.39935841               63.16657023                0.07964224                8.18744265                4.37788239              -14.48855358              -32.13943289              -14.32726405                3.47944846
              20.26672673                9.68673690               62.84858749                0.68350908                8.13916785                4.20585675              -10.56716923              -23.10237316               -6.14250052               11.92962131
              10.51876923               11.93052960               66.31341066                0.82584950              -32.48821310              -20.65355240               73.97533199               -4.88763971              -67.49285797               36.40462177
              11.19388710               11.61429985               65.07468843                0.75586290              -16.25677448               -9.41293189               65.72057004               -9.84279973              -31.07323759              -22.10563085
              12.19363374               11.39369118               64.90070600                0.40113093               -8.67888684               -8.07220269               55.99602744                1.01087330               32.86968271              -28.01290108
              13.02030936               11.14564404               65.37299497                0.00010000              -13.30519668              -20.24651972               61.05167977               -8.10965650               24.43781641                2.47364132
              13.92752981               10.84113351               65.24056464                0.00010000               -6.65618588              -13.34475679               36.39931061              -13.03970263              -11.47843552                3.41109539
              14.88718565               10.61782475               64.93841733                0.00010000               -2.99391235              -10.12518331               25.78004470              -11.44566690              -26.78124464                2.64974181
              15.86765156               10.44290307               64.49831864                0.00010000               -0.39093739               -6.03409579               14.35100677              -11.92355483              -35.67259044               -0.00616453
              16.87936690               10.34414719               64.01354981                0.00010000                2.41771128               -1.66417647                3.34127237              -10.92150098              -36.73074357               -1.78861630
              17.91600579               10.35072651               63.54571642                0.00010000                2.73763275                3.38171239               -5.91394928               -5.68780824              -29.49668429               -1.29784780
              18.93411955               10.51338459               63.19051042                0.10528607                0.90788089                5.70399431               -5.47811211               -4.42524760              -11.08240422               -1.37312098
              19.93416341               10.58481998               63.02989442                0.68248319                0.00438513               -5.09598317               -5.11881099              -13.05504410                1.91134926               12.45723342
              10.74851113               12.67291814               66.43537287                0.90749259              -33.42090010              -25.76114651               82.70053233               17.08875362              -69.87307328               10.26912926
              11.41430213               12.61406378               65.05996170                1.00000000              -16.71299838               -0.02360731               74.50431311                8.07263990              -32.50729699              -22.23273825
              12.41425116               12.39354088               64.88608050                0.78766980               -8.29402278               -0.01502928               64.38815998              -14.85915792               39.91785924              -25.31779499
              13.24842167               11.87564578               65.47990008                0.36642011              -16.25068726              -26.99982534               72.08625838              -11.04416804               30.68059627               -9.72653612
              14.08923741               11.71643291               65.39070040                0.36070215              -12.44018214              -12.47005990               42.42501855               -1.54727098              -12.20896982               -0.68066327
              14.99961803               11.52128515               65.08168458                0.36489014               -8.72622107               -9.65395971               30.22061823               -4.94617853              -31.12701511                0.04821273
              15.91471299               11.39264458               64.61214451                0.37910868               -7.55946185               -5.02584984               17.93907506               -4.62377296              -42.21515676               -0.54176746
              16.84842879               11.33468683               64.08932255                0.40361318               -4.73643387               -0.94603589                6.10064948               -3.75189624              -44.48466152               -0.66140940
              17.81998432               11.37948287               63.58540650                0.44656551                0.71539204                2.87563551               -3.57379914               -0.66457420              -39.39837394                0.48687197
              18.86273663               11.51343829               63.14950580                0.56547324                2.13853750                0.00537032               -2.61407105                3.12842641              -18.96673503               -2.15036629
              19.86275507               11.58481724               62.98888068                0.84320610                0.00184335               -0.00027413               -1.93396356               -0.00293925               -3.34974068                2.28845247
               8.69433207                3.31228022               65.76250700                1.00000000               -0.42908024               -0.57561638                2.05828347               -0.22394011               -0.28621248                0.02206176
               9.69004127                3.15837852               65.59150687                1.00000000               -0.20374384               -0.17650025                0.74690675               -0.19714686               -0.37913812               -0.00317549
              10.69025720                3.00457616               65.41975603                1.00000000               -0.59438083                0.17819654               -0.54817978                0.06161533                1.20432078                0.23275633
              11.67815365                2.85883029               65.27870902                0.59632277               -0.62473216               -0.15023206                0.29554135                0.59097452                0.50417951                0.16153841
              12.67776255                2.70174846               65.12578729                0.49082630               -0.03224519               -0.00915497                0.15283246                0.01488738               -0.04235902               -0.01117769
              13.67750875                2.54522241               64.97326384                0.31513188               -0.01721407                0.00804254                0.05417307                0.03157133                0.02189936               -0.03601910
              14.67741827                2.38841219               64.82099747                0.00010000               -0.00204953                0.03584184               -0.04894546                0.06969672                0.09028487               -0.04457463
              15.67746776                2.23206219               64.66990797                0.00010000               35.38678973               -0.00789477               24.81148728               19.16060308               65.70123809               21.84681996
              17.38515407                2.45608262               64.97154171                0.00010000               68.33436433              -38.11494959                6.05253316               -4.58508315               54.67146981               10.74028916
              19.04415505                1.57185449               64.66396059                1.00000000               33.00794949               -2.46800933                7.16596475              -24.15044718               20.94667884                1.59435693
              20.04531306                1.11917360               63.91544452                1.00000000                0.11580096                2.72432899               -7.90727043               -2.51063445               -1.15861327               -1.89903652
               8.84599437                4.30652405               65.67782091                1.00000000               -0.40725435               -0.52959860                1.85948639                0.01142248               -0.22126033               -0.10331958
               9.84192183                4.15661351               65.50752008                1.00000000               -0.26734548               -0.15431188                0.60736180                0.06449235               -0.20302227                0.01097610
              10.84064746                4.00635813               65.33948418                1.00000000               -0.32222878                0.18489279               -0.73793798                0.10534599                1.14887991                0.40201036
              11.83547725                3.85732797               65.19413675                0.52717959               -0.29660486               -0.07769525                0.20501925                0.45257755                0.53621584                0.08502443
              12.83471536                3.70165691               65.04201981                0.50098294               -0.04923271                0.02209337                0.01594455                0.11757885                0.30461820               -0.05928835
              13.83449260                3.54530284               64.89099402                0.34462509               -0.00100076                0.03663610               -0.06921797                0.06652081                0.31645677               -0.05571956
              14.83469535                3.38877060               64.73992201                0.00010000                0.03729876                0.04644174               -0.17254555                0.06663129                0.22527074               -0.12590895
              15.83523857                3.23198324               64.58796214                0.00010000               41.73558689                0.01073051               -0.15287920                0.08647257               21.57547964               -0.13713799
              17.66940709                3.07493312               64.86454263                0.00010000               81.79332559              -37.11689058                6.69296793               -2.00010018               56.24933704                6.27562183
              19.47110508                2.54717439               64.64751528                0.13788752               40.17402565               -2.60353828                7.04897079               -6.45445794               27.16869436                1.37043337
              20.47288760                2.14641689               63.88979833                1.00000000                0.17825149                2.88696085               -8.17464706               -0.03098804                0.12654102               -1.88913629
               8.99438160                5.30168824               65.59256516                1.00000000               -0.28845590               -0.45304403                1.60045689                0.05392647               -0.22007196               -0.18207662
               9.99149704                5.15529228               65.42357575                1.00000000               -0.13659702               -0.14223340                0.39174730                0.14062998               -0.13731612                0.07576856
              10.99164966                5.00827402               65.25881607                0.49740625                0.02046931                0.15887989               -0.56929196                0.11491511                0.65385568                0.34291191
              11.99190643                4.85727639               65.10723993                0.00010000                0.02448004                0.04098890               -0.18961317                0.24822436                1.04385128               -0.07065192
              12.99213926                4.70219032               64.95774278                0.00010000               -0.00904795                0.07459400               -0.11038394                0.12311728                0.83122253               -0.06844589
              13.99172547                4.54595514               64.80839551                0.00010000               -0.00343840                0.08289917               -0.17777025                0.06642913                0.59764075               -0.04090380
              14.99207049                4.38934102               64.65737580                0.00010000                0.06546118                0.06636580               -0.26635062                0.05569781                0.46402958               -0.28207954
              15.99303469                4.23227680               64.50726504                0.00010000               51.89452109              -18.65619211               -0.19402255               19.16468438               24.15339840               17.33729216
              18.02996091                3.71374481               64.83292900                0.02547629               92.52737161              -30.44717095                4.72505157                6.93828492               58.79054707               -9.48709575
              19.84358212                3.51978372               64.63565172                0.44276937               40.81236965               -2.84136221                7.11037117                7.06160624               28.39130817               -0.03215713
              20.84620831                3.17691281               63.85697240                0.89713067                0.26261829                3.16162408               -8.63267554               -0.29861311               -0.64379719               -0.19004413
               9.13986483                6.29746317               65.50701030                1.00000000               -0.17161797               -0.39227518                1.34516670                0.02329078               -0.22961875               -0.20682607
              10.13814865                6.15376884               65.33929005                0.54141032                0.05484124               -0.13359606                0.20961021                0.05559541               -0.20171555                0.14767853
              11.14096166                6.00953573               65.17396768                0.00010000                0.41883916                0.21397049               -0.72190173               -0.28183920                0.50860570                0.19596484
              12.14652543                5.85814775               65.01991664                0.00010000                0.37686514               -0.71604508               -0.57363406                2.53439084                1.48950442               14.74280252
              13.14849896                5.70314879               64.87365971                0.00010000                0.10725239               -3.17246721               -0.23998544                4.36432175                1.38683157               19.66642790
              14.14867048                5.54696082               64.72647813                0.00010000                0.04943399               -6.20779463               -0.29505093               12.13208207                0.81693046               20.31540143
              15.14948764                5.39009792               64.57345733                0.00010000               37.27289954              -16.64269632               -0.32715088                9.87934649               18.20245151               20.39167919
              16.89412847                4.85885940               64.77557802                0.00010000               68.55891140              -31.86176272                8.08116323               14.87148814               43.25997510                3.17216668
              18.52066587                4.46598970               64.74726581                0.00010000               62.75203649              -20.03378332                2.84676563               12.26821990               40.59827836              -30.80943930
              20.14916920                4.49034715               64.59831455                0.55861041               31.59956420               -2.12202213                7.31676554               14.60534395               32.92651673               -3.22265079
              21.15265715                4.20964937               63.85934908                1.00000000                0.34879474                2.19846016               -9.41695329               -0.77461940                3.59702908                4.48495266
               9.28223607                7.29384274               65.42142994                0.90760703               -0.16996739               -0.30410041                1.09902072                0.01553752               -0.25297910               -0.27895950
              10.28053639                7.15262036               65.25535813                0.34881274               -0.03010475               -0.06857569                0.03658701                0.12356223               -0.48975991                0.36278797
              11.28163397                7.01255343               65.08598321                0.00010000                3.42223950               -0.47715037               -1.15388369                2.69967239               14.94573660               24.54539513
              12.34898118                6.84295548               65.22823871                0.00010000                5.44893236               -6.97260467               22.96604938                1.27853787               25.65262853               35.70779459
              13.39061262                6.63874098               65.18315484                0.00010000                9.92183958              -11.92805239               11.85208124                3.36711974               11.12172936               38.29627686
              14.54741797                6.42179924               65.05125440                0.00010000               24.35731111              -19.26326701                9.31801272                3.89430488                6.62522967               34.08898952
              15.87775884                6.05648709               64.90547035                0.00010000               33.35773474              -28.82278798                6.02313949                3.50976024               11.68405536               21.77193373
              17.21457267                5.59504155               64.77092246                0.00010000               38.30393615              -18.61704514                2.27877619              -15.49444584                9.90714765              -15.68655899
              18.64383756                5.31306914               64.54074953                0.00010000               58.87283343               -6.66079806               -6.70839415               -2.69408434               13.84886389              -34.51646120
              20.39202934                5.47734328               64.53065175                0.39785727               37.41369569               -6.92290885              -20.15195185              -25.45912643              -13.41330062              -41.00526066
              21.39211148                5.22088202               63.91036927                1.00000000                0.00821401               11.02801516               -7.76766103              -33.61293523              -25.16159309               16.17755632
               9.42262035                8.29138116               65.33510571                0.88223626               -0.07111407               -0.19312394                0.67359820                0.07016530                0.01272136               -0.30216922
              10.42190921                8.15239733               65.17486900                0.32934228                4.09998144                0.01377612               -0.14866502               -0.51646307               23.54712487                0.39247243
              11.50461998                7.99999272               65.48550855                0.00010000                6.19997171               -6.88887964               18.39535114               -0.49073879               39.85362625               49.61739102
              12.54590864                7.71869565               65.59922229                0.00010000                6.61888086              -13.93235133               22.67724737               -8.00644703               23.04088324               42.10369913
              13.63699759                7.46458774               65.54288916                0.00010000               13.14509116              -19.54581014               22.81087057               -7.56097499                9.34342266               33.49618128
              14.80881046                7.16169548               65.35270969                0.00010000               20.47214724              -24.39984516               16.79902105              -13.99701181                0.11282828               22.43628489
              16.04644054                6.81364216               65.08858296                0.00010000               25.94235224              -21.21394333                9.15133159              -23.05246170               -5.95113284                5.97735290
              17.32765751                6.48651850               64.77042855                0.00010000               26.90209553               -9.85282160               -0.42293745              -18.95339309              -12.02124935              -14.35389941
              18.58448245                6.33277374               64.43977090                0.00010000               20.22581445                2.08739728              -10.45192085               -6.58367423              -21.65488026              -27.60797631
              19.73217380                6.35188897               64.07896530                0.26672705               20.44192591               -1.84520335              -26.19120628               -5.36820117              -23.84341303              -39.56345719
              20.99332097                6.43020967               63.87669953                0.88755901               26.11471689               17.79762274              -24.27791626               -1.22053973               -7.91307462                4.65066508
               9.56160704                9.28998026               65.24998258                0.88081954               -0.00114606                9.18652763                0.11660472               25.74862879               -0.11170318               75.26777944
              10.56159558                9.15289588               65.09150028                0.36399787                7.19569184               -4.32891748               -0.08359476                9.42901758               50.39869829               74.69506237
              11.70552087                8.87477584               65.94311208                0.00010000                8.13308235              -15.14056334               38.10840669               -8.69840306               66.11904553               47.70584879
              12.72425722                8.56430846               66.03269024                0.00010000                4.54362089              -17.21919841               33.70105756              -14.25672588               19.38295571               36.15059814
              13.79639329                8.24782478               65.88507530                0.00010000                9.70830467              -20.97596737               28.92117642              -18.21089758                1.26104089               23.90226232
              14.91842332                7.93380234               65.60869397                0.00010000               14.77466497              -20.83016988               21.10629394              -23.10808583              -10.46418798               12.28685532
              16.09188659                7.63220823               65.23562590                0.00010000               19.89749542              -16.10067280               10.59244028              -25.69672327              -20.22234209                0.17048215
              17.31637322                7.39798512               64.79873922                0.00010000               27.74535086               -8.23354718               -2.23592076              -18.50268976              -29.91790501              -10.25931961
              18.64679361                7.35481709               64.33119631                0.00010000               43.54280809               -4.36320769              -15.79087725                0.35918529              -30.95671546              -20.08639065
              20.18722939                7.44043921               64.11285778                0.20721454               28.21328377                7.84356497              -25.87588859               32.41323211              -34.66177929              -15.28242399
              21.21105928                7.57683447               63.96133443                0.81781939                2.38298968                3.98385615              -13.41171700               22.77475979              -19.48594685                0.29491976
              10.21176169               10.47511172               66.67342288                0.88156530              -18.60677033               -2.83796213               75.89457640               15.40043137               16.66890980              121.74408017
              11.02569398               10.06581898               66.49836839                0.44466435              -14.62611750              -13.13954038               68.96085203                3.70320381               22.88155547              102.37441088
              11.91923934                9.69718145               66.46347608                0.06803869               -6.89844006              -15.96394828               51.33078780              -10.29508115               25.46216451               43.01372305
              12.88772518                9.37431169               66.41609761                0.00010000               -0.79767893              -19.03239177               43.02517215              -16.55382671               10.67532884               24.52832093
              13.90328576                9.04506839               66.19060848                0.00010000                3.72700566              -19.12983592               34.52764912              -21.98013572               -7.02326171               14.86802630
              14.96226530                8.74509208               65.82953635                0.00010000                8.25187693              -17.01819984               23.92702066              -24.53225412              -20.42438882                5.94271505
              16.06832330                8.49162870               65.37089246                0.00010000               13.63647792              -12.20431429               11.63744979              -24.84083201              -30.44450764               -1.60481241
              17.23499485                8.32184756               64.85939339                0.00010000               24.04443811               -6.69713922               -2.18614707              -22.92937410              -39.00465177               -6.30070435
              18.54921206                8.24550959               64.31550719                0.00010000               46.17131004               -5.52277047              -18.69658594              -11.83242971              -33.45678688               -4.93203819
              20.15842106                8.50876027               64.11471668                0.20165652               31.34067907               -2.98019283              -17.59656989              -29.89305583              -40.22027724              -15.29243914
              21.17602564                8.50988680               63.85876241                0.80449598                1.76045858                6.44668894              -18.65550338              -36.53139432              -32.41210768              -11.39403882
              10.68820113               11.23322102               67.59669968                0.88629158              -27.46112165              -26.64057779               90.15913381               12.45713333                6.16690314               71.48413889
              11.41358992               10.89010507               67.19218987                0.61426322              -24.85372931              -20.72229676               76.81220203                5.38903631                4.23709693               40.47705422
              12.19112655               10.55549687               66.92900960                0.22126047              -18.41480830              -18.27807997               65.49624219              -12.34238395                7.58825851               16.93343200
              13.04529375               10.18366062               66.72783783                0.00010000              -10.25581841              -20.06949445               54.93526861              -20.49681743                0.68774818               11.27472529
              13.98601018                9.86522806               66.44739171                0.00010000               -3.20379146              -17.43744293               40.29796707              -20.84854887              -13.59627254                7.28437883
              14.98121792                9.59343834               66.02784827                0.00010000                1.61521510              -13.88594540               27.12681687              -21.43340955              -28.13173415                2.26106174
              16.01831448                9.38812194               65.50754016                0.00010000                6.13434687               -8.99436053               13.54294046              -20.88956960              -38.07480157               -1.71403554
              17.10390486                9.26404233               64.93902931                0.00010000               10.24589094               -3.83880806               -0.44319336              -19.88691209              -41.55159735               -3.32294880
              18.22323230                9.24436168               64.41055468                0.00010000               11.05431035                2.53362127              -12.80498312              -21.14733795              -38.63270752                0.03182482
              19.32499106                9.38083535               63.95492690                0.21787989               12.74730255               -2.33485366              -21.88726488              -31.47122668              -21.78703915               -4.48672551
              20.47817835                9.70576825               63.71822170                0.81202182               15.31872846                7.13181935              -22.10648200              -19.66325552               -7.83346249               -2.78757112
              11.14713625               11.94230016               68.04233943                0.82706628              -33.59373894              -28.38982172               92.64088966               14.08301362              -12.52167050               28.21448560
              11.81119886               11.65137305               67.38837988                0.85293851              -38.41500700              -35.28517939              128.70579533                5.76692700               -1.97097089                7.55773691
              12.37883611               11.33161985               67.02020263                0.49672040              -32.15706061              -32.67256396              112.06280860              -12.54180462                8.62149563               -4.79586867
              13.16805765               10.97292180               66.94898322                0.00010000              -15.11495242              -21.66902867               65.95891095              -16.58580000                7.21998675                0.65861140
              14.07653706               10.69631953               66.67243256                0.00010000               -7.86772128              -17.37927768               47.39502780              -13.52617583              -16.37633710                2.71860637
              15.01070322               10.46737318               66.21545122                0.00010000               -4.83045713              -11.80371050               30.96556638              -13.43226323              -34.36598974                0.34899037
              15.97992792               10.31174149               65.65040121                0.00010000               -1.48431719               -6.62158772               16.53424823              -12.36310565              -44.60802145               -1.09274771
              16.98101688               10.24507139               65.04010133                0.00010000                1.47721802               -1.05339290                2.43372983              -10.42546231              -47.48331758               -1.36895005
              18.00947228               10.29618202               64.46090947                0.00010000                4.32865357                4.59782246              -10.13640031               -6.55432168              -37.41755911               -1.51535883
              19.06758995               10.46206320               64.08106051                0.22657186                6.17112302                6.53245830              -20.29848368               -2.46172042              -14.04956290                1.50911056
              20.13289474               10.65252318               63.92757421                0.80340166                6.53047894               -1.71491789              -28.47810369               -7.03882081                4.67719293               14.79447892
              11.55171563               12.66542458               68.28914111                0.90704348              -41.21068686              -27.68755755              105.26538069               -7.64437179              -12.75603200               11.04769022
              12.13960876               12.18440148               67.54965664                1.00000000              -46.64869642              -46.69715626              146.96045846               -5.32795933               -0.76046961              -12.54256239
              12.61874170               11.90204559               67.17369322                0.83188703              -39.53653465              -42.95742617              128.91275786                2.28448765               12.81672530              -17.93629711
              13.34887807               11.75028005               67.15508933                0.36620000              -19.88532109              -22.26417485               76.15278707               -1.13811205                8.60049438                0.22356898
              14.22103528               11.51764250               66.88924497                0.36067486              -12.58636879              -17.86770280               54.27371523               -5.19597367              -18.74365921               -0.77503572
              15.09715069               11.35736413               66.40645112                0.36474319              -11.38405661              -11.00090435               36.20088048               -4.45286858              -40.25132612               -0.62737487
              15.99335415               11.25569019               65.80336159                0.37812426               -9.30978018               -5.60513063               20.70389308               -4.37685988              -52.33716382               -0.73619314
              16.91095509               11.24297447               65.14662905                0.40148642               -5.91000438               -0.20969210                5.73123447               -2.97478176              -55.84922857               -0.24276843
              17.87515406               11.33631813               64.52272231                0.43311981                0.42301996                4.01361118               -7.70249963               -0.00631932              -46.16047675                0.56122280
              18.91941549               11.51148452               64.09726302                0.61451427                4.06639518                4.94213227              -15.46200233                1.94014236              -24.07667779                1.41922812
              19.95648196               11.67146989               63.95020848                0.89695445                3.70664754                1.89467112              -24.58853251               -1.64274010               -4.11441942               12.95812897
               8.86937681                3.39751817               66.78537714                1.00000000               -0.46884577               -0.66923353                2.47627228               -0.32399577               -0.20952208               -0.09107342
               9.86468835                3.24329291               66.59870304                1.00000000               -0.22273383               -0.19510688                0.72776591               -0.37510699               -0.23665885                0.07071057
              10.86492214                3.08829408               66.41212737                1.00000000               -1.70714427                0.40138491               -0.97274029                0.32029763                2.53107823                0.10767690
              11.83054547                2.94526087               66.28037047                0.59611763               -1.73797458                0.01026670                0.10069319                0.75554604                0.99992683                0.16918449
              12.83016264                2.78632494               66.12714670                0.48345560               -0.01282006               -0.05988586                0.09536405                0.05829985               -0.06907441               -0.00329135
              13.83028907                2.62777630               65.97384960                0.29504279                0.00950345                0.00972687                0.05031338                0.00964506               -0.04580357               -0.00708104
              14.83035271                2.46947870               65.82058391                0.00010000               42.93786779                0.02396163               -0.00384953               22.06965332               24.90680366               -0.03393389
              16.68904642                2.75280324               66.16625186                0.00010000               61.52676702              -44.03683209               30.39227474              -60.60022103               73.44034192              -15.55812434
              18.06088805                2.65805550               66.01884837                0.00010000               58.36775465              -41.36082765               11.11986274              -32.72787123               53.09021051                6.22020107
              19.85640152                1.60587017               65.74215987                1.00000000               39.80299092               -2.88279793                8.57705688              -31.59669386               30.54391110                1.81550759
              20.85694787                1.12623980               64.83179337                1.00000000                0.05463551                3.08291886               -8.91288547               -2.85540476               -1.22315246               -2.14161307
               9.02036211                4.39082583               66.69851806                1.00000000               -0.48127779               -0.58595761                2.26147589               -0.07519490               -0.13689432               -0.22518563
              10.01554933                4.24134185               66.51352230                1.00000000               -0.16104869               -0.12279297                0.54525830               -0.04458166               -0.22099389               -0.02270644
              11.01714114                4.09230792               66.32782710                1.00000000               -1.32319166                0.36014249               -1.37367521                0.03138392                2.66199258                0.55140453
              11.98908550                3.94536353               66.19586319                0.54390410               -1.38266039                0.00323137                0.06829090                0.92454623                1.09295932               -0.02346105
              12.98948793                3.78572608               66.04233507                0.51149968               -0.01384307                0.00541926                0.04803840                0.10980872                0.16215410               -0.00874988
              13.98880864                3.62787356               65.89062034                0.34364237               -0.04760779                0.03398318               -0.01992341                0.07415369                0.21576689               -0.01616277
              14.98853577                3.46971832               65.73841524                0.00010000               -0.00264111                0.04372295               -0.12220020                0.06236031                0.22155669               -0.10101015
              15.98875581                3.31243492               65.58695641                0.00010000               65.92700542              -22.00309464               22.38144126              -38.43288679               77.15412261              -15.53038887
              18.30707588                3.24444722               65.92962861                0.00010000              115.87933064              -49.83348224                7.77033028               -8.28765205               86.90740378               -0.06923187
              20.30634243                2.57704219               65.72461222                0.14850765               50.04741554               -2.85668184                8.20431213              -12.45115076               35.88052798                1.61977353
              21.30802419                2.15706899               64.80199167                1.00000000                0.16817638                3.13401133               -9.27479809                0.02464239               -0.01782265               -2.04961611
               9.16684089                5.38579902               66.61066349                1.00000000               -0.45262605               -0.45586233                2.02605104                0.02183382               -0.19534546               -0.32054694
              10.16231463                5.24083705               66.42716780                1.00000000               -0.26563827               -0.04047678                0.33026844                0.08474187               -0.07556120                0.00224734
              11.16152813                5.09549692               66.24998535                0.43673171               -0.33481958                0.35049344               -1.12515197               -0.16398008                1.52891933                0.59689135
              12.15561824                4.94532549               66.10512043                0.00010000               -0.58396692                0.09512625                0.04576385                0.77348148                1.21010900               -0.32874562
              13.14984879                4.78643332               65.95766224                0.00010000               -0.39191676                0.11449931                0.02673083                0.13778385                0.70134124               -0.00047692
              14.14777990                4.62845596               65.80725547                0.00010000               -0.14051136                0.07172591               -0.06473886                0.09568223                0.43313307               -0.01760328
              15.14703856                4.47035316               65.65533410                0.00010000               -0.10600603                0.04601261               -0.17581194                0.13282427                0.51639443               -0.21455540
              16.14565978                4.31274135               65.50699895                0.00010000               74.17445946              -30.52610420               21.25239326               23.81250128               81.67706198                1.83121928
              18.63052775                3.66138585               65.86584650                0.00010000              127.45484759              -49.94805998                4.56191234               -1.85941881               88.44631930               -8.34793847
              20.69475673                3.54873653               65.71028937                0.32076347               53.34296840               -2.85207134                7.79662808               11.96027048               39.24960523                1.53323913
              21.69738712                3.18892003               64.76684453                0.77514116                0.26303823                3.36863802               -9.54000192               -0.24090738               -0.12837909               -1.78074979
               9.31072271                6.38170859               66.52246343                1.00000000               -0.31764497               -0.39723060                1.73797309                0.08695823               -0.21247445               -0.31415278
              10.30754626                6.24053231               66.34094874                0.53636419               -0.06748079               -0.03804367                0.15274636                0.19545490               -0.10631460                0.18156384
              11.30937309                6.09931779               66.16481331                0.00010000                0.30362347                0.34337965               -1.12603914               -0.20525461                1.10759950                0.28290591
              12.31361873                5.94726606               66.01467276                0.00010000               -0.01299779               -1.79062949               -0.04868732                3.68534921                1.60885657               23.97063785
              13.30911314                5.78801607               65.87284621                0.00010000               -0.34081428               -5.55827807                0.00666844                7.11126942                1.30534142               27.97492714
              14.30680244                5.62930808               65.72444514                0.00010000               -0.11031370               -9.58381482               -0.12848632               14.91705180                0.64210560               26.38061790
              15.30690686                5.47063857               65.57134022                0.00010000               48.35853510              -23.84081888               -0.12151004                3.73021398               24.42326727               24.76794461
              17.27397315                4.70191284               65.89973192                0.00010000               86.34927309              -45.73744853                8.92534019                6.58041707               45.39248862               -7.00077064
              19.03389233                4.24548602               65.76919007                0.00010000               87.20202587              -27.42469796                3.09655891                2.78630718               50.19266873              -35.56063864
              21.01801366                4.52000076               65.69166027                0.62314315               49.44733621              -19.24282330                8.55255651              -29.88113982               44.67904432              -26.14830860
              22.02283905                4.22444175               64.73753109                1.00000000                0.48253867               16.17853284              -11.37662670              -39.74957891                0.87456126                1.21711925
               9.45093261                7.37785440               66.43445992                0.90486208               -0.23180877               -0.34303596                1.42559608                0.02250129               -0.22007911               -0.49354728
              10.44861452                7.24007618               66.25524813                0.36178855               -0.01216629               -0.03986398               -0.06813389                0.13815189               -0.38975087                0.43231604
              11.45068928                7.10236452               66.07280801                0.00010000                4.60062140               -1.79690771               -1.38164735                2.85470948               25.47498613               36.39057687
              12.54062695                6.90951290               66.40656750                0.00010000                7.96714331              -11.03180403               21.90061238                1.50953329               35.88541324               47.93751069
              13.61003215                6.67526776               66.34815997                0.00010000               11.14357426              -18.41813185               22.44346457                4.66052100               11.71008689               48.48169355
              14.76349844                6.43677966               66.16958676                0.00010000               26.95029660              -27.54871402               17.78559628                3.47641835                6.69277381               41.33010715
              16.14903808                5.99353678               65.98859269                0.00010000               36.94611178              -39.72821397               12.40883940               -2.75939206               12.24513265               23.47798315
              17.50242067                5.39799238               65.80117733                0.00010000               35.95639447              -20.48905565                5.37073785              -31.51778752               10.88141463              -28.52716576
              18.86816597                5.11289189               65.52213642                0.00010000               30.78787702               -6.63488365               -1.75491029              -28.09288986               -1.23875985              -46.17310451
              20.11817821                5.16388006               65.12023263                0.47342638               31.26737951              -15.80185377              -30.17717486              -35.33508344              -24.39519729              -61.43274057
              21.49351356                5.51249068               64.76101968                1.00000000               37.53353505                8.57163788              -29.91915226              -12.68372129               -3.47797786                6.46840610
               9.58672918                8.37484787               66.34293823                0.88327541               -0.09299983               -0.12835117                1.24248450               -0.00255433                0.20990582               -0.87816641
              10.58579919                8.23973503               66.17246615                0.35233897                5.51506888               -0.06811761               -0.51943809               -1.94734339               35.55540996                0.74262432
              11.69703056                8.06337964               66.70936120                0.00010000                9.25534836              -13.94302170               29.54078650               -4.52213513               59.83131703               69.20147061
              12.77090615                7.72662998               66.88095623                0.00010000                8.90131192              -21.59384517               34.60157961              -10.31615748               31.86744750               44.75443983
              13.87505680                7.41965343               66.81219774                0.00010000               14.35778192              -27.73793886               34.06939895              -10.29433929               12.46975335               32.92021272
              15.05806179                7.07833380               66.56137083                0.00010000               20.77247528              -32.98980440               27.36131581              -17.14916782               -0.43374059               19.62005569
              16.29050631                6.67607429               66.21014639                0.00010000               23.31002467              -26.92736504               17.22758223              -31.32230594               -8.86849606               -0.34646501
              17.52426228                6.29213173               65.79302338                0.00010000               20.78202708               -8.99359318                4.79511649              -30.28756779              -18.50399785              -23.50181276
              18.70614685                6.11278835               65.32483319                0.00010000               19.37254610                1.58360004              -10.82472451              -17.55123901              -25.91454261              -39.74051797
              19.91171321                6.20396368               64.88622723                0.36003788               18.28982699                3.64791875              -25.12488017               -5.43776508              -20.81020973              -35.91127584
              21.07194339                6.39587451               64.51081248                0.98024506               16.02301804               -6.78053790              -42.58510773               -7.32850880              -18.98736719              -11.48870640
               9.72110720                9.37528738               66.24946401                0.88522581                0.00286846                1.38865347               74.93480194               40.10707295               43.50230579              128.99516264
              10.72113588                9.23871383               66.09192817                0.39508846                7.61222175              -16.00192443               73.43603174               12.10346816               95.76391909              102.12404786
              11.87335163                8.82350408               67.41023381                0.01586554               12.84470640              -24.16645618               45.67833749              -11.00270239               92.59979684               57.34294519
              12.97803001                8.47763600               67.41052817                0.00010000                8.95449529              -25.68692407               45.44072698              -15.07643935               21.91055158               37.07177462
              14.05244154                8.12050898               67.22349308                0.00010000                9.30321031              -27.74575906               39.13511622              -20.52660403                3.19643299               19.49054122
              15.16409422                7.77698358               66.85782595                0.00010000               12.81762499              -26.27673935               29.32575085              -26.21654507              -13.04465416                5.50986118
              16.30879404                7.45498948               66.37078142                0.00010000               14.79305192              -18.54447926               16.77584766              -29.12321535              -26.34117134               -7.61656298
              17.45995526                7.21812052               65.79732794                0.00010000               14.82575970               -6.74737045                2.62590846              -23.37919036              -38.50814804              -19.33541874
              18.60530923                7.14456389               65.20106626                0.00010000               13.31907484                2.32697703              -11.93228347              -10.08634259              -46.05618040              -28.91675186
              19.72633675                7.23683844               64.74268932                0.32514337               17.89062550                3.69726757              -35.51022181               -3.76307230              -45.84974613              -26.92072512
              20.96312174                7.37687992               64.57998256                0.93275140               23.67849907                6.00301439              -52.79922717                2.13869095              -21.31817566              -11.61608035
              10.66201775               10.40262094               68.53237246                0.88772135              -28.23659014              -11.42659883               90.32206468               22.96030535               20.11966213              155.98501755
              11.37965185                9.91969654               68.24995048                0.48018455              -21.19817029              -25.84309093               77.56876225               14.15227045               18.69005706              134.89055684
              12.23805434                9.58005052               68.03694782                0.09708356              -10.36396904              -24.32885270               68.20204406               -1.93307959               21.66452461               47.92371566
              13.17237247                9.21289150               67.91543971                0.00010000               -3.64385984              -25.22254650               55.96467393              -16.99561472               11.84688936               24.91417588
              14.16517714                8.86473825               67.58053075                0.00010000                1.34389636              -23.66587219               44.15568027              -23.11288666               -8.59439680                9.97656786
              15.19925039                8.55279902               67.10192515                0.00010000                5.08639555              -19.69441969               30.88234147              -25.80649820              -24.33460816               -0.83179088
              16.26690506                8.30518470               66.51011730                0.00010000                8.39268355              -12.77262255               16.40234203              -24.87896378              -37.55015379               -8.58078565
              17.36710406                8.15718432               65.84524682                0.00010000               10.93985094               -4.86585372                0.85308763              -18.25881443              -47.74217626              -12.64660143
              18.48570207                8.15932789               65.18261333                0.00010000               11.85158334                1.12594703              -13.06923095               -8.50791907              -51.45176314              -11.12316586
              19.60413573                8.27790904               64.71455059                0.34989146               17.44660796                5.32208096              -38.41326432                3.60986977              -51.38641457              -19.28432418
              20.83463423                8.51593479               64.55132442                0.94749445               23.04985033                9.26468772              -49.31767882                4.81988272              -27.05966543              -17.80913788
              11.14616210               11.14675540               69.57147822                0.89246225              -31.94103831              -30.01215270              108.54966121                3.22152011                2.24303506               66.05049790
              11.82675171               10.72185201               69.08993791                0.64468563              -30.23335051              -25.58543603               99.36731602               -0.64378643                2.35321774               48.83421752
              12.54149509               10.33692703               68.70871137                0.24590085              -23.66608644              -26.34801665               85.28105335               -9.06304845                3.93741588               29.37400922
              13.35342999                9.97318507               68.34346947                0.00010000              -14.56094001              -24.06633623               67.72568969              -17.48143950               -3.30552740               12.35858388
              14.25027629                9.64719154               67.89886226                0.00010000               -7.29560947              -20.55429372               49.89366106              -21.08659832              -18.02835249                3.41472969
              15.20751780                9.38309518               67.32915943                0.00010000               -2.17234127              -15.32986494               33.31046416              -21.25038504              -33.38168768               -2.93017149
              16.20682946                9.19953703               66.65930470                0.00010000                1.65589930               -8.99790059               17.01842892              -18.91778853              -44.85449304               -6.74222496
              17.24063578                9.12080344               65.94128985                0.00010000                5.37983358               -2.40079316                0.77239313              -14.01829873              -50.28343918               -6.86289865
              18.31442613                9.16708283               65.25902850                0.00010000               10.06457308                2.44619058              -16.09648831               -6.82650199              -45.34075073               -3.64669254
              19.44192724                9.34328006               64.72882493                0.39594251               13.45208747                6.16608244              -30.12111348               -1.12906656              -27.45360863               -5.04585942
              20.58346788                9.56217368               64.40645785                0.98248739               14.15406389                6.63939954              -43.13154676               -3.10835645              -14.99771110              -18.47778203
              11.57625494               11.80237788               70.16622846                0.82993351              -39.96504463              -37.32434039              125.23175271                1.87086028               -4.62043545               25.82104832
              12.17660449               11.40798782               69.64880434                0.84819743              -38.53973132              -34.05965001              126.14656125               -3.07493961               -8.41338857               17.84413168
              12.80546031               11.05309018               69.14196217                0.49057967              -33.20626636              -30.45466357              111.08842661               -7.63825807               -2.69933505                7.19203740
              13.51247917               10.73156477               68.69217319                0.00010000              -23.59626222              -25.26400603               80.09064867              -12.39939956               -7.91898219                3.54603168
              14.33353507               10.45365237               68.18846520                0.00010000              -14.52909816              -18.99420835               56.35701454              -13.63184509              -24.34165537               -0.05962388
              15.22189720               10.24620172               67.55772866                0.00010000               -9.13470224              -12.81786598               37.13207792              -12.77342938              -40.75979471               -2.54998803
              16.15084102               10.12522669               66.82900361                0.00010000               -5.13524590               -6.37685361               19.25274046              -10.80354692              -51.82617470               -3.80353320
              17.11919228               10.10916845               66.06222440                0.00010000               -1.20728014               -0.20137082                1.90726443               -7.27636395              -54.75705447               -3.38674681
              18.12669542               10.20825170               65.34298842                0.00010000                3.36356357                4.99994047              -14.81773893               -3.81115477              -45.94853172               -2.55447124
              19.18646356               10.40123069               64.78454074                0.41002646               10.39922209                8.30688921              -34.42455258               -2.38696247              -25.01865618               -1.92450586
              20.33467986               10.64872278               64.46033234                0.98053805               14.82163069               11.82688062              -53.46402226               -0.69539618               -7.98056392                0.17849962
              11.97235943               12.40026860               70.54068048                0.90735841              -45.78188047              -40.21092861              138.94924243                3.64949026               -8.96570897                5.37868596
              12.51454062               12.04065901               69.99917087                1.00000000              -45.36032264              -36.73288107              143.41272489                0.17187119              -11.55656807               10.18460652
              13.06515298               11.72783376               69.46433566                0.80875498              -40.48304094              -32.52564237              126.53122398               -2.66843669               -3.47289629                5.86168470
              13.70487980               11.46790495               69.00295582                0.36596010              -30.10752673              -26.36598216               90.57486454               -3.78625532               -9.01008767               -0.72982816
              14.46300244               11.26730737               68.47617470                0.36075084              -21.22024578              -18.63449992               63.77779197               -4.11161714              -29.07691246               -0.89148771
              15.28047489               11.12673786               67.80570219                0.36442507              -16.76053274              -11.94638551               42.94934801               -3.90760208              -48.36908209               -1.89935831
              16.12779179               11.07199996               67.02622237                0.37718633              -13.41956970               -5.32267348               23.74784240               -2.80301545              -61.11898308               -1.79501144
              17.01208349               11.11677603               66.20394724                0.39931122               -9.08254892                0.76075724                5.37250015               -0.95679455              -64.25891080               -1.03394066
              17.94614081               11.26708164               65.43135650                0.42796346               -2.91832919                5.88299433              -12.25310976                1.57662949              -54.47897886               -0.16850663
              18.95371691               11.50941784               64.84026575                0.69698255                6.42174763               10.81871568              -32.17163877                3.30681793              -33.04801519                2.25966154
              20.07457576               11.79871129               64.49711003                0.97727264               12.08588492               14.99885065              -52.38351331                2.91893475              -14.62578117                7.89124986
               9.06348983                3.48417691               67.81203244                1.00000000               -0.49319708               -0.74429258                2.75813825               -0.42645433               -0.05858913               -0.08327860
              10.05855786                3.33015421               67.60606219                1.00000000               -0.21392485               -0.24595849                0.73850329               -0.47882970               -0.08096678                0.07041061
              11.05921133                3.17533024               67.40030123                1.00000000               -3.77124956                0.41980040               -1.30582743                0.28722459                4.29387949                0.03604960
              11.98313287                3.03122853               67.28072288                0.59747603               -3.81547006                0.08802644               15.04166791                0.76834342               11.02462257               -1.18315724
              12.98290193                2.87130589               67.12769458                0.47736320                0.00112972               -0.03395216                0.03642535                0.04547549               -0.01816566                0.01167289
              13.98315546                2.71153931               66.97427011                0.27577590                0.01250743                0.00344042                0.02780400               -0.00452277               -0.04811315                0.02656476
              14.98315208                2.55207084               66.82092048                0.00010000               48.24273395               -0.00706340                0.03053896               34.36139873               30.48256362               -0.03247555
              16.94801014                3.07949061               67.27775346                0.00010000               94.39490933              -49.88622295                9.22677721               34.25251733               65.24063735                4.63236068
              18.87105027                2.75892615               67.19393897                0.00010000               94.70390634              -53.23758043               14.18203540              -31.92662424               66.26049658               -5.90765470
              20.84208827                1.64325995               66.83550172                1.00000000               48.52663739               -3.18195858               10.34470906              -33.72263939               35.90035250                1.54749960
              21.84158301                1.13594473               65.73718681                1.00000000               -0.05052532                3.44286680              -10.03730586               -3.11259893               -1.25149806               -2.06025978
               9.21324800                4.47673399               67.72305043                1.00000000               -0.50550946               -0.64224924                2.53415195               -0.20512511               -0.01419991               -0.20320773
              10.20819290                4.32769462               67.51842525                1.00000000               -0.08507881               -0.11217112                0.44295359               -0.25498253               -0.09112145                0.06118114
              11.21154642                4.17952824               67.31201067                1.00000000               -3.26822117                0.39477017               -1.60529261               -0.52608708                4.32489176                0.67608659
              12.14282848                4.03210879               67.19550257                0.56297137               -3.41725610                0.03316927                0.00715240                0.83684874                1.89586497                0.01591835
              13.14320130                3.87096637               67.04298058                0.52341860               -0.00503600                0.01818750                0.04890750                0.02970116                0.07096822                0.06915697
              14.14272776                3.71157371               66.89059555                0.34277419               -0.02054409                0.01194853                0.00088783                0.02973211                0.08628063                0.02387703
              15.14279042                3.55200021               66.73747801                0.00010000               52.21899507                0.00270477               -0.05474940                9.42787475               22.63649008               -0.07827558
              17.18710766                3.58062838               67.03559097                0.00010000              106.35544703              -56.16824650               33.20042397                7.13017657              100.84019002               -2.94430735
              19.26989936                3.22655035               67.01994923                0.00010000              106.46224636              -52.58507868               13.49887514              -12.23207056               89.05079288              -12.82097785
              21.31635259                2.61144036               66.81160152                0.13042801               52.39364429               -2.99297483                9.39953936               -8.53445102               45.05040805                1.17286790
              22.31777224                2.17037340               65.70430237                1.00000000                0.14196560                3.49068312              -10.59927713                0.34067330                0.09410205               -1.74726601
               9.35746606                5.47133193               67.63308618                1.00000000               -0.68021076               -0.46751528                2.31401818               -0.07227836               -0.05245384               -0.38296695
              10.35066396                5.32791078               67.43018112                1.00000000               -0.65953203                0.08125863                0.30208615               -0.13133543                0.39611049                0.03865478
              11.34427542                5.18322564               67.23631303                0.37546837               -2.11161185                0.64214699               -2.16246254               -0.90878301                4.44036433                0.97039087
              12.30843172                5.03189191               67.10815520                0.00010000               -2.01221934                0.20023192                0.19869320                0.81425907                1.11688380               -0.17131810
              13.30403104                4.87166964               66.95827740                0.00010000               -0.28577281                0.05916162                0.05587031                0.07592364                0.27621792                0.04985648
              14.30271626                4.71177828               66.80710073                0.00010000               -0.06880657                0.03340948               -0.01301829                0.03730655                0.21016657                0.01604887
              15.30265490                4.55212494               66.65385956                0.00010000               55.66736344                0.00990072               -0.07509600              -21.78884041               21.73489347               -0.09555105
              17.41606353                3.95612568               66.93231290                0.00010000              114.64709852              -57.79813833               29.73101674              -21.39398099              102.45455199              -25.30704128
              19.59559687                3.70722458               66.92416725                0.00010000              115.57563338              -56.40316689                9.96796921                4.49831523               93.47897117              -13.58999591
              21.72757620                3.58340045               66.79158428                0.07101422               56.74667654               -2.70013187                8.06527243               12.82951455               49.58556038                0.94761052
              22.73053041                3.20575839               65.66617236                0.55621167                0.29542071                3.47216032              -10.32196628                0.26751849               -0.01332443               -1.06042093
               9.49864472                6.46738368               67.54176976                1.00000000               -0.49722399               -0.39174687                2.02317058                0.13321124               -0.01621135               -0.47937078
              10.49367248                6.32931979               67.34234498                0.53116354               -0.46275445                0.09192441                0.07425236                0.43584139                0.33074330                0.04372754
              11.48938963                6.19237118               67.15144690                0.00010000               -1.15014091                0.62957191               -1.94391580                0.11662679                3.85666883                0.22581760
              12.47066966                6.03611343               67.01894289                0.00010000               -1.22781131               -4.82348457                0.36118710                8.13420951                1.19242505               36.39945462
              13.46483341                5.87214960               66.87379308                0.00010000               -0.38255371              -10.13231585                0.08931139               11.69462688                0.59375701               42.12214315
              14.46301859                5.71224190               66.72390841                0.00010000               -0.10836010              -15.01512922               -0.02666547               20.90865435                0.34193594               38.29091926
              15.46266620                5.55219822               66.57102713                0.00010000               57.05549039              -33.24421757               -0.00724401               -4.95801324               27.02785899               33.16256972
              17.60412840                4.42466561               66.95408482                0.00010000              113.49623434              -41.24594527                3.82343913              -48.55587547               59.48346648              -32.83637898
              19.73259089                4.09848701               66.80919698                0.00010000              123.51403339              -43.66303258                0.77400951               -8.14088495               71.22738410              -38.45343768
              22.07440906                4.55743772               66.76936568                0.57433249               67.29079181              -26.46394721                7.09779266              -46.05022355               55.65231851              -39.80105239
              23.07840673                4.23981661               65.63181655                1.00000000                0.39976622               18.56051784               -9.60569238              -66.23974159                0.56806857              -15.23331109
               9.63625807                7.46349699               67.44994187                0.90402370               -0.18647820               -0.42849678                1.67833104                0.08112368                0.07081722               -0.37616151
              10.63439328                7.32974927               67.25399546                0.36858833                0.17781284                0.06249909               -0.31372372                0.26210250                0.04039463                0.03882552
              11.63981432                7.19581708               67.05835026                0.00010000                7.84721036               -7.28874253               -0.58979596                5.45197735               39.80986154               55.31133281
              12.79133749                6.93542222               67.66625096                0.00010000               11.09903897              -21.31448212               40.03909263                4.14788117               58.00514603               54.78076289
              13.86179510                6.66902332               67.63202414                0.00010000               12.47516165              -31.22453612               42.67543215               10.85990639               21.99156833               52.33081722
              15.04084073                6.41147569               67.40696633                0.00010000               31.46379109              -42.31922469               38.63484932                7.86928410               15.18398206               40.02716712
              16.49107092                5.88724059               67.15364714                0.00010000               42.89082536              -56.38370448               28.24270792               -5.27585231               20.38365508               17.90879940
              17.89865723                5.13120677               66.87833722                0.00010000               40.44680706              -20.21669932                8.54823728              -40.72571511               16.43707727              -35.27310258
              19.30000707                4.83396393               66.50565133                0.00010000               38.32924511              -11.97267317               -4.66522727              -41.83442073                5.47765363              -55.67646281
              20.66524213                5.05412151               65.92710825                0.45942538               37.04853727              -27.31154805              -21.78930375              -60.07069656                4.66275811              -73.23551587
              22.04097781                5.57696875               65.31198623                1.00000000               37.57356768                7.08280282              -42.47678724              -33.41545610                6.65459131              -25.04917782
               9.76776264                8.45881375               67.35995540                0.88613775               -0.11681919               10.84761459                1.63432066               42.69894064               -0.15145483               73.60774523
              10.76659444                8.33056978               67.16448024                0.36211132               11.24967977              -10.59283859               -0.88507854               13.47467261               55.25557685               74.38365570
              11.99275623                8.04659633               68.07632428                0.00010000               15.69133008              -25.08844835               47.56349356               -6.08217482               91.90555256               78.66493418
              13.08042104                7.60982379               68.29125388                0.00010000               10.66109155              -33.20808750               48.07079840              -12.05329828               45.87034107               43.51761565
              14.20597806                7.24765888               68.22427714                0.00010000               16.08829800              -39.98603618               47.23526800               -9.63686571               20.65450855               24.77746295
              15.40218700                6.86585741               67.89993601                0.00010000               21.57200061              -45.40152200               38.62981452              -17.68667859                2.41963152                8.35735148
              16.63741807                6.42452413               67.43313460                0.00010000               22.03518733              -35.36672636               24.92298214              -35.55177674               -9.79163084              -11.48226464
              17.84289075                6.02033163               66.86633088                0.00010000               16.77848349               -8.60767403                8.92073346              -37.41111955              -19.20394474              -31.70495929
              18.97298774                5.85903355               66.22327641                0.00010000               14.35497801                4.23689906               -9.90255963              -26.44116537              -26.57558226              -46.52691996
              20.12999031                6.01120676               65.57646770                0.36780624               19.57076865                0.97899232              -36.51484248              -12.57424314              -24.70869280              -44.51702570
              21.36440312                6.38147266               65.02499738                0.99077365               23.44128051              -13.64839082              -58.66188190               -9.51683674               -8.86496350              -21.95088901
              10.74672482                9.68044928               68.74867862                0.89082590              -43.06206704               -9.30079454              128.63725578               14.30613421               49.71471840              176.27944300
              11.31610415                9.11789250               68.56022091                0.40222662              -25.39040037              -28.24746953              124.51423729                7.09620751               65.22580674              135.82047253
              12.23891682                8.69404811               68.85667883                0.00010000                1.65524140              -34.47090620               59.81307732               -7.61738305               68.15122222               68.13684957
              13.34920898                8.27126047               68.94150478                0.00010000                8.70536768              -33.50849453               59.49728322              -16.20432568               35.05947789               34.06389193
              14.41302417                7.86930260               68.66777762                0.00010000                8.05164573              -33.92141511               50.14793758              -21.44404447                6.17378449                9.94600389
              15.51024190                7.50344525               68.19520899                0.00010000               10.62684989              -30.43673129               37.56849269              -27.27984816              -12.80413503               -6.72431894
              16.62556117                7.17990606               67.57114285                0.00010000               10.28417648              -19.65172076               22.29577991              -30.39057439              -27.28319950              -19.43713622
              17.71592543                6.95905329               66.85125739                0.00010000                7.73737277               -4.76890040                6.31757317              -24.82198014              -37.46483814              -28.50785715
              18.78030862                6.91870191               66.09255064                0.00010000                8.76963665                5.30252400              -11.91961682              -10.37333254              -40.94924318              -32.50513671
              19.89131816                7.07370135               65.40265335                0.35969912               16.49003280                6.28657055              -40.33031282                0.86451962              -29.35252574              -29.36279465
              21.11010928                7.30400093               64.90534989                0.97273278               21.87911202               -2.71219536              -70.73474155                2.87403603              -15.17190169              -18.53817317
              11.17899889               10.27279786               70.47986417                0.89466743              -28.40791227              -38.00371520              114.26448795               -3.24686553               18.35851951              143.42921020
              11.89491976                9.76562038               70.04974363                0.47692074              -24.59791439              -32.49784679               97.52425165                4.58486572               25.95063944              115.80591746
              12.68704060                9.35717821               69.82751696                0.08690534              -15.69198590              -32.80427017               86.71690610               -2.42700052               27.56967581               61.47197582
              13.58108005                8.93965390               69.53539108                0.00010000               -7.10641045              -30.85808252               68.79535856              -17.40621513               11.42280530               23.70218507
              14.54491239                8.56923057               69.07372208                0.00010000               -1.75467337              -27.18572001               53.95290705              -22.79010600               -8.78004088                3.22073739
              15.54598658                8.25712278               68.44718317                0.00010000                1.45430762              -21.22069249               37.58144823              -24.74205110              -26.18402996              -10.00881413
              16.57399854                8.03148972               67.69893930                0.00010000                3.08343590              -12.27574616               20.35428005              -22.43180624              -39.28844945              -17.93625988
              17.60765530                7.92495362               66.87645514                0.00010000                3.84372455               -2.46232582                3.43848439              -14.19094248              -47.00391011              -21.40224922
              18.65087303                7.96508403               66.05412257                0.00010000                7.71631914                4.61754165              -15.11757610               -1.97209340              -46.41328310              -22.01669276
              19.76198168                8.13693817               65.34645139                0.41677448               15.52058205                6.81133293              -42.94118288                4.96580575              -29.88133394              -18.54878851
              20.96128468                8.32722875               64.87240884                1.00000000               19.93029949                6.16018743              -72.63120506                4.67150901              -14.14681315              -20.43401637
              11.69614246               10.92037498               71.76769290                0.89964286              -37.27213396              -39.16394963              131.16502077                0.28490273                3.29097465               76.78520109
              12.32342112               10.46793556               71.17953619                0.61057635              -33.98995810              -33.32988334              116.98669578               -5.50673290                1.59259284               63.50988478
              13.01634330               10.03796271               70.63463066                0.20530925              -26.71944028              -31.86709475               99.32904894              -10.96983948                0.34420779               36.29474973
              13.78903231                9.65409882               70.08235163                0.00010000              -18.82950645              -27.76489052               79.28803863              -16.51397949               -8.34653077               13.45983677
              14.63975317                9.32558820               69.44526493                0.00010000              -11.79452910              -22.57079800               58.72719052              -19.79156607              -22.64780279               -1.15143149
              15.55314173                9.07903140               68.69405756                0.00010000               -6.53294817              -15.86460599               39.02837366              -19.11073598              -37.17780819               -9.56445652
              16.50909420                8.93439114               67.84790874                0.00010000               -2.73147322               -8.13682835               19.85553870              -15.21572455              -47.94875157              -13.67432124
              17.49851227                8.90980678               66.95447717                0.00010000                0.98939989               -0.51372757                0.78385828               -7.95513556              -52.25276458              -14.27863596
              18.52888220                9.01105274               66.08862491                0.00010000                6.49886411                5.38402804              -19.47190370                0.87167527              -47.02836571              -13.17417811
              19.62848955                9.20992801               65.35250464                0.50282183               14.70380487                8.75970449              -42.25717901                5.20215779              -29.50249196              -13.15306630
              20.82295830                9.42720468               64.85559077                1.00000000               19.44687500               11.91061187              -64.05010226                4.74844616              -13.94652200              -16.25681014
              12.08957577               11.48951886               72.54697449                0.83339464              -42.23783961              -44.81403604              147.67606416               -1.08570370               -3.45687132               28.03983881
              12.66719738               11.09902272               71.91131110                0.74542671              -40.40476095              -39.02875022              132.40378006               -5.41407242               -8.41117792               25.26635457
              13.28148055               10.71983631               71.24197116                0.38617611              -35.20112042              -33.17152036              113.67981941               -9.27555515              -13.38753391               14.84600104
              13.96317497               10.38435609               70.55079619                0.00010000              -27.86660337              -26.99902933               89.52810464              -11.71083678              -20.49518159                4.49247529
              14.72414849               10.11781461               69.79957285                0.00010000              -20.41030243              -20.05972225               64.66329665              -12.37639668              -33.15710503               -2.46559164
              15.55496892                9.93983066               68.95809278                0.00010000              -14.26199058              -12.78007511               42.14738069              -11.12409081              -46.76928414               -6.34349981
              16.43890868                9.86875315               68.03545602                0.00010000               -9.15389709               -5.45193564               21.23861380               -8.07581783              -56.47303141               -7.76272709
              17.37189098                9.91467907               67.07824662                0.00010000               -3.53616849                1.45216056                0.57948800               -3.69290417              -59.05030728               -7.47501977
              18.36818531               10.07276459               66.16455469                0.00010000                3.89909589                7.25795367              -21.70163088                0.89134847              -50.88893873               -6.72662220
              19.44987290               10.31213226               65.39256946                0.55244336               12.67574750               11.76498621              -45.52615169                2.84442573              -29.65359058               -6.79313439
              20.62170026               10.56544099               64.85829377                1.00000000               17.18273593               16.42674180              -68.35182581                1.69684699              -14.27180514               -8.60598290
              12.45542068               12.02409426               73.06812596                0.90792990              -47.05984541              -46.54246049              161.36094255                2.91112024               -7.61022376                8.55797360
              12.98482222               11.68736056               72.41791113                0.94440612              -45.49609252              -41.16621582              146.40598007               -0.71561349              -13.26794389                9.44054714
              13.54549883               11.37453230               71.70431770                0.72658024              -41.39924735              -34.53040100              126.33044097               -2.26028931              -18.42289793                5.39614904
              14.15683727               11.11411823               70.96658662                0.36572559              -35.43740834              -27.02378522               99.43625967               -3.14069700              -26.10303784                1.04646360
              14.83675066               10.92439375               70.16480081                0.36074105              -28.85579488              -19.34208622               72.14973442               -3.27419959              -40.80246084               -2.18138103
              15.57972138               10.82342990               69.26543808                0.36433819              -23.20106104              -11.64007602               47.84342005               -2.47682082              -56.67106197               -3.53368480
              16.37272944               10.82535242               68.27831844                0.37631392              -17.95393165               -4.34007278               25.53432900               -0.84691935              -67.76887998               -3.63133800
              17.22064274               10.93884999               67.25407905                0.39731954              -11.17367316                2.41709209                3.67535667                1.41814616              -70.47092084               -2.95826770
              18.14925597               11.15621182               66.27766012                0.42588903               -1.39705420                8.34472271              -19.93535232                3.42595415              -60.98975365               -1.90141790
              19.19270166               11.44522774               65.45383024                0.76831958               10.05109036               13.30954717              -46.30212074                4.25926140              -36.05185180               -1.88248501
              20.35027778               11.75573952               64.90253821                1.00000000               15.75761215               19.02985264              -69.87454583                3.90893082              -17.73344026               -0.75534166
               9.28014554                3.57381663               68.84053990                1.00000000               -0.53453072               -0.81086863                2.82261952               -0.46587001                0.09496163               -0.02288732
              10.27480024                3.41997501               68.61347311                1.00000000               -0.20032573               -0.15284689                0.70677996               -0.41438048                0.07339551                0.05751641
              11.27613903                3.26559618               68.38601082                1.00000000                2.44221683                0.42216723               -1.42221082               -1.35457129               21.20759649                0.18326978
              12.32364457                3.09203835               68.58120383                0.60023484               -6.99434620                2.62112355               40.00239385              -18.24165810               34.37211875              -18.39591686
              13.13625210                2.95598638               68.12787520                0.47284121               -9.37718343                0.05400095               49.73571002                1.13713887               25.02750812               18.47768545
              14.13610090                2.79565671               67.97440568                0.25715245                0.01342637               -0.01362202               49.74505576               -0.02002073               52.69322729               16.98006451
              15.13652063                2.63571413               67.82119469                0.00010000               74.23698896               -0.05004104               44.08876420               42.68088973              133.04814966               37.47392158
              17.62084068                3.32977545               68.35078741                0.00010000              134.59145471              -73.07861114                8.22281938               22.83315719              117.69892828                8.61704954
              19.82834973                2.88788186               68.30248908                0.00010000              120.51600214              -63.00824833               11.47464396              -33.88459832               91.40844574               -0.81056298
              22.03116073                1.68462056               67.94905405                1.00000000               60.00990105               -4.02035771               12.58821285              -37.67024693               47.14623635                1.10495943
              23.02854775                1.15080347               66.63104725                1.00000000               -0.26129788                4.23346425              -11.00130454               -3.78603050               -1.30905790               -1.96796812
               9.42932847                4.56570795               68.74920109                1.00000000               -0.45618115               -0.71981457                2.55820850               -0.15332146                0.08292281               -0.08196146
              10.42476666                4.41844654               68.52238137                1.00000000               -0.13834117               -0.11422934                0.37914001               -0.18401725                0.13894016                0.20135296
              11.42656165                4.26981785               68.29572125                1.00000000               -6.43668846                0.49361664               -1.71577071               -0.19873290                6.44103051                0.28414980
              12.29603289                4.11824958               68.19600624                0.58463153               -6.53736669                1.32102323                0.02122555               -9.04722407                2.63543138              -15.02718920
              13.29581431                3.95652639               68.04331322                0.53709477                0.00019677                0.03157858                0.02879316               -0.12767886               -0.01824135                0.07220455
              14.29603682                3.79552049               67.89063810                0.34178043                0.02279228               -0.00963125                0.00821559               -0.05062531                0.00842295                0.02646032
              15.29627016                3.63521372               67.73732026                0.00010000               71.35257818               -0.04105557               -0.00785892                6.17362376               33.37555469               -0.06121767
              17.72308839                3.59898934               68.25096489                0.00010000              150.79055140              -72.08343886               19.33849957               -3.69059418              102.00333606               -7.35407881
              20.31208119                3.25779938               68.19960611                0.00010000              139.99545323              -64.37718392               15.59652074               -7.10431419              100.62682825              -14.19019270
              22.52299745                2.64441699               67.91260300                0.08609048               60.62116734               -3.73479928               11.43771273               -7.56795791               51.92231717               -0.12953596
              23.52450453                2.19313812               66.59000613                1.00000000                0.15070804                4.46969778              -12.88877765                0.84194944                0.23801383               -0.75644023
               9.57160193                5.55942034               68.65694385                1.00000000               -0.45919462               -0.52212323                2.33587124               -0.17701292                0.30118600               -0.27213525
              10.56700998                5.41769042               68.43320953                1.00000000                0.03796975               -0.04270075                0.12794738               -0.21172491                0.36210489                0.17781045
              11.57236133                5.27546851               68.20673610                0.00010000               -5.55092188                0.59895321               -2.54431528               -0.79423499                7.13928117                0.82288162
              12.45599155                5.11845881               68.10909429                0.00010000               -5.79668529               -0.05450927                0.14888032                0.01188065                2.69688116               -0.14450391
              13.45642762                4.95661796               67.95877964                0.00010000                0.02047623                0.00928989                0.02031220               -0.13931368                0.18622206                0.04218110
              14.45640107                4.79546408               67.80699511                0.00010000                0.00483174               -0.01298101                0.00047627               -0.06773242                0.14003946                0.02922121
              15.45652425                4.63489302               67.65383218                0.00010000               73.40210326               -0.05556672                0.01649589              -29.31699687               30.16554145               -0.04925372
              17.92444314                3.88810667               68.10161928                0.00010000              159.21557692              -74.99141960               14.83247179              -26.60852999               95.72639840              -39.86742029
              20.64083579                3.60033819               68.06520589                0.00010000              151.00098477              -68.14330951                9.36322654                2.64479342              100.43879436              -33.20748059
              22.94446283                3.60992458               67.87159482                0.00010000               65.35543418               -2.79806225                8.32534949               21.26511296               56.24622496               -1.40407993
              23.94794448                3.24019743               66.56040521                0.27630302                0.34816445                4.04117716              -11.61443869                2.26699291                0.78499610                1.57677912
               9.70924805                6.55526548               68.56292684                1.00000000               -0.47640656               -0.36374026                2.09348105               -0.13530372                0.38539968               -0.47479506
              10.70448399                6.41759252               68.34243379                0.51989275                0.03302506                0.05135046               -0.24771026                0.02677347                0.73261649               -0.07780042
              11.70990855                6.28179692               68.12593499                0.00010000               -4.46814659                0.41226401               -2.92344288               -1.90817202                7.02653333                1.92789408
              12.61512106                6.11715940               68.02189650                0.00010000               -4.69428945              -19.28208173               50.59896255               17.29898633               34.59293251               45.78989029
              13.61602277                5.95671219               67.87463244                0.00010000                0.06430284              -29.26089585               62.28332103               26.54109988               41.09002453               37.39278849
              14.61640711                5.79526087               67.72391183                0.00010000                0.06324318              -36.70843393               61.27041823               38.32720964               55.79105623               23.58753736
              15.61728763                5.63410239               67.57119534                0.00010000               80.45327532              -57.26438628               48.46692809               -3.36419388              123.92934343              -13.93492183
              18.22547262                4.09916095               67.97620070                0.00010000              151.29357594              -55.39112005                5.77317564              -59.22271494               94.71078157              -36.87392927
              20.64315915                3.89493319               67.78467026                0.00010000              154.14839242              -50.75274876              -11.27960236              -11.12964948               80.65765489              -55.69153001
              23.30844047                4.58845574               67.83361612                0.40859614               83.30697704              -35.89284242                3.73539924              -58.01679451               66.51502337              -56.77723745
              24.30929869                4.27396166               66.54541725                1.00000000                0.08582210               18.90644346               -4.80004497              -86.00415994               -0.47527921              -29.50695206
               9.84424178                7.55214554               68.46802654                0.90467323               -0.32277550               -0.34997310                1.74693154               -0.07269299                0.22516944               -0.40945351
              10.84101402                7.41871743               68.24897366                0.36357184               -0.48053814                0.17950817               -0.71431347                0.08130543                1.83935145               -0.16352472
              11.83463101                7.28371379               68.06101209                0.00010000               14.30209885              -22.17235800               51.30030445                0.62795826               90.12901247               71.53615527
              13.12705600                6.73281718               69.20734935                0.00010000               23.72585669              -39.77154621               51.39070602                0.64626531              102.27552813               61.46319358
              14.30914815                6.37140004               69.20166861                0.00010000               20.92495372              -53.86314956               59.31389029               19.59601525               44.01141990               50.26553539
              15.54555507                6.06129540               68.94228374                0.00010000               38.80960758              -66.90113480               53.26242820               19.96975502               32.98907558               25.13513006
              17.08534030                5.48960529               68.55344685                0.00010000               46.68014803              -80.25845501               36.97959397               11.49900280               13.67100604                4.17500651
              18.47915803                4.78028427               67.97214207                0.00010000               42.18038553              -20.70242881               12.33963109              -38.98765591               12.68980828              -33.92759279
              19.92894801                4.58528321               67.42883188                0.00010000               46.29702209              -14.97912769               -7.75262191              -53.34386534                7.64980754              -57.11953382
              21.40509847                4.89206773               66.68444655                0.34217470               46.39507174              -37.51888324              -26.90927223              -82.97894990               -6.92360985              -92.74256026
              22.85684944                5.61832630               65.91148394                0.98020373               45.17509692                4.47657034              -41.85135916              -42.95983962                8.76418977              -51.95172044
               9.97465041                8.54826602               68.37562464                0.89086385               -0.01085680               11.44109677                1.35021227               49.69542673               -0.11651411              126.75303632
              10.97454184                8.42118269               68.15476458                0.35425257               21.68587822              -17.44287705               -0.89267937               18.33607629               86.25417987              125.95813497
              12.40836797                7.83834976               69.66063107                0.00010000               28.29091373              -42.43326967               59.44977828               -3.94965060              129.49379110              100.95718653
              13.54036011                7.32172847               69.84237220                0.00010000               13.55484347              -40.90202701               65.39129093              -10.89178876               58.23019154               33.67377955
              14.67946484                6.87944920               69.75690310                0.00010000               17.86184226              -45.07079595               58.22882665              -12.57127148               32.07573909                5.40778605
              15.89759696                6.45723817               69.33396712                0.00010000               22.44069876              -48.30226866               46.84710880              -19.57123508                6.34909882              -15.48213098
              17.12827882                6.02893329               68.70860603                0.00010000               22.62223116              -34.45816161               29.37450557              -37.51922221               -8.35037842              -31.81242310
              18.35004158                5.68511237               67.97143805                0.00010000               16.81097829               -7.12225774                9.23957136              -36.17449857              -17.89477553              -38.33372877
              19.46449838                5.59535064               67.12678200                0.00010000               13.28883997                3.91658926               -8.77695125              -27.05269459              -25.10395371              -46.22557071
              20.61581838                5.83807808               66.15593038                0.26856312               26.65431885               -0.62344372              -47.76916770              -15.52345274              -20.20448399              -55.35996377
              21.99758476                6.36349307               65.33757485                0.88855652               38.17663774              -22.98106480              -73.91861180               -7.58644159              -24.29119225              -59.90178445
              11.09231698                9.78096747               70.82220912                0.89757427              -17.46651674              -14.80375801              113.14638246               24.62818199               25.09074502              231.80722017
              11.91765181                9.06985989               70.58221292                0.38459288              -11.86123813              -40.23415352              101.61450177               11.52754670               51.56967083              192.11878845
              12.85509221                8.43504840               70.60649536                0.00010000               -2.47655167              -40.34057799               83.86697411              -12.98254094               65.93656226               72.03039659
              13.86812078                7.91477664               70.60047383                0.00010000                3.35604012              -38.78200610               72.86977183              -17.54004727               41.67621708               29.69175572
              14.92221302                7.46998412               70.22645184                0.00010000                6.82627549              -36.38917571               60.19130662              -21.06036048               10.45476505               -1.32926972
              16.00464629                7.09525003               69.60919580                0.00010000                9.24343186              -30.17320024               43.71573343              -25.83932213              -11.30132132              -20.39218577
              17.10708165                6.80044206               68.81669702                0.00010000                9.23022112              -17.96198323               25.06970304              -26.69128139              -25.95708079              -31.53114789
              18.18925071                6.63783912               67.92367941                0.00010000                6.39233781               -2.95964120                5.21509423              -20.75130304              -33.38107848              -37.04474043
              19.23492841                6.66361500               66.96267392                0.00010000                6.86181411                6.37845611              -13.63856827               -6.76492412              -35.35551310              -37.14170736
              20.32648699                6.87959886               65.93608306                0.27208622               20.96811114                5.95019504              -48.35256287                3.37472062              -22.53511883              -36.07424639
              21.65429063                7.15870500               65.16528773                0.88717804               32.78036424              -10.32397415              -77.20227432                3.02053045              -20.68251131              -30.66834290
              11.88942922               10.25219086               72.81766222                0.90310378              -33.84173687              -58.28091809              148.41575697                1.22977747               16.85674871              154.37135240
              12.55101185                9.61649962               72.20043552                0.43819434              -29.28144046              -46.96888252              126.57303980               -7.33193323               22.66877613              115.85305742
              13.30380041                9.03153820               71.77128594                0.00010000              -19.81941996              -39.33402861              102.43940400              -13.99698373               25.52362696               64.90843822
              14.15462345                8.54608835               71.29134688                0.00010000              -11.30080845              -34.38999687               81.85329540              -18.60640898               10.93069792               20.62307163
              15.07778424                8.15166569               70.65958889                0.00010000               -5.21354351              -28.58359887               62.63033231              -21.44564496               -8.94479574               -4.90483542
              16.05035258                7.85377417               69.85355411                0.00010000               -1.29600670              -20.71767910               42.71902047              -21.26502648              -26.65487196              -19.89829653
              17.05186410                7.66969362               68.91720290                0.00010000                1.07450048              -10.54540876               22.14305954              -17.37507295              -38.28108887              -27.60991035
              18.07184259                7.62591955               67.91401651                0.00010000                1.77880293               -0.21999356                1.12656082               -9.05801260              -43.26119778              -30.70187301
              19.08744016                7.72291976               66.88026181                0.00010000                5.81901010                6.47760779              -17.89873860                3.60326895              -41.39409366              -28.81334210
              20.18822279                7.95708198               65.85572693                0.33395373               20.61714570                7.72509018              -54.79542455                9.62591907              -29.12678606              -26.83754990
              21.49978308                8.15701358               65.09870031                0.94661011               31.15602870                4.62237708              -84.81068317                2.19688769              -25.71098447              -21.87894092
              12.38829501               10.61534911               74.19477863                0.90792793              -39.66292058              -59.47246271              156.11232223               -4.03593364                3.70206992               77.82552100
              12.99166581               10.13048224               73.42967182                0.53227512              -37.13656041              -47.07798240              135.05590572              -10.23044322                1.61082770               64.46621830
              13.64556381                9.64836783               72.69529235                0.00010000              -30.79003516              -37.56075128              113.03923097              -15.45407013               -2.63501050               36.85675535
              14.37586511                9.22697670               71.92923025                0.00010000              -22.99747528              -30.44545312               89.52163662              -17.98526454              -12.86147132               11.32700044
              15.18561430                8.89831214               71.07340607                0.00010000              -15.72736412              -23.34305144               66.02769914              -18.03840514              -26.60455142               -6.52872550
              16.06131782                8.68089645               70.10972691                0.00010000               -9.90897429              -15.29114820               43.07915647              -15.42512422              -39.69966494              -16.53667019
              16.98743481                8.58953389               69.05641547                0.00010000               -5.32267529               -6.50655835               20.59138953               -9.90473755              -48.66322607              -20.80201295
              17.95486432                8.63343925               67.95696702                0.00010000               -0.58017284                1.70733182               -1.60702667               -2.95609288              -51.29258467              -21.97320597
              18.97583136                8.79316715               66.86959043                0.00010000                6.50236157                8.08821462              -25.47114396                5.39075263              -45.16012554              -21.23773945
              20.08491155                9.03410066               65.88368135                0.43337849               16.12669091               10.34802053              -49.04029635                8.47076363              -27.71180996              -19.05476953
              21.29836518                9.25115254               65.12545580                1.00000000               21.34536275               13.63210503              -74.93262993                2.60579191              -14.37287506              -21.76070190
              12.77844429               11.06274161               75.11974974                0.83705432              -46.50600221              -54.31119862              166.90797868               -2.16568471               -3.46320810               29.23602284
              13.31338426               10.67493997               74.29687994                0.59209454              -44.01098721              -45.71061743              145.81775285               -8.05471196              -10.66989620               26.19333337
              13.89822454               10.28032317               73.41555856                0.00010000              -38.42052124              -36.86520823              122.29620922              -11.76524767              -19.66822244               15.11130190
              14.54497384                9.93717929               72.48273529                0.00010000              -31.75640797              -28.48616622               96.64270130              -12.45238417              -29.31433252                3.23494248
              15.26309638                9.68480466               71.48173113                0.00010000              -24.71727447              -20.25441547               70.45560797              -11.33703100              -40.66346620               -5.49110533
              16.05062835                9.54795120               70.40067627                0.00010000              -18.09349141              -11.97614406               45.13573716               -8.65120018              -51.58992092              -10.30561874
              16.90122656                9.53956245               69.25377588                0.00010000              -12.07704440               -3.79427604               20.98577050               -4.57733106              -58.97043597              -11.81991573
              17.80908746                9.66006618               68.07381416                0.00010000               -5.33163771                3.62532809               -2.23359759               -0.32096611              -60.75897358              -11.62630397
              18.79459380                9.88468405               66.90895580                0.00010000                4.52826034               10.48376447              -28.30603173                2.73696939              -55.04665164              -11.51947086
              19.89965267               10.16404239               65.87401771                0.51453853               16.16006720               15.75729588              -62.95982149                3.39309320              -34.55680003              -14.51335858
              21.11779514               10.42965568               65.09329583                1.00000000               21.81424753               22.19815144              -91.34213387                2.76762172              -12.84892858              -15.06926854
              13.12058460               11.52912514               75.76789933                0.90876229              -50.75945913              -53.36164683              178.55723388                2.92850602               -7.88914088                8.70505809
              13.61299000               11.21626989               74.92729047                0.83577985              -48.62825310              -45.86700789              157.20183340               -0.94249982              -16.68861980                9.63458942
              14.14801953               10.91106366               73.99094448                0.61805043              -44.53270351              -36.92595083              132.49691635               -2.97132669              -27.77287548                5.48771736
              14.72233593               10.65725337               72.99168101                0.36551874              -39.99588841              -27.99259134              105.00712430               -3.15578202              -38.48771371                0.31767256
              15.34810177               10.49322383               71.91916939                0.36077795              -34.43999550              -19.15808243               76.88798461               -2.29345211              -51.37358908               -3.52404463
              16.03353602               10.44137357               70.76257059                0.36418635              -28.21642762              -10.65776347               49.86068185               -0.68800613              -63.96691484               -5.42059392
              16.78377321               10.51364836               69.53690895                0.37552934              -21.51063138               -2.59140889               24.32689854                1.48327777              -72.39566223               -5.65850883
              17.60332340               10.70594581               68.27745437                0.39524055              -12.85893363                4.58796246                0.08080447                3.88329723              -74.37373768               -4.73521883
              18.52659454               11.00284244               67.03264946                0.42361913                0.22391922               11.81583894              -27.74212004                5.36511240              -68.33379882               -4.96318602
              19.60780178               11.34924658               65.91422334                0.75990176               14.79482400               18.52041884              -64.97489333                5.42856770              -44.37482409               -3.04004664
              20.82249102               11.69511557               65.09961911                1.00000000               21.46892392               26.54598890              -93.57222091                5.05648711              -20.10608857               -1.10430586
               9.51952266                3.66639679               69.86848483                1.00000000               -0.49678107               -0.77059770                2.67864241               -0.38855501                0.16369334               -0.01619133
              10.51455485                3.51348800               69.62019779                1.00000000               -0.19450584               -0.15027414                0.63696797               -0.35143088                0.20776266                0.07848712
              11.51563254                3.35957478               69.37185701                1.00000000               20.70780079                0.49111859               -1.39681143               11.12182924               48.05570305                0.15229422
              12.92871087                3.43370535               70.08077076                0.60400974               28.73088485              -23.00308131               43.51264129              -45.55613272               97.94260546              -42.65707225
              14.09025024                3.40998357               70.12240878                0.46942945               20.74948275              -36.84775545               82.78080319              -74.95604279               88.64624743              -59.51090094
              15.34370052                3.21867575               69.96917123                0.23911088               58.87415528              -33.91622676               82.01045233              -86.51540581              101.93123326              -61.19501355
              17.26773335                3.46929814               69.70269576                0.00010000               73.84969009              -75.11597812               72.46515516             -170.13581869              134.78922564              -53.61996098
              18.82069432                3.45147663               69.44220985                0.00010000               91.66095952              -76.87617078               29.64433231              -31.62144615              133.55058623               -8.52788738
              21.10095254                2.94848082               69.42343184                0.00010000              131.78802496              -76.84511348               17.60964953              -33.67624304              132.74061483               -8.10866748
              23.45645482                1.73826123               69.08726598                1.00000000               67.52314632               -5.19523604               15.29180646              -37.69625068               60.69746457                2.21849934
              24.45141546                1.17866761               67.51716072                1.00000000               -0.50393583                4.72190224              -12.05820536               -4.32828082               -1.21188109               -3.25166447
               9.66854590                4.65869081               69.77421460                1.00000000               -0.40943506               -0.71166552                2.38508318               -0.09876622                0.14786389                0.03015130
              10.66445155                4.51198526               69.52600805                1.00000000               -0.09018686               -0.10367125                0.32844115               -0.03229450                0.19368836                0.13898505
              11.66674216                4.36448596               69.27769526                1.00000000              -10.82532021                0.49473779               -1.73486476               -0.63834898                8.52230087                0.27992508
              12.44794514                4.20367454               69.19592708                0.60859385              -10.92687733              -11.52968888               47.60318561              -32.06825080               54.64421390              -29.90989443
              13.44820461                4.04150602               69.04355644                0.55216629                0.04720171              -18.43947676               67.12158242              -40.22783183               77.08954876              -41.89437271
              14.44888918                3.87951349               68.89075986                0.34050863                0.08850532              -16.97933916               71.14089491              -52.83018318              105.05600499              -50.66624567
              15.44997472                3.71813836               68.73732083                0.00010000              115.79996733              -37.60166809               60.84955227              -92.65951745              191.66322373              -51.60313783
              18.76488852                3.68271493               69.42236096                0.00010000              208.54115440             -100.89675858               26.59595207              -21.97926022              176.80602412              -26.83282001
              21.62079781                3.18002968               69.33187965                0.00010000              159.97551968              -74.52349973               19.43259161              -13.14806834              130.95899705              -23.92821119
              23.96439892                2.68630887               69.04035578                0.07498524               67.34642330               -5.19777497               13.33021522               -2.66482445               64.04306911               -0.23844056
              24.96772627                2.22588664               67.44652682                1.00000000                0.33273568                5.16076206              -14.81307790               -0.18251881               -1.00783722               -0.07274118
               9.81095844                5.65216348               69.67980360                1.00000000               -0.28446304               -0.59428592                2.11115867               -0.13524387                0.29117280               -0.05133481
              10.80811381                5.51141458               69.43274007                1.00000000                0.01089224                0.00071974               -0.03308232               -0.09144156                0.38762464                0.10283473
              11.81117628                5.36946953               69.18542673                0.00010000               -9.88940050                0.60835530               -2.01235330               -1.22937850                8.88404908                0.40094179
              12.61032580                5.20311158               69.11113281                0.00010000              -10.06608118              -17.50091859               52.90316403               31.88051123               54.69973568               33.13435360
              13.60985466                5.04119403               68.95868364                0.00010000                0.00693570              -33.21948074               73.44606396               40.61956733               74.86040636               26.20265311
              14.61046451                4.87908897               68.80711025                0.00010000                0.07434492              -41.54047372               75.48876772               55.47291920              101.68278745               10.60277543
              15.61134156                4.71726478               68.65418948                0.00010000              115.43766420              -67.21266215               61.29330454               39.67209859              180.96433999              -17.63662673
              18.91921780                3.43354146               69.22896234                0.00010000              211.15278335              -93.30253423               22.03597020              -36.96366861              159.87489309              -46.33373342
              21.83439722                3.45801082               69.11143178                0.00010000              171.90417917              -77.94996308                9.47003097                3.41475146              115.76487300              -62.43852850
              24.35730138                3.63430573               68.95809127                0.00010000               76.71061668               -3.86338133               11.70706416               25.17178297               74.60565703               -4.29072970
              25.36860956                3.28188286               67.43388358                0.06877977                1.13081792                3.63560991              -18.27720302               -1.36365674                6.67811576                9.43789488
               9.94733882                6.64680509               69.58363938                1.00000000               -0.20221622               -0.47766794                1.89270120               -0.08510423                0.32754636               -0.33836422
              10.94531666                6.51199965               69.33739077                0.50187088                0.15593836                0.13667066               -0.47904673               -0.00355338                0.62096951               -0.06511508
              11.95045759                6.37665307               69.09297804                0.00010000               23.42571030              -13.88127109               -2.64826209                0.72495540               59.79503391               54.49074902
              13.41383086                5.85365617               70.03092214                0.00010000               31.70804883              -42.94505948               86.15811731                4.31645352              121.47201040               44.36158544
              14.58461857                5.37711640               70.11945950                0.00010000               23.42229748              -62.45653339              108.07558957               29.61411485               91.78197737               32.66569588
              15.88227681                5.04870401               69.94931677                0.00010000               55.21728170              -78.74829868              101.68692177               36.75741006               93.98892606                4.26350846
              17.68896420                4.37388512               69.54036569                0.00010000               70.12961465              -94.19673790               81.78154258               44.56256944              110.03644146              -30.56640629
              19.28486911                3.81666424               69.06954834                0.00010000               89.96821834              -48.80619445               23.82875760              -19.75020599               70.17107583              -36.19600794
              21.48832857                3.62103042               68.58360494                0.00010000              167.95467180              -55.42746553               -3.14267683              -15.06607425               79.20219108              -56.38990430
              24.64396254                4.60904125               68.84407367                0.20698976              107.84851639              -37.86748450              -61.59494972              -81.78075430               -3.63274180             -126.53398254
              25.64529889                4.29859883               67.53581565                0.79677853                0.13363502               23.19469435              -62.46057854             -111.36537714              -82.08095494              -27.33023925
              10.07886723                7.64261012               69.48488050                0.90706554               -0.06724653               -0.35566001                1.47781244                0.14447060                0.06701978               -0.54936088
              11.07819476                7.51414799               69.23970919                0.34610705               20.25758235                0.22467790               -0.84707170              -14.47055236               54.66578815                0.14838055
              12.48401888                7.09184411               70.08435635                0.00010000               30.89983867              -42.81981365               86.96601422              -11.26853819              130.74486044               95.58729366
              13.69619154                6.34421039               70.69406508                0.00010000               26.15351189              -48.17406345               64.70634689              -28.24293847              105.16069755               36.75254114
              15.00708911                5.79206337               70.81830194                0.00010000               32.63262295              -52.30425144               68.94173130              -13.44040167               68.95349909                5.09450164
              16.34884400                5.30412300               70.47221489                0.00010000               36.37718016              -57.97006428               58.99626520              -13.17720546               43.23209419              -24.50861779
              17.73463272                4.83333002               69.89323902                0.00010000               46.41121884              -42.44298069               37.48531090              -35.13650202               18.83224915              -36.41922813
              19.27706837                4.45741757               69.12512984                0.00010000               50.30330097              -25.72722626               16.49803869              -35.09591711               12.87880057              -36.30953660
              20.74069874                4.34946151               68.35059889                0.00010000               38.35247537              -11.01751658               -7.95620491              -39.11868811                7.79399085              -44.14369107
              22.04411788                4.87695604               67.38892281                0.17229541               51.07440505              -47.83351344              -23.71122572              -86.62697645               -2.81039895             -124.40726966
              23.76218684                5.74577674               66.47495904                0.79473086               71.80689573              -18.44828293              -50.34198760              -69.61835771              -23.01050236              -96.06823613
              10.20715249                8.63969189               69.38695965                0.89607028               -0.04808722               11.59729967                0.70228517               70.16337741               -0.06372096              185.70721788
              11.20667162                8.51649321               69.14662665                0.33173926               34.39359678              -29.97753303               -0.45489884               18.27907382              117.90508339              177.22806662
              12.89502443                7.52025680               71.26531985                0.00010000               47.10406104              -53.39214723               80.32504483              -28.54750188              174.31277685               85.38409801
              14.14875284                6.89017490               71.59907970                0.00010000               23.04367474              -46.40447431               78.72098271              -16.13200578               77.62108579               36.77492767
              15.35589792                6.33103137               71.38885368                0.00010000               21.43566050              -42.60159746               67.31238792              -19.72818932               39.87099812               -5.54206262
              16.57746605                5.88930273               70.83687819                0.00010000               23.85208305              -36.40542242               51.34608467              -23.04397883               11.40591687              -29.27144742
              17.83293958                5.52502550               70.02062472                0.00010000               24.46766126              -24.63218942               31.18835425              -26.49398902               -8.11773135              -42.61611211
              19.06681928                5.30211972               69.05112231                0.00010000               22.67383760               -9.09187771                7.84390722              -24.95434167              -15.38196057              -46.31839331
              20.28641633                5.40068009               68.04773738                0.00010000               22.41442548                3.64632198              -15.24143392              -16.48263856              -28.98800531              -49.27489693
              21.51510778                5.65237098               66.62108435                0.11437751               11.44370032              -11.22680834              -26.75887391              -13.85814106              -26.37655138              -47.69615753
              22.51529034                5.92963318               65.54662514                0.72290142                0.01825564              -40.81340675              -39.55512396              -48.48063636              -27.84376017              -68.11483583
              11.72853214                9.87455611               73.01160627                0.90649937              -16.53208004              -32.60182484              152.94677580               31.17586069               46.98614560              287.32148104
              12.56321134                8.91459733               72.59251095                0.35155113               -9.45724931              -64.06352913              127.15133245               16.87224997               58.64983390              232.92572204
              13.53938715                8.02400117               72.53401831                0.00010000               -0.02172450              -47.68534077              100.27292428              -14.34495421               70.43361461               82.35215168
              14.56277685                7.41612090               72.39890021                0.00010000                3.70051757              -43.34079943               86.86675554              -16.06657634               46.73069907               23.46785465
              15.61339750                6.94003142               71.87160375                0.00010000                6.55967207              -35.34258697               68.51194131              -19.60975117               14.29368317              -10.26174696
              16.69397029                6.57601455               71.06952366                0.00010000                8.92692227              -26.53384929               48.13629459              -21.07680536               -9.28849533              -31.60131569
              17.79193595                6.34068623               70.07253691                0.00010000               10.41783332              -14.27262214               25.65774009              -19.27298741              -25.09533300              -41.59248225
              18.90232695                6.27558002               68.95555927                0.00010000               13.44293791               -1.22455837                1.72489636              -10.28725620              -30.04822549              -44.79596411
              20.06079470                6.42238795               67.81977927                0.00010000               16.78375095                4.06102952              -22.70508106               -1.41478673              -36.14260502              -42.64546182
              21.23800197                6.65241988               66.43560209                0.11596979                8.86275033                0.01089544              -25.02946562               -2.34898377              -23.63507053              -20.62947720
              22.23804971                6.92950861               65.36130440                0.72234272                0.00477392               -0.00756544              -40.20152397                0.00026680              -24.52746964              -20.72047407
              12.75058727                9.98765540               75.44817931                0.91191622              -35.59157075              -84.98791162              175.15132839                3.34999065               14.84702741              154.23682080
              13.39467156                9.23522263               74.58120443                0.38469543              -32.19927504              -62.68909123              146.06590081               -6.45963971               18.22010352              116.80134500
              14.10660177                8.56654998               73.87630504                0.00010000              -24.16402507              -44.65879810              119.26267211              -14.35831035               21.15373057               64.01734803
              14.91139106                8.02335891               73.17245699                0.00010000              -15.13962600              -36.34352371               93.75335822              -17.57290144               10.07707808               16.35275348
              15.80380925                7.62417963               72.32632873                0.00010000               -7.80579679              -28.35799889               70.14549715              -17.54825981               -8.87225413              -12.10726458
              16.75527513                7.35862574               71.30156358                0.00010000               -2.79474432              -18.74193566               46.24319968              -15.12189133              -26.31429471              -28.16388036
              17.74791436                7.23957306               70.14180049                0.00010000                1.20486531               -7.94541697               21.83104509               -9.21717823              -37.94635063              -35.62759549
              18.77937243                7.27762855               68.89898635                0.00010000                6.66831897                1.74824927               -3.13423229               -0.02568609              -39.25753244              -36.98774045
              19.88128074                7.48190068               67.69614780                0.00010000                9.08175107                6.76080067              -28.44300145                0.65654923              -44.44825863              -37.13047442
              20.96100745                7.65258889               66.25054290                0.15569502                3.99187359                7.90609825              -30.27992241                1.39835955              -33.65177498               -9.17255203
              21.96111822                7.92948187               65.17619517                0.76314707                0.01107609                3.39432620              -46.13745683               18.38440746              -30.65486531               -2.33618870
              13.30039748               10.17479788               76.88993935                0.91736850              -44.52735239              -74.32683858              181.68647168               -5.62504057                2.96079610               68.17313280
              13.85512396                9.66081550               75.88065430                0.44432010              -41.81564096              -55.49759461              154.59405629              -14.03267999               -0.96444494               57.28001216
              14.46408466                9.13082520               74.89541528                0.00010000              -35.07173954              -42.00698800              126.44819133              -18.79530429               -6.32872640               32.67368803
              15.15368917                8.68925043               73.87278436                0.00010000              -26.84595922              -31.83773719               98.79893270              -17.93145432              -16.59487716                6.92462517
              15.92716548                8.37287144               72.76581891                0.00010000              -18.87750668              -23.09752219               71.73869510              -14.94728319              -29.32093386              -12.15995475
              16.77613903                8.20117584               71.55564069                0.00010000              -11.92879512              -13.88755706               45.29106600               -9.76214594              -41.13181088              -22.83801137
              17.68858957                8.18177789               70.25973653                0.00010000               -5.83267095               -4.38558549               19.19485603               -2.60915659              -48.50229361              -27.00491329
              18.65948561                8.31054501               68.92233664                0.00010000                0.51878897                4.20185404               -6.50077501                4.89926153              -50.02571670              -26.30859028
              19.69896535                8.55760397               67.57920203                0.00010000                7.94511819                9.87077316              -32.07859318                4.28824112              -41.88532317              -26.82087588
              20.81838798                8.81054184               66.37169871                0.22794236               17.64932723               16.93671118              -56.41881560                2.65902892              -24.32895749              -16.33811993
              22.05195190                8.99739513               65.35693817                0.83710959               23.35639215               18.02052214              -86.19049755               16.93769053               -7.75012422              -12.16919492
              13.66605121               10.50111862               77.88513406                0.84233596              -50.80605714              -63.64508189              186.18665605               -3.66188350               -4.81652148               23.71021000
              14.15799064               10.12527074               76.82766616                0.44480650              -48.18952242              -52.07921053              160.28058854              -10.09138405              -13.50118726               22.46907477
              14.70226076                9.72641022               75.68789534                0.00010000              -42.36374491              -39.86552004              132.13018084              -13.85502288              -24.94661644               11.99424412
              15.31071574                9.38660417               74.48365022                0.00010000              -35.46612923              -29.33350982              103.00300952              -12.95060537              -35.43275836                0.19696762
              15.99293818                9.16222919               73.20868501                0.00010000              -27.97949938              -19.69175451               73.99910014               -9.72528742              -45.93611300               -8.89817935
              16.75112575                9.08087460               71.86080752                0.00010000              -20.32880572              -10.49732289               45.69329543               -5.19316774              -54.97835619              -13.95479553
              17.58636206                9.15186135               70.45517143                0.00010000              -12.47970805               -1.79308958               18.28585680                0.10669340              -59.64071446              -15.38788639
              18.50153159                9.36166563               69.03357466                0.00010000               -5.96566668                6.31600942               -8.54425914                5.26983331              -59.62035162              -13.78910909
              19.46704873                9.67931614               67.59843406                0.00010000                3.64326373               12.59784049              -31.54219056                3.82515814              -57.34010114              -13.37207693
              20.57439687                9.99132311               66.13337303                0.30221872               22.95583582               24.67368535              -82.87454619                1.52118568              -38.28686336              -20.50062508
              21.92616545               10.28989231               65.03145109                0.90660528               35.17685792               36.18058490             -115.14554824                6.12754790              -31.02879249              -18.73207701
              13.97885558               10.90189624               78.63927063                0.90990885              -55.08509038              -59.92223819              195.36135058                3.01394231              -10.93771961                5.46356883
              14.42800468               10.61923129               77.56194780                0.73789076              -52.66024047              -50.60394439              169.38977304               -1.41766803              -21.63001213                7.58776621
              14.92565077               10.33351480               76.35425602                0.51931912              -48.45732939              -39.28954170              139.82075117               -3.49355215              -35.84847808                3.75731528
              15.45885809               10.10258023               75.06672910                0.36528015              -44.36307379              -28.40239378              109.06993220               -2.90968780              -47.67684801               -1.26448260
              16.03838930                9.97903635               73.70256050                0.36082826              -38.81072880              -18.31928389               78.34892849               -1.02243074              -59.53882164               -5.17219961
              16.68264351                9.99122938               72.26265171                0.36398319              -31.42284425               -8.96452215               48.50046669                1.49576372              -69.79503200               -7.17378346
              17.40993241               10.14591610               70.76485641                0.37457226              -22.26080136               -0.59452484               19.83029340                4.63882557              -74.87536238               -7.32650750
              18.23742749               10.43686519               69.25569514                0.39315733              -13.20606873                7.51995633               -7.77412936                6.77182305              -74.49494035               -6.25685650
              19.14581104               10.80956078               67.72281772                0.42043756                0.04040182               13.02446320              -31.98107550               11.23374846              -71.14053987               -6.23021868
              20.23823552               11.30401555               66.15433238                0.66194800               21.57767087               31.26924392              -81.45241117               11.95616831              -50.39860663              -16.78914616
              21.57736445               11.72100683               65.03109379                0.96019569               33.91289311               43.11145194             -112.02275302                6.81902889              -38.86906670              -15.74511468
               9.77999350                3.76203328               70.89411275                1.00000000               -0.44101930               -0.70410772                2.42241619               -0.34037174                0.17008613                0.00727179
              10.77558331                3.60992423               70.62621246                1.00000000               -0.16566954               -0.12402672                0.56582878               -0.29574039                0.21722283                0.05879856
              11.77668011                3.45696557               70.35807460                1.00000000               37.81808020                0.48810663               -1.28130493               34.97385279               68.27825305                0.14743405
              13.53194492                4.00858426               71.45145665                0.60857705               62.20482368              -51.88946129               46.36970923               32.43647925              137.00190948                8.77131816
              15.02077659                3.92347303               71.78349127                0.46684345               53.12468337              -64.11089573               77.85970964               -1.80066304              109.16902515              -11.03598818
              16.59443858                3.72857916               71.61461473                0.22184239               66.92449651              -78.43226137               82.63302891              -10.57501713              108.92232356              -11.57012012
              18.35926652                3.49406478               71.27049779                0.00010000               98.83388703              -84.24075322               72.99118944               -2.61648179              112.21452605              -43.07445367
              20.57111632                3.19891549               70.94367405                0.00010000              123.94196878              -92.33350346               59.84619287              -19.90922113              153.64172361              -37.57507276
              22.83810589                2.90881290               70.65468207                0.00010000              129.01324109              -81.75776818               33.29952242              -21.28918452              153.86768593               -9.33293309
              25.15138115                1.82281096               70.25489018                1.00000000               65.32073815               -5.39880767               17.54431935              -30.30569438               71.38573757                3.03266024
              26.14452066                1.22703798               68.38988314                1.00000000               -0.68604894                4.79224454              -12.96919294               -4.82879367               -2.04338441               -3.42183565
               9.92869884                4.75499220               70.79690276                1.00000000               -0.35390801               -0.65322126                2.12759571               -0.05287691                0.14846455                0.04941988
              10.92515976                4.60868396               70.52895019                1.00000000               -0.08051084               -0.07799187                0.27837456                0.02052367                0.21518543                0.10677511
              11.92708863                4.46184664               70.26102396                1.00000000               34.89481077                0.56194948               -1.61172488                8.79875667               57.95138106                0.22151961
              13.62305598                4.48968964               71.14806995                0.63478880               60.78419394              -53.12167179               83.96694739                3.26509316              147.13259683               -0.15252934
              15.14277251                4.28236407               71.38574486                0.56855443               54.01682800              -75.93525321              127.63768895              -15.42756909              150.05472622              -14.50400494
              16.70339254                3.94425655               71.31345600                0.33894821               72.75805153              -88.98082380              133.64804620              -21.52972141              169.15813108              -28.38972615
              18.59793354                3.65165724               70.95431130                0.00010000               98.06287546             -100.74745761              119.74942584              -18.69918204              217.67621772              -44.81920336
              20.66465005                3.27558045               70.78288393                0.00010000              135.76663873              -94.23354287               56.20886284              -23.34198224              176.92028444              -53.41016750
              23.31326631                3.09123522               70.58825795                0.00010000              151.22808084              -90.44852874               31.73392599               -5.89295703              153.61048824              -28.29671197
              25.68921166                2.76882288               70.17920731                0.23221157               68.93696960               -5.12094344               14.56819105                7.32341116               73.81894433                2.87383169
              26.69200570                2.27496042               68.29374457                1.00000000                0.27940377                5.63142583              -16.31068127               -0.11617053                0.00004397               -3.27886536
              10.07155246                5.74896886               70.69916703                1.00000000               -0.24131059               -0.57854518                1.83623591               -0.08057881                0.30314952                0.06184756
              11.06913935                5.60836439               70.43254788                1.00000000                0.00485521                0.03185703               -0.05572723                0.08203293                0.32952851               -0.01692819
              12.07164956                5.46820456               70.16648903                0.00010000               35.37949955                0.54178173               -1.69911805              -18.85121674               63.65141363                0.37933962
              13.77672934                4.94615082               71.16715757                0.00010000               59.30043703              -53.41154040               94.08767491              -33.42063813              153.02225117               12.38804674
              15.25765830                4.40476797               71.42770092                0.00010000               50.89108202              -76.59781302              134.81262588              -30.33464782              147.19930670              -11.66360135
              16.79455098                3.94896268               71.31677046                0.00010000               69.81503335              -86.44150745              135.11559657              -27.68827189              158.90072578              -41.00126668
              18.65395897                3.47911562               70.87969827                0.00010000               93.50738580              -93.39662621              115.18605793              -26.74333474              196.90236230              -62.91098388
              20.66469870                3.31424463               70.54233869                0.00010000              128.65226748              -89.82535818               51.04154756              -22.91342268              150.06467235              -40.05533295
              23.22700432                3.09984233               70.25460651                0.00010000              172.47127341              -78.16336129               20.97578761              -22.72206051              140.55285022              -69.19097789
              26.11412417                3.72039209               70.10573611                0.00010000               95.14589240              -57.09391648               13.35120075              -58.29062912               89.75087682              -68.27771446
              27.12992217                3.33966649               68.19486115                0.12673889                1.57980000               20.56604964              -22.59036666             -108.46306368                1.82065383              -43.02769777
              10.20829620                6.74342130               70.60078087                1.00000000               -0.07314852               -0.55654009                1.59189418               -0.19140350                0.24692094               -0.11216946
              11.20756472                6.60932110               70.33285285                0.47687582                0.19908284                0.20423848               -0.49415418               -0.25122259                0.62563397               -0.19649841
              12.21227786                6.47268227               70.07296975                0.00010000               40.52575465              -22.25433504               -1.12320405              -13.21697495               97.16856228               91.21510890
              14.01807981                5.42145884               71.74505884                0.00010000               66.04949129              -52.32201881               80.02460603              -50.13397231              163.76458138               26.56440980
              15.53326769                4.75040781               72.03614423                0.00010000               52.85998159              -60.04360359               91.96225597              -27.68112141              102.80091574                4.19057279
              17.07527944                4.21542640               71.75765026                0.00010000               58.22586046              -63.27005242               84.15118302              -21.29871001               84.39650744              -25.08883118
              18.69778489                3.78372472               71.20682619                0.00010000               75.51877228              -59.90769600               65.99378503              -29.06208710               60.63843004              -30.30729913
              20.58565489                3.47907329               70.45277585                0.00010000               87.74463711              -62.08625310               41.33922893              -32.05406229               64.43698567              -45.37913110
              22.45267764                3.52796800               69.72181672                0.00010000               84.89600146              -43.07826945               14.28384287              -62.90490988               30.98875749              -67.75691506
              24.28357492                3.62694456               68.60171713                0.05981702               41.57589938              -54.67402167              -62.12524042              -86.56402042              -73.99532761             -124.33035596
              25.28419562                4.68628142               67.29620568                0.65106449                0.06207073               17.32427948              -61.99966031              -39.33407587              -83.32520338              -25.55591358
              10.33592479                7.73783806               70.49758279                0.91112064               -0.10708617               -0.38683478                1.49540605               -0.25160102                0.60499860               -0.55819850
              11.33485393                7.61244916               70.23203222                0.32235913               32.96237681                0.18105776               -0.97472004              -23.40008037               92.31595401                0.50509017
              12.99517233                7.02311786               71.80033238                0.00010000               58.07352135              -68.81562581               89.62813887              -24.14230552              181.21743913              129.54696229
              14.49632436                5.89971044               72.50147629                0.00010000               45.74479928              -53.45334730               85.91805311              -43.40268863              125.16342905               35.16561632
              15.91006831                5.20389589               72.58050324                0.00010000               41.94677597              -51.75508381               81.10744183              -25.51650883               79.15794707               -5.42012109
              17.33525988                4.68356163               72.12220905                0.00010000               44.95010114              -47.04629699               66.54234482              -25.21346876               44.69462965              -29.23645330
              18.80907034                4.28096170               71.30315307                0.00010000               47.20571501              -39.32057849               44.69008554              -27.85734474               24.72803341              -45.04773327
              20.27937418                4.07251957               70.30210284                0.00010000               50.59822595              -27.53791087               21.00408848              -30.65249747               12.23992890              -52.82639734
              21.82103486                4.23827694               69.26970778                0.00010000               47.25780818              -19.36478416              -10.45269022              -29.17546530                8.94302861              -65.81536164
              23.22453034                4.62691166               68.21022204                0.01830577               20.17660363               10.52655450               -8.94766359              -12.31500879                6.02730634              -42.00722038
              24.22456693                5.68615208               66.90464418                0.62436970                0.00365879              -28.57152117              -28.52173823               21.19565945              -42.16361494              -20.89562310
              10.45404198                8.73568461               70.38967035                0.90360711                0.02413297              -13.58303138              181.38560334              114.44105167              124.73327714              298.78149480
              11.45428331                8.61294225               70.14566660                0.30392292               49.40642440              -65.93263029              164.09935450               29.70338331              259.37563905              203.38603237
              13.44217046                7.09636976               73.26713196                0.00010000               75.74823493              -77.60058092               94.26811325              -39.91737259              246.33407403               95.84767845
              14.96924800                6.35239189               73.41679186                0.00010000               39.84579273              -54.44770047               93.42908882              -20.61193313               87.14606848               33.11054983
              16.23908632                5.71530614               73.10315086                0.00010000               26.23481268              -43.83108835               76.75017401              -22.52482553               48.17830995              -11.45481794
              17.49394426                5.27450046               72.36088882                0.00010000               25.62968746              -34.25116585               56.38185642              -21.76548213               16.22489352              -37.45035457
              18.75168007                4.99731315               71.33237312                0.00010000               26.06727220              -21.67725317               33.27810057              -21.80581699               -5.26717481              -49.65390971
              20.01528970                4.92831507               70.12831619                0.00010000               28.15480858               -8.92318898                7.83495010              -14.74855864              -17.83364491              -54.80277402
              21.31477624                5.14067231               68.82195332                0.00010000               28.70549482               -3.79907991              -18.66948108                6.00796053              -19.16366298              -62.91870670
              22.58939960                5.83747565               67.62075290                0.00010000               13.74258622               10.53195498              -24.33828038                3.09543962              -10.02491258              -42.76390282
              23.58962796                6.11485099               66.54647237                0.57542975                0.02283655              -28.57132975              -47.15893406              -17.87398055               29.64743286              -11.08476600
              12.87023053                9.46617743               75.88114464                0.91552035              -30.19940806              -63.85452038              193.40079385               56.07579010               58.00978033              346.19979436
              13.56823645                8.29379655               75.12523957                0.31676712              -20.64276426              -97.42795468              155.16806540               51.89668483               56.83894731              289.25674175
              14.45737524                7.47110624               74.61195384                0.00010000               -5.15435660              -57.29407863              127.49759324               10.52059361               70.81405956               86.08353839
              15.46514931                6.81075643               74.33780894                0.00010000                4.00439969              -47.65663073              100.12531436              -10.34693999               55.84844971               23.78805081
              16.53746324                6.32727413               73.59669066                0.00010000                7.63969530              -35.00004494               77.03807259              -14.00359362               18.57667223              -15.35328672
              17.61794322                5.99853832               72.57192169                0.00010000                9.08380733              -23.50604626               52.36271880              -13.26034108               -6.28845872              -37.43375179
              18.71913938                5.84741664               71.32985182                0.00010000               11.15503098              -11.36855275               26.48503510               -8.03241389              -23.39979751              -48.19258208
              19.84104384                5.89405579               69.95817733                0.00010000               15.64470548               -0.44638510               -0.65496893                1.59668135              -33.80269169              -51.64514345
              21.03203349                6.16229534               68.50857230                0.00010000               23.56083068                4.01075983              -28.42954857               23.78185889              -21.53833752              -50.15434065
              22.31226045                6.83755076               67.43549375                0.00010000               14.01515647                0.00293367              -35.87161128               19.90852332               -1.19002210              -29.72403307
              23.31233662                7.11472549               66.36125725                0.57212811                0.00761680               -0.00974774              -59.68104132                0.00513582               24.51425754              -23.20159070
              13.92031953                9.45859420               78.32068879                0.92222668              -43.30313397              -96.21602069              203.85559992                0.37142101               14.59077707              136.74275693
              14.48728819                8.66438316               77.12175353                0.33663133              -39.23485370              -63.20879010              168.78198404               -5.47207445               18.01471390              107.27191546
              15.13562245                7.95048818               76.15653939                0.00010000              -29.05734346              -49.04274785              135.99476189               -9.78199526               21.78961358               65.10699676
              15.90614132                7.39925927               75.16641405                0.00010000              -18.21949455              -37.82402298              105.75163501              -11.33841630               10.44376259               12.85465063
              16.77123256                7.01530524               74.06249883                0.00010000               -9.87731981              -27.72586795               76.96384076              -10.80018416               -7.24461167              -17.29224221
              17.70859492                6.80437953               72.77841810                0.00010000               -3.78591215              -16.68230163               49.06081451               -5.92711874              -24.81992172              -34.31619421
              18.69551432                6.76994209               71.35382380                0.00010000                1.18748518               -5.56759799               21.04106971                2.32807222              -36.43904899              -41.80049865
              19.73234463                6.91938737               69.85133187                0.00010000                7.57020629                3.93116710               -7.16020362               12.23930278              -42.31640926              -42.62568747
              20.84691845                7.22088751               68.31140178                0.00010000               15.13976458                9.60840168              -36.53843873               28.74381422              -21.99022542              -38.13256062
              22.03513992                7.83753432               67.25012848                0.00010000                9.42313868               -0.65213160              -43.92412726               20.10521681                7.21893310              -41.32541119
              23.03538122                8.11465604               66.17595118                0.58977383                0.02413014                1.88936191              -69.98955910               20.73952931               31.96980392              -51.62540225
              14.46608102                9.54185701               79.82850807                0.92773301              -49.91800485              -83.54898401              205.07088986               -7.38711944                1.73491410               55.60168610
              14.96690097                9.02962075               78.52155295                0.37059075              -46.96108987              -61.06775984              172.44850581              -14.91473387               -3.46918717               50.11790103
              15.52685922                8.49025128               77.22425618                0.00010000              -39.66685190              -44.45604355              139.45579978              -18.38295378               -9.12966005               26.76185568
              16.17356393                8.05427597               75.90520890                0.00010000              -30.52599638              -32.60426900              107.29567342              -15.40534153              -18.34465857                2.38522091
              16.91633930                7.77275677               74.50817997                0.00010000              -21.43999731              -22.26028786               76.31951812               -9.66997152              -30.07941754              -16.97009287
              17.74476399                7.66489229               73.01554823                0.00010000              -13.28231530              -12.12676330               46.24744315               -2.03561011              -40.96845097              -27.91412922
              18.65069299                7.73606468               71.44031259                0.00010000               -5.49397542               -2.16286232               16.68692823                7.39588229              -47.76295919              -31.89717450
              19.63488448                7.97267913               69.82695152                0.00010000                1.90349186                6.57690667              -12.73593347               17.97359343              -48.27201708              -31.49383089
              20.68876283                8.35446338               68.22801857                0.00010000                9.28558911               12.63696598              -39.22910331               27.64519814              -38.80881485              -23.21897908
              21.82059626                8.82450813               66.75530504                0.02876105               24.20604708                6.69309496              -70.61680914               23.19039022              -23.34634886              -57.16583255
              23.17288377                9.15251273               65.40164585                0.62560561               35.22875064               13.31012409             -105.16091442               16.08455785              -11.33153525              -65.09744979
              14.79704967                9.78761452               80.84348286                0.84820755              -55.64504256              -70.58668202              205.12468093               -4.93891312               -6.38800317               14.21547207
              15.24059924                9.44302796               79.50249171                0.33068867              -52.68707559              -56.50794122              174.14561460              -11.38719034              -16.30966553               16.04258474
              15.74330815                9.06136731               78.05816217                0.00010000              -46.25351175              -41.83813397              141.22723001              -14.82223109              -29.01087591                7.64148657
              16.31552901                8.74717389               76.54279548                0.00010000              -38.80456658              -29.42350111              108.16195642              -12.21686354              -39.27369934               -3.30653431
              16.96721682                8.57009948               74.96171314                0.00010000              -30.54770986              -18.53639552               75.80582663               -7.01331009              -48.67363613              -12.04296808
              17.70457481                8.56184427               73.31454218                0.00010000              -21.57858505               -8.53413864               44.35400190               -0.64195698              -56.27245911              -17.03358747
              18.53564512                8.72668485               71.61949302                0.00010000              -11.55785042                0.58417898               13.59033451                6.58053934              -60.25846487              -18.30920398
              19.47341780                9.05092550               69.90292898                0.00010000                0.61741451                8.19442998              -16.40883608               13.37603909              -55.09824580              -16.94661627
              20.54799341                9.47362683               68.27811199                0.00010000               11.37402859               13.75036896              -46.09635642               21.84271966              -64.53868626              -12.71379486
              21.70089837                9.97139622               66.21652678                0.07050379                7.65348822                7.35184178              -45.87117697               18.90944999              -46.76536107              -27.94744024
              22.70106318               10.38085852               64.79038486                0.66608469                0.01648045               11.42075739              -62.06923526               -3.11861546              -32.56978420              -26.01941470
              15.05647586               10.13012337               81.67512634                0.91164018              -59.10714941              -65.74911446              210.70032556                2.87647522              -15.00102709               -0.25401088
              15.46540437                9.89946193               80.31508593                0.66509329              -56.51035972              -54.35660383              179.80266607               -1.35122532              -27.05015645                4.40795801
              15.92626867                9.65348861               78.78735950                0.44511722              -52.24549379              -40.78787070              145.51417395               -3.38674698              -43.08918854                1.31762710
              16.42049450                9.46580595               77.17307966                0.36498061              -48.24329740              -28.13679421              110.90037526               -2.07643840              -54.56828618               -3.06940446
              16.96140272                9.40202886               75.48614796                0.36082025              -42.25775075              -16.80706229               77.04869701                0.83876804              -64.98283726               -6.70701394
              17.57533948                9.49420951               73.73257993                0.36369514              -33.40900917               -6.76347531               44.33632770                4.36243736              -73.26245111               -8.59468170
              18.29322254                9.74774826               71.93351482                0.37377828              -20.99381002                2.10634119               12.62928247                7.87565266              -77.05339342               -8.67936250
              19.15546328               10.13656773               70.12197179                0.39114271               -4.40380174                8.56422271              -18.33875615               12.29067277              -71.14342321               -7.68216747
              20.20514650               10.62947076               68.39302795                0.41688365                6.80451459               15.58439254              -47.22150766                7.46417096              -76.33078384               -7.18294571
              21.29155357               10.97154496               66.28517511                0.54510582                4.32201748                0.01487449              -43.46695125               -3.36162398              -52.73062831              -13.20272839
              22.29158685               11.38092788               64.85916405                0.84135589                0.00332825                0.00693552              -58.60199169               -0.00934090              -35.59191201              -13.56942277
              10.05872496                3.86096221               71.91693316                1.00000000               -0.37874949               -0.63372778                2.12241367               -0.30783432                0.09040378                0.07335185
              11.05493746                3.70918851               71.63151436                1.00000000               -0.13857696               -0.14031649                0.49549520               -0.24721458                0.16955113                0.05801379
              12.05595342                3.55662474               71.34623091                1.00000000               59.41974609                0.38771826               -1.12214735               40.40549022               97.54958778               -0.00265504
              14.24333238                4.21590511               73.00816495                0.61434816              102.72596252              -73.09820757               65.83290177               23.66097246              184.63726818                9.24352447
              16.11047267                3.98475661               73.67960297                0.46530029               89.59040398              -87.75403507              101.91992493              -13.97167274              133.77398420               -1.72757344
              18.03514046                3.58959081               73.62183180                0.20524896              103.62459353              -98.00275806              110.20403531              -14.39423830              114.12506642              -16.62784152
              20.18296454                3.24018205               73.16251955                0.00010000              123.71020289             -102.76282402               98.48946918              -13.29110921              128.78005817              -22.82691247
              22.50934452                3.02155542               72.63913371                0.00010000              134.20627934             -100.57084814               75.64248212               -1.27527826              146.83877742              -21.33283344
              24.86709013                2.89467040               72.08942229                0.00010000              131.98119871              -88.04993942               47.55714684              -10.60435510              154.23773507               -8.78337276
              27.14896850                1.95028018               71.43815237                1.00000000               63.67358635               -5.73406019               18.78024669              -20.97584906               74.38636341                4.06221012
              28.14056185                1.30250805               69.25777686                1.00000000               -0.84066426                5.28232767              -13.47682952               -4.96813580               -2.16776780               -4.36600742
              10.20742031                4.85462493               71.81676651                1.00000000               -0.27862585               -0.57199456                1.83406757               -0.10722044                0.18080711                0.16453991
              11.20463406                4.70778535               71.53157554                1.00000000               -0.03851463               -0.10075794                0.23326032               -0.08390544                0.20769377                0.06456529
              12.20665002                4.56050192               71.24546076                1.00000000               53.06210581                0.42428981               -1.34906878                3.53895668               95.93291466                0.24098915
              14.26587617                4.48492304               72.87526603                0.66281594              103.86315361              -68.10107447               74.56008454              -14.35295561              182.14045745               -0.23731760
              16.28391309                4.10721626               73.59631022                0.58587783               99.88045943              -91.36169853              117.20613274              -29.08022886              144.44279282              -16.64261173
              18.26348536                3.60956323               73.56372079                0.33711727              102.50790232              -98.73607180              120.63988831              -29.66606184              125.54870565              -33.55064695
              20.33407114                3.21255381               73.13230935                0.00010000              120.29311036             -101.68259193              108.94435984              -22.64301240              123.88303482              -44.23001419
              22.66934757                3.01584694               72.54653822                0.00010000              148.13065275             -102.95062704               75.31969586               -8.10621610              142.03681701              -41.25785747
              25.29668419                3.01417100               71.96655817                0.00010000              153.29718062              -97.70189538               41.17094427                4.60296627              150.11260256              -31.39831233
              27.73529118                2.89293958               71.33171960                0.74763117               72.09842183               -5.20192800               15.38372282               20.21280510               78.79980931                3.83896365
              28.73865263                2.35533132               69.12031319                1.00000000                0.33614518                5.81798724              -17.48513487                0.54970919               -0.00916925               -4.15321145
              10.35025972                5.84952232               71.71652832                1.00000000               -0.28773514               -0.42394980                1.61079985               -0.19924920                0.31932405                0.20585553
              11.34738237                5.70717335               71.43162552                1.00000000               -0.03324289                0.03999980               -0.18249792               -0.17026962                0.63611875               -0.12313602
              12.34959486                5.56511053               71.15144436                0.00010000               53.10882801                0.33049924               -1.62128187              -28.91584548              107.06317465                1.04907841
              14.40955893                4.85388362               72.99288631                0.00010000              102.73165181              -71.71486958               88.59974252              -47.37580259              198.26886487               20.21614508
              16.40422790                4.15752264               73.65493616                0.00010000               96.34613721              -89.95453587              117.60892129              -44.74409420              138.10436284               -8.53673036
              18.33648167                3.61486937               73.50942219                0.00010000               95.97963385              -93.40372108              114.18662605              -40.74763910              113.92884599              -29.14717830
              20.32382058                3.20653021               72.95791064                0.00010000              110.45606675              -93.41347363               99.63537690              -38.98952094              106.41182929              -42.70057534
              22.54560301                2.96254288               72.24979329                0.00010000              137.91181170              -93.32647388               67.39842582              -43.83135016              118.36688801              -61.74699961
              25.08205681                2.94063249               71.53094753                0.00010000              183.32306328              -88.16900774               30.35787572              -22.69115064              148.18184314              -69.90858501
              28.21206428                3.84624162               71.22511529                0.07061944              107.23578703              -43.74956938               11.86168588              -83.36944190               98.85082705              -71.95900891
              29.22677255                3.41886779               68.98207625                0.64707535                1.47082765               36.11831002              -21.34996934             -150.17912818                1.97805149              -31.59156589
              10.48813326                6.84614594               71.61547727                1.00000000               -0.24928117               -0.34828277                1.40795631               -0.16562865                0.25729182                0.30165757
              11.48564045                6.70858534               71.32750769                0.45133170               -0.32552103                0.21313468               -0.69317357               -0.23260749                1.81303905               -0.44527694
              12.48162284                6.56711190               71.07051396                0.00010000               62.01537796              -53.82446931              104.93941936               -8.43154879              203.50192050              115.10073784
              14.72594801                5.05062564               73.63141427                0.00010000              107.32113082              -73.90469599               89.00413444              -62.46280169              230.19734710               33.68681158
              16.62804546                4.30812554               73.95870462                0.00010000               83.67884964              -77.04341616               99.37233939              -37.19247192              115.29793637               -4.34959762
              18.39952500                3.74148881               73.63234043                0.00010000               78.92808754              -74.93569965               89.64381065              -39.01180613               83.67471324              -28.98437870
              20.20660721                3.34428434               72.86024139                0.00010000               82.95466423              -69.98508921               68.93100583              -43.33461668               69.76508758              -47.56615568
              22.05861829                3.14931746               71.89633291                0.00010000               87.62776148              -61.85967962               45.01593567              -54.18921310               62.01659115              -66.31707889
              23.95916244                3.25079085               70.86928179                0.00010000               76.55243743              -50.38074034               15.71077501              -60.09929827               49.03504773              -93.96525208
              25.58966704                4.01794819               69.60156886                0.00010000               31.53276451              -41.42328813               -6.15500429              -92.77149980               30.01279155              -90.84559124
              26.58981773                5.07769752               68.29582244                0.58243249                0.01506929               32.93648986              -38.80044768              -78.86018240               70.51000684              -30.20197475
              10.62206834                7.84255667               71.51478862                0.91710903               -0.03040817               19.28070005                1.32946656              121.97255163                0.21341127              180.53754536
              11.62176426                7.71143605               71.22021479                0.29995807               60.84276249              -50.87894146               -0.85700439               33.85734062              147.80489664              165.09470822
              13.83892359                6.48862115               73.87691913                0.00010000               89.87625005              -97.07615021              109.76573064              -13.33442692              244.71203683              143.14849477
              15.41928926                5.37578970               74.41242614                0.00010000               56.52958563              -66.72861980              107.41593118              -27.11297643              132.76353683               37.44286880
              16.96951530                4.61665432               74.44045078                0.00010000               55.03987487              -61.11889772               91.26871327              -25.61563121               89.19765619               -8.95362968
              18.52008676                4.11615538               73.80306179                0.00010000               53.98921424              -52.54529084               72.64640096              -26.83046146               49.80310031              -36.40970760
              20.04929959                3.80682843               72.78704073                0.00010000               51.76127426              -41.95178904               50.70450907              -31.86222935               27.61799771              -53.07917801
              21.55531224                3.72534929               71.54521161                0.00010000               48.10702648              -29.96638578               25.31498652              -35.59314311               12.57477288              -68.29475858
              23.01144012                3.93301768               70.14154508                0.00010000               48.72076807              -17.36747065               -5.63690270              -12.80147530               21.86149635              -83.74895895
              24.52972760                5.01777586               69.20996954                0.00010000               25.93150639              -22.30634933              -35.07126607                7.25016786               24.85030755              -80.87311621
              25.53007024                6.07759759               67.90452428                0.51222358                0.03426412              -41.31863690              -65.87978593               39.33128980               40.64374190              -93.47396071
              13.18982553                9.23175994               75.01467171                0.91257521              -67.31027477              -48.75115532              314.00937322               34.84813496              131.77252420              402.96835704
              13.51672279                7.69100651               74.42861374                0.28020323              -31.96224412              -99.38954083              283.06338289               37.06228896              187.18338412              268.31038610
              14.55058065                6.62558890               75.15068211                0.00010000               26.94662633              -81.61783170              124.28039205               -3.53889438              188.22876577              100.24306163
              16.05565531                5.71605325               75.46766148                0.00010000               41.23932543              -61.67649889              111.99548385              -13.20607739              113.30320990               32.30212242
              17.37536716                5.08574759               74.92385716                0.00010000               30.85431753              -47.15183013               88.62522424              -12.20836829               54.65598614              -14.37689673
              18.67274166                4.69058299               73.96451531                0.00010000               29.24007767              -35.31725760               63.70795278              -13.27729154               22.86009334              -40.90128437
              19.96016871                4.50524856               72.68618673                0.00010000               27.39122559              -22.57222606               37.57029829              -12.61042356                0.58482280              -56.25885011
              21.22056617                4.54998975               71.20782131                0.00010000               22.52688251              -10.28439073                9.93527584               -5.47833630              -11.62847220              -65.98911779
              22.41070636                4.90344143               69.67434776                0.00010000               18.47621562               -0.15825013              -17.38851769                8.15514407              -17.81644700              -69.38209910
              23.59009049                5.57182121               68.13431874                0.00010000               42.30468535              -29.46061125              -51.12390450                8.98361645              -15.33286767              -98.72570928
              25.25680007                6.25132479               66.60344646                0.48763984               66.67095830              -62.07998038              -95.07369509               35.28723848               10.42052167              -91.78949762
              14.40053789                8.86753356               78.87962215                0.92683084              -43.13568105             -122.83064163              243.32962020               -1.86644322               58.10743037              281.67128361
              14.96918108                7.72364523               77.69587226                0.28952511              -32.87194601              -85.33294777              193.59228698               19.55617051               74.35190077              221.80514572
              15.74309897                6.85626451               77.08397017                0.00010000              -13.70860280              -68.46006569              158.66297626               18.28836839               85.70171731              105.95524050
              16.69500902                6.14225972               76.40140650                0.00010000                0.38596136              -50.15006413              115.98753586               -1.19976196               58.91904298               22.05508950
              17.75081819                5.67361771               75.41236521                0.00010000                7.00154662              -35.94510542               86.34778781               -3.04518475               25.32033606              -18.26020349
              18.83503995                5.40981023               74.11677804                0.00010000                9.34330805              -23.09538338               57.22556388               -1.17118745               -0.51261420              -41.54995119
              19.93768436                5.35538391               72.60223762                0.00010000               10.62563428              -10.60731196               28.25662755                4.79510786              -18.12044217              -53.66554786
              21.04755264                5.51966148               70.94245989                0.00010000               10.75135909                0.31754346               -1.20838850               16.46844329              -27.21724690              -58.94930006
              22.15271154                5.92985268               69.25118830                0.00010000               15.69819696                4.81808848              -29.46055983               27.04377090              -23.16937939              -61.66239050
              23.36151658                6.42856364               67.71816986                0.00010000               36.20481586               -3.27759183              -77.18552271               27.84457675              -15.84142568              -69.29913065
              24.87680785                6.83599798               66.16768357                0.48486162               51.52912762              -19.73697811             -123.93194902               15.34687607                9.09265242              -65.95976486
              15.44027333                8.77514711               81.52529131                0.93467642              -52.11580820             -105.17480156              234.94209159               -1.65654908               14.64100294              134.51833478
              15.91911524                7.98434756               79.95684411                0.30253025              -47.12699003              -72.06049431              195.14008473               -4.89742479               17.56207551              111.24725095
              16.49773353                7.25638758               78.59620028                0.00010000              -35.24041866              -54.59124895              154.70303770               -5.82795273               22.81880810               58.82487103
              17.21430687                6.71305197               77.28748969                0.00010000              -22.54102815              -39.08431532              118.17368227               -4.08394646               13.56550503               11.14792201
              18.04691296                6.36684548               75.86560555                0.00010000              -12.33775755              -26.96812191               83.76319580               -0.99785207               -3.71549347              -20.60565367
              18.96755172                6.22867532               74.28277987                0.00010000               -5.03466702              -15.15205258               51.82299700                5.79271401              -20.36473280              -38.30566652
              19.94621962                6.29310232               72.56262188                0.00010000                0.39572748               -3.86093601               20.64668761               15.59540212              -32.17822051              -46.88062506
              20.97546627                6.55634062               70.75578228                0.00010000                4.82299990                5.47048979              -10.57347177               28.27437700              -36.05259167              -49.56944006
              22.04267962                6.99980320               68.96537903                0.00010000               13.26852249                9.83307492              -40.44448964               39.58263739              -25.48128564              -48.58481010
              23.24083672                7.50626937               67.37206035                0.00010000               35.30946401               13.61316252              -93.16579420               33.65495783              -11.38822896              -68.11949401
              24.74886890                7.85658522               65.77640399                0.49045564               50.80321809               12.25072342             -142.16383986               17.82317121               12.15767785              -73.73868806
              15.94900600                8.76403753               82.99135714                0.93928784              -55.90138978              -91.81686584              228.71154388               -9.16021234                1.15275330               40.96432143
              16.38999210                8.28243534               81.32962442                0.32264842              -52.55852474              -66.58790545              190.22978200              -15.07976109               -4.14187365               40.01992693
              16.89783551                7.76443953               79.68453128                0.00010000              -44.35599530              -47.01254793              152.13947269              -16.89279859               -9.45915481               21.54608894
              17.50287220                7.36057342               78.01869783                0.00010000              -34.12988545              -33.02246197              115.20738134              -11.14001687              -17.72160659               -1.90310948
              18.21523780                7.13425528               76.29220927                0.00010000              -23.91174020              -21.17218194               80.13559759               -2.64992272              -28.06146179              -20.43888790
              19.02463739                7.10676918               74.48058955                0.00010000              -14.66553478              -10.27520847               46.55048353                7.21274405              -37.92655927              -31.51052134
              19.92192710                7.27816519               72.59347509                0.00010000               -5.91490493               -0.03136402               13.87116364               18.44442190              -44.51471743              -36.47377669
              20.90633929                7.62907127               70.66761797                0.00010000                3.62542146                8.56862081              -18.53783390               30.69152143              -43.93619435              -36.76657011
              21.99443553                8.12651418               68.79461997                0.00010000               13.57472093               13.01138300              -50.18496635               44.58765989              -37.33655762              -40.23983300
              23.17783371                8.70082689               66.95936253                0.00010000               26.91020202               19.81174309              -84.21733097               42.02391618              -22.59599128              -31.64418347
              24.53263957                9.08101245               65.25371988                0.50273186               35.48058577               22.77002947             -120.04475231                6.92779167              -12.39389955              -23.18606146
              16.22027345                8.93880979               83.98762768                0.85493595              -60.31554282              -76.52542321              222.93983330               -6.12654082               -7.69863280                4.10025812
              16.61711802                8.65258945               82.31057845                0.25899917              -56.92669830              -60.01166625              186.45468671              -11.89484392              -18.16418125                9.59007876
              17.08173948                8.31613663               80.51243994                0.00010000              -49.77136142              -43.14834226              148.87504424              -14.59744780              -31.12739480                3.05311366
              17.62169079                8.05260273               78.64688935                0.00010000              -41.70103647              -28.99748185              111.86935134              -10.34515368              -40.26416797               -6.39114773
              18.24771875                7.94340184               76.72480154                0.00010000              -32.68970505              -16.91144242               76.14673812               -3.27185457              -48.14227099              -14.45491999
              18.96789669                8.02317115               74.74788756                0.00010000              -22.74563934               -6.17544618               41.71885075                4.72317162              -54.64012831              -19.28703197
              19.79280596                8.29247504               72.72697812                0.00010000              -11.34744903                3.30600287                8.11758667               13.10437311              -57.62146796              -21.03949878
              20.74094771                8.72771303               70.70539794                0.00010000                3.49356190               10.80324815              -24.92159931               20.81312130              -57.93191446              -20.83987530
              21.86267720                9.26003086               68.67650693                0.00010000               19.29345308               15.47778803              -58.49558910               31.81738516              -31.45230198              -22.77479035
              23.12681677                9.90250423               67.21594949                0.00010000               13.21882020               10.09187194              -57.31322852               29.58040446                1.13076323               -3.06621112
              24.12705361               10.31198581               65.79006639                0.51827667                0.02368360               11.55237714              -85.04705858                0.19359616               29.75709942               12.35682514
              16.39891586                9.23352906               84.85327714                0.91367383              -62.41474757              -70.52807260              223.38760889                2.73153740              -18.98928229               -6.77898116
              16.77476839                9.08220202               83.15800112                0.62073401              -59.65212951              -57.03874306              187.03561285               -0.83778174              -31.70358205                0.72008224
              17.20587327                8.90147269               81.26453950                0.39845244              -55.30322397              -41.46639391              148.27376204               -2.66553248              -48.39667990               -1.01547212
              17.66870391                8.78062378               79.28473661                0.36481966              -51.33204970              -27.19789451              110.03792848               -0.57100099              -58.41767657               -4.66025016
              18.17923228                8.79602643               77.24353444                0.36088726              -44.93381412              -14.73754131               73.25419325                3.28317651              -66.67151583               -7.84553579
              18.77002763                8.98326025               75.14937827                0.36355382              -34.98797991               -3.99109003               38.05461467                7.62603474              -73.12941064               -9.59244848
              19.47947268                9.34428525               73.01744206                0.37294560              -20.74908653                5.18102061                4.02452600               11.76047098              -75.73455432               -9.88499099
              20.35504590                9.84513623               70.88892002                0.38922332               -1.17403238               11.74232006              -29.32266928               15.99905348              -74.78885620               -9.18224937
              21.45599203               10.43606994               68.77838756                0.41323823               18.12204778               17.60390746              -61.31081126               12.20788787              -45.19496314               -7.68578612
              22.71748685               10.90266433               67.28499335                0.47090803               13.07781487                0.01600927              -57.97766700                2.86651099               -4.73040259                8.96156556
              23.71754833               11.31205999               65.85905396                0.76367055                0.00614798                0.00741791              -85.23823513               -0.01096061               25.76785348               20.25147199
              10.35263917                3.96383361               72.93656103                1.00000000               -0.29625922               -0.51457732                1.80867399               -0.28137105               -0.05071277                0.19274596
              11.34967658                3.81096215               72.63612237                1.00000000               -0.08089433               -0.10980424                0.37809675               -0.17476098                0.09551378                0.00076908
              12.35102129                3.65845278               72.33563165                1.00000000               77.08208213                0.30001911               -0.94996008               47.51803552              136.82227917                0.08496039
              14.89131822                4.45925257               74.76811469                0.62067655              136.57840636              -95.90306464               91.61610582               22.22245798              243.89005180               17.77121310
              17.08258941                4.05550705               75.82188976                0.46467973              125.13525540             -108.13284071              125.13006816              -21.29199156              153.03280906                5.16265847
              19.39402333                3.51224436               75.81869543                0.18983005              141.74881813             -112.65911354              122.64379049              -19.44358593              114.01185390               -8.93898137
              21.91756578                3.09794694               75.24028718                0.00010000              159.34828993             -112.62810653              107.50192981              -10.21862501              115.04762746              -15.93048797
              24.58098913                2.95744980               74.45652370                0.00010000              160.31380804             -111.76860810               81.52334322                3.06118149              135.78109314              -16.24830044
              27.12384194                2.97887370               73.60582500                0.00010000              144.48823604              -95.71299585               51.66768545               -1.37695025              147.90046124               -6.46287632
              29.47075385                2.11692071               72.63049512                1.00000000               66.90371936               -5.82814677               19.42979285              -14.14152919               74.53204452                4.28498901
              30.46191632                1.41464516               70.12034655                1.00000000               -0.88375265                5.29516430              -13.75730815               -4.95567475               -2.25873024               -4.52238035
              10.50269693                4.95868784               72.83358411                1.00000000               -0.20775387               -0.47292025                1.56264179               -0.12710535                0.22835248                0.33269791
              11.50061939                4.80986411               72.53361540                1.00000000               -0.03202505               -0.04963151                0.10759516                0.00171138                0.27741870               -0.06666380
              12.50205643                4.66145297               72.23404258                1.00000000               70.71981372                0.28400745               -0.96237184               -0.45055973              135.51599279                0.03503343
              14.91501566                4.50022193               74.63927164                0.69172382              142.05585884              -93.24635438               90.41408384              -16.99888494              244.33143796               12.01767908
              17.34317360                3.97417865               75.72986752                0.60394622              138.16759328             -109.19340439              119.42313468              -34.69742166              165.22318280              -11.10814893
              19.67836753                3.38565323               75.72625376                0.33563327              137.48015998             -110.74224437              115.34261235              -31.31913398              120.40374251              -27.46584973
              22.09277680                2.97166587               75.13319850                0.00010000              149.63850172             -110.03874316               97.77295747              -21.08154131              113.04084054              -35.76888432
              24.67113756                2.83976372               74.28927785                0.00010000              171.87800891             -111.39699317               72.14719969               -3.59558473              126.20427336              -39.22148412
              27.53033698                3.02174374               73.41167683                0.00010000              172.01576318             -108.99633453               43.76709159               15.51763828              147.21621321              -32.53330143
              30.11145283                3.05863924               72.48688176                1.00000000               79.21490716               -5.27790273               15.61676346               30.75556008               80.91377911                4.18168152
              31.11463513                2.46759680               69.94404187                1.00000000                0.31822978                5.88403844              -17.70623597                0.57800346                0.00208357               -4.49850982
              10.64774454                5.95437521               72.73138302                1.00000000               -0.07988549               -0.37468438                1.44797113               -0.10635575                0.34419884                0.47118486
              11.64694568                5.80996952               72.42889792                1.00000000                0.19538657                0.09810950               -0.38885997               -0.10364353                0.74310333               -0.35392490
              12.65165227                5.66413293               72.13406340                0.00010000               79.58345817              -30.61153505               -0.96129080               13.03546178              155.76991296              106.86861010
              15.23861484                4.59432549               74.93915242                0.00010000              142.57787074              -91.22833475              111.87622636              -48.68367622              263.56841818               15.18001537
              17.50320968                3.87163897               75.77987935                0.00010000              126.57692903             -104.81387014              114.65617268              -40.08996858              154.74061612              -13.26677379
              19.77015343                3.29739947               75.60050298                0.00010000              126.93073845             -102.17770036              107.68201205              -40.27987433              109.56420014              -36.99249284
              22.04182445                2.89717207               74.87240581                0.00010000              134.44230709              -98.41971785               87.94260853              -41.57860857               98.07592879              -53.18375023
              24.45899957                2.72950994               73.89030720                0.00010000              158.67473668              -99.12251649               61.24912194              -47.62081621              105.36632418              -65.67638299
              27.21531919                2.79894701               72.86176402                0.00010000              209.05062107              -99.18391669               31.75772852              -26.01708120              151.82751846              -78.49492204
              30.64001199                4.01136265               72.34296982                1.00000000              122.01210424              -61.67303788               11.80155231              -96.03919047              104.91321540              -81.90088242
              31.65556127                3.53232593               69.76786176                1.00000000                1.55492810               34.60985474              -21.61627684             -138.34099927                2.16574621              -57.97504587
              10.78938120                6.95119415               72.62893999                1.00000000               -0.05923931               -0.24903469                1.14367843                0.14302148                0.00003057                0.31220458
              11.78878880                6.81182630               72.31898938                0.43036223               59.45142484                0.16338752               -0.70767799              -31.00481079              108.25642941               -0.30176026
              13.97840969                6.04922227               74.17175814                0.00010000               97.25236479              -92.91066605              188.81197581               -4.53108107              276.18078924              145.49114813
              15.73383610                4.67565523               75.52514153                0.00010000               92.99452765              -89.10024386              114.13220422              -41.09362125              211.41592525               40.04526397
              17.83830025                3.87790124               76.02359102                0.00010000              105.67004178              -90.59841020              110.56185667              -26.66899548              136.98904641              -12.09356950
              19.84723693                3.34209922               75.55052648                0.00010000               99.53969594              -83.71034358               93.41392113              -33.00256126               88.24775002              -38.95223902
              21.82909417                3.00327151               74.58544631                0.00010000               98.48546860              -75.18696334               71.69888522              -45.36649021               69.24315096              -59.08239312
              23.81694631                2.85731339               73.35309457                0.00010000               94.95242406              -66.71869702               44.82326019              -62.39201975               66.49335154              -79.47161395
              25.72814265                3.03806540               72.03603222                0.00010000               82.01718953              -52.03576068               15.71754265              -82.69736214               57.96530542             -103.16918101
              27.45729010                3.82517848               70.47861704                0.00010000               78.88729727              -76.73315975              -19.53622373             -127.98631010               39.63523077             -151.64970434
              29.30588859                5.15979389               68.52019672                0.53375448               84.85984941               -1.16385360              -71.36457417              -66.89990795               62.69264482              -97.92512989
              10.92934068                7.94939452               72.52417212                0.92547396               -0.05193287               23.95120325                0.62264455              159.99563543                0.25305894              312.74123664
              11.92882135                7.81323727               72.21489213                0.28261780               88.39305133              -65.41668955               -0.22428819               56.48384361              204.78288212              284.63123295
              14.69720171                5.80591960               75.99564699                0.00010000              132.96210450             -107.75211627              138.61583474              -40.58141520              318.25352393              109.63587895
              16.58806344                4.81232061               76.64979492                0.00010000               80.30920399              -83.31006281              129.40453651               -0.89738909              156.42865461               45.54407362
              18.30338579                4.05967076               76.40587750                0.00010000               69.83342430              -71.10237347              104.17913037               -9.60380259               98.90106275              -12.04162791
              19.98473193                3.62319260               75.57513706                0.00010000               65.79473421              -59.96703471               80.39375041              -16.23291679               61.44240681              -42.09200461
              21.61928047                3.39343281               74.31724325                0.00010000               59.58166765              -47.31661254               54.64053261              -26.85401198               38.80041675              -62.67890849
              23.17636528                3.39513600               72.80840257                0.00010000               48.71131905              -32.30144812               26.93521517              -32.87940502               26.20718461              -80.58217578
              24.59350685                3.75823179               71.15696973                0.00010000               39.10960069              -19.73391452               -1.97406859              -30.73146590               22.43046060              -97.26837527
              25.95855730                4.47669946               69.50879672                0.00010000               52.74127148              -23.52086746              -64.71597669              -17.64147441                8.12228454             -126.56504455
              27.64833228                5.50904885               67.58704847                0.46001878               68.97749872              -57.19460746             -121.18615925              -19.07034233               24.08808227             -122.32807133
              14.26160840                9.43021822               78.66985781                0.92366412              -19.96678129              -68.02055062              313.23744946               80.85433997               85.21106986              488.56154761
              15.06194059                7.50349250               77.80693426                0.26595388               -4.69551765             -130.57840839              258.55927219               69.30334003              134.88262802              375.95103924
              16.16769805                5.89417994               77.75273980                0.00010000               20.00982866              -83.06133581              170.81668809               13.73175537              167.84661759              111.88505141
              17.46213716                5.00945398               77.65670153                0.00010000               33.38270779              -69.01453015              130.93898810               14.43727662              119.23120598               28.83576808
              18.83535220                4.45585377               76.87565535                0.00010000               36.33396966              -51.96745467              100.31768685                7.92085904               66.55665752              -15.21239860
              20.18881655                4.14275852               75.63504787                0.00010000               34.23591622              -38.69589342               70.43337285                1.70860432               33.82296117              -44.14145029
              21.52007053                4.05693926               74.08377908                0.00010000               30.28713334              -24.78811407               41.24654327               -0.98529424               13.01363667              -62.19144631
              22.79455922                4.21128443               72.32702171                0.00010000               25.59396720              -11.40135929               11.47069118                2.89153921                1.49150637              -74.92286787
              24.03194987                4.64338711               70.47418297                0.00010000               27.95421634               -6.01077618              -22.95125549               17.14528905                0.69532124              -85.97546466
              25.35364355                5.35476113               68.59827481                0.00010000               41.39165399              -13.14364632              -62.93078627               24.64470020                4.04419306             -102.82272060
              26.85978295                6.01590175               66.64499846                0.45218219               50.61394036              -44.32380963             -108.68434417               13.45555982               -2.90176305             -107.04997651
              16.39987891                8.58898350               82.74773704                0.93993847              -54.89524776             -169.64961614              302.00852880               15.68983898               44.31992790              264.47398349
              16.85092643                7.20166910               80.99708531                0.27519044              -46.70017831             -112.39582435              242.15378228               13.06947635               59.90315087              194.79602631
              17.46587534                6.14469289               79.78521337                0.00010000              -26.78956445              -68.38777206              182.74185806               16.20079461               76.94504188               99.90729872
              18.31513514                5.43203001               78.65755966                0.00010000               -6.86884603              -50.22637940              133.55462050               16.07688857               61.45700799               22.96402254
              19.32849842                5.02032167               77.32364642                0.00010000                5.13416916              -36.62528391               95.87728666               14.17625175               33.45055830              -19.47927990
              20.41781853                4.84927473               75.71643297                0.00010000               10.12751294              -23.41519185               62.27922612               14.64081153                9.53170085              -43.45445287
              21.53104868                4.89767052               73.89498437                0.00010000               11.49648449              -10.79235741               30.02202498               18.83555276               -6.61174770              -58.00966634
              22.64774822                5.16710881               71.93400956                0.00010000               13.09436258               -0.42219702               -2.18087776               27.71610865              -14.27576002              -66.93152132
              23.79293593                5.63801627               69.91936111                0.00010000               21.55942260                3.11862645              -37.70681493               36.78912537              -13.11211606              -74.93188348
              25.07893667                6.21382653               67.89178330                0.00010000               40.11131597               -6.04046776              -84.17066711               31.36316102               -7.08160008              -81.39587960
              26.59516225                6.62257266               65.88261827                0.45132853               51.62255844              -23.10278889             -131.02229686               21.37784052               -4.10466933              -86.21095608
              17.35003399                8.03722590               85.01953062                0.94796906              -58.24132561             -134.50882166              268.61980257               -7.52885669               15.63126101              104.84810052
              17.76762073                7.25557602               83.02455523                0.28637435              -54.43404768              -86.26920762              221.01231742               -8.54192329               18.88731480               90.91077084
              18.26135303                6.52642450               81.25060014                0.00010000              -42.97872891              -56.98797448              173.87374995               -3.39611263               24.16964983               50.37270634
              18.90804615                6.00492639               79.52988769                0.00010000              -27.98602604              -38.76079381              129.82323717                4.66211299               16.42216369                8.54075648
              19.70163251                5.72334810               77.73776275                0.00010000              -15.18811125              -25.77693279               90.31723479               11.71241057                2.44836846              -21.79481679
              20.60428393                5.67445469               75.81487804                0.00010000               -6.13425051              -13.98502793               54.38987841               19.24462381              -11.98511277              -40.17672793
              21.57894750                5.84109212               73.76675755                0.00010000                0.21258614               -2.77188065               20.04639645               28.53536707              -22.25298176              -50.54573359
              22.60853565                6.20284049               71.63986243                0.00010000                7.10335803                6.03116263              -14.03252488               38.59675156              -25.67414197              -56.52726622
              23.72101466                6.70575964               69.50251199                0.00010000               19.39073625               10.02612717              -51.32730979               44.42312368              -20.90353039              -61.51092910
              24.99635038                7.23395178               67.38681260                0.00010000               37.44164188                6.69543938              -99.21149305               33.93630892              -11.11120777              -65.78535661
              26.46984750                7.55384597               65.33267438                0.45312471               47.34971249                2.62782209             -145.77359112               19.04585972               -7.15673229              -70.68496387
              17.81260153                7.89880707               86.40273894                0.95245149              -62.17121696             -101.47631087              251.91652419               -9.89513800                0.75848340               26.02006544
              18.19088936                7.47628495               84.32614859                0.30255844              -58.19994065              -72.45615910              207.53298060              -15.44955244               -4.40772799               29.45872698
              18.64860272                7.00493340               82.26704563                0.00010000              -48.97177778              -49.20015691              163.82621132              -14.81872444               -8.50905519               14.58055193
              19.21145381                6.65681413               80.20935653                0.00010000              -37.76921913              -32.58071153              122.22315186               -5.51562465              -14.58620652               -5.27138034
              19.89321834                6.50478301               78.11089192                0.00010000              -26.32434123              -19.68360918               83.15923444                5.72503617              -22.78137075              -22.12324531
              20.68496698                6.56957417               75.94655790                0.00010000              -15.99240584               -8.35698889               46.31795948               17.13808189              -30.84809002              -33.25236907
              21.57337022                6.84223291               73.71773586                0.00010000               -6.49756315                2.04178977               10.78249654               28.24578836              -36.26431988              -39.38068181
              22.55501572                7.28773207               71.45619484                0.00010000                3.84584499               10.49927305              -24.46477899               37.65104739              -36.06546093              -43.04488203
              23.65028712                7.83853881               69.22431924                0.00010000               17.72804008               16.43018917              -62.28567422               37.36922059              -29.01717994              -45.63741711
              24.90957652                8.34773532               67.07095842                0.00010000               34.30019724               17.52446957             -100.05490403               22.50970490              -15.19466382              -42.80163249
              26.33629106                8.67512910               65.00075081                0.45716415               42.67145434               23.44074884             -141.94251214               16.64557234               -3.71400748              -40.72137694
              17.99717547                8.00769968               87.30227953                0.86332421              -64.46721173              -81.77811229              239.09341068               -7.39264788               -8.25235261               -6.48674490
              18.35250335                7.80645284               85.23158545                0.23276474              -60.63630548              -62.86333613              196.77216097              -11.80486544              -18.43489339                2.67948192
              18.78444936                7.54242136               83.03566306                0.00010000              -52.73096540              -43.79766777              154.70082941              -13.50719044              -30.59530274               -1.07574628
              19.29788405                7.35331216               80.78018250                0.00010000              -44.05380848              -27.99538518              113.98020057               -7.55266166              -37.89113268               -8.68327475
              19.90337319                7.32967591               78.48464790                0.00010000              -34.41441902              -14.85653349               75.17024928                1.20575805              -43.63020840              -15.70316421
              20.60959567                7.50731491               76.14891920                0.00010000              -23.88339074               -3.50975248               38.09173239               10.30643350              -48.28319412              -20.41153074
              21.42570538                7.88192791               73.78184475                0.00010000              -12.21724836                6.34438277                2.20384652               18.55652630              -50.87300963              -22.79564335
              22.36525070                8.41282595               71.40449700                0.00010000               -0.86547770               14.90732648              -33.60315424               24.80802222              -47.83223341              -24.42964722
              23.40839582                9.03436343               69.10820020                0.00010000               12.23517418               21.67274789              -66.42560327               21.32510016              -32.61458740              -23.92498283
              24.60995418                9.58444117               67.07026221                0.00010000               36.97877769               33.24766179             -124.07233284                9.75000605              -15.51601831              -18.96897367
              26.14797138               10.02266094               65.08944369                0.46232441               53.80171950               48.64265324             -179.72029673                9.94855985               11.61879350              -10.48565632
              18.06724226                8.26324482               88.14287852                0.91669541              -64.71718892              -74.44548543              232.60534001                2.58401907              -21.98796046              -12.69840092
              18.42007037                8.21901823               86.05579819                0.60429703              -61.78213365              -58.74346103              190.55714885                0.04346269              -34.51799543               -2.49309593
              18.83159959                8.12898004               83.75283474                0.37866966              -57.34621738              -41.34413187              147.77054240               -1.39056728              -50.54182435               -3.08391712
              19.27314602                8.09690643               81.37383823                0.36450472              -53.41344200              -25.64057315              106.45665239                1.45981278              -58.08188577               -5.71358266
              19.76333075                8.20765234               78.95123182                0.36096312              -46.71511849              -12.20235696               67.23960735                6.11939049              -63.44443700               -8.38283121
              20.33884365                8.49937913               76.49367222                0.36338626              -36.21705218               -0.79357840               30.06535334               10.99821014              -67.24714315              -10.05650240
              21.03898970                8.96912057               74.01400534                0.37209436              -22.00515029                8.71926570               -5.55715641               15.65340628              -68.65248489              -10.67282342
              21.89874065                9.58587860               71.53551840                0.38732478               -6.69078993               17.30526455              -40.36962073               18.49265514              -63.70669583              -10.45936292
              22.90517391               10.27199377               69.16681172                0.40968879               10.87692376               23.76303435              -72.04052334               21.01830615              -43.87352889               -8.72561665
              24.11627912               11.01268855               67.12562177                0.44061032               37.68244016               42.82473857             -129.24248621               19.43191412              -21.70246979                4.35594254
              25.65882271               11.64798217               65.15439935                0.73303316               54.25435852               62.53212233             -184.93455957               14.61449462                7.40495321               16.93748671
              10.65858802                4.07077096               73.95310664                1.00000000               -0.08109004               -0.43140687                1.60506061               -0.32163705               -0.10444722                0.36099459
              11.65777712                3.91421783               73.63907630                1.00000000                0.09093344               -0.05413096                0.13292315               -0.26876016               -0.01207512               -0.14408049
              12.66040668                3.76150208               73.32723171                1.00000000               98.85490945                0.12687621               -0.51869732               60.83057620              191.22531294                0.10579277
              15.63487530                4.82901546               76.84048706                0.62771988              173.00707100             -127.47765731              140.99893844               27.70807862              316.13105488               40.22945170
              18.12054810                4.27205427               78.18220433                0.46462896              163.10524126             -134.49905746              142.46574625              -23.58139445              185.48981472                6.63016626
              20.89698013                3.59569452               78.07470761                0.17551399              186.27703601             -131.72558348              128.54842876              -19.69032094              127.40648440               -4.95482879
              23.84608882                3.13574965               77.31255815                0.00010000              198.12242148             -127.06921607              106.98899883               -9.65316626              121.25892399              -11.69311379
              26.85942856                3.03108111               76.26960057                0.00010000              190.25195531             -123.34473582               80.04681174                6.45059234              135.19600363              -14.44406117
              29.65112793                3.15370921               75.12277600                0.00010000              163.28296390             -104.61432583               50.42516119                3.83393906              146.60254384               -6.46312305
              32.12508784                2.32320667               73.82674823                1.00000000               73.22782225               -5.91081610               19.74100452               -9.84058212               75.16753963                4.41025305
              33.11568438                1.56466980               70.98263069                1.00000000               -0.94034612                5.31761183              -13.71183938               -4.98471510               -2.29080812               -4.63923195
              10.81192478                5.06645690               73.84801935                1.00000000               -0.22008227               -0.35904140                1.42394831               -0.10174316                0.33435450                0.58300948
              11.80972396                4.91367652               73.53372744                1.00000000               -0.03055733                0.02515230               -0.18886158               -0.09495534                0.64184002               -0.24272134
              12.81131363                4.76277084               73.22621332                1.00000000               92.34780182                0.16325497               -0.44991428               -3.25528489              188.89675970                0.37294003
              15.65667999                4.55423888               76.68354771                0.72065600              184.50404986             -127.87007072              135.71699705              -21.77355529              325.58861862               21.03616946
              18.50139463                3.92706370               77.98477292                0.62180919              180.57746186             -133.67953042              130.66159352              -27.93293235              198.35746204              -10.80128024
              21.26822923                3.27843868               77.87057304                0.33499412              176.52346179             -127.24738568              116.90591724              -26.18735617              135.12194198              -24.73440729
              24.03186387                2.86505749               77.08776849                0.00010000              182.33627353             -122.25711252               94.79858265              -16.56794122              119.66366770              -33.24904596
              26.91495470                2.79763375               75.98948221                0.00010000              200.57703383             -122.29413018               68.57514377                2.33255951              130.24874349              -37.66706290
              30.04340454                3.10756595               74.84190000                0.00010000              195.31235100             -120.36652782               41.67047796               24.06406929              151.32954449              -34.96902329
              32.82120172                3.26409850               73.64405487                1.00000000               89.04847732               -5.33589841               15.75763011               39.47114867               84.01120404                4.34543393
              33.82437409                2.61784592               70.76618847                1.00000000                0.31723677                5.92711112              -17.81227471                0.60570282                0.00795832               -4.64311160
              10.96211390                6.06359014               73.74548774                1.00000000               -0.25498387               -0.34279821                1.30588522               -0.08141031                0.20475601                0.59394446
              11.95956406                5.91472088               73.42384832                1.00000000               -0.36876398                0.14397028               -0.60195276               -0.02980114                1.74789682               -0.47267238
              12.95473862                5.76476718               73.13221855                0.00010000              103.77736382              -57.37097843              182.44041012               17.23330053              325.17198840              149.56396506
              16.03511134                4.27161404               77.23041084                0.00010000              194.14755181             -120.66752270              127.69492912              -36.02749360              358.57110522               31.05628690
              18.83768966                3.59846366               77.94805961                0.00010000              170.00639362             -124.34038494              126.66261938              -18.99102131              178.33588356              -13.90595266
              21.43523921                3.05074680               77.66306243                0.00010000              157.89226358             -114.53143685              107.03060127              -28.67303883              128.35337767              -37.31515068
              23.99553493                2.69060740               76.71676281                0.00010000              161.41660356             -107.36292259               83.69489879              -35.42550119              107.60298112              -53.96020646
              26.66357128                2.58519850               75.47477573                0.00010000              183.52048152             -107.79219677               56.76916390              -46.06420204              113.21900739              -68.06430827
              29.66594456                2.74637866               74.16610210                0.00010000              237.03297802             -110.76822160               28.76020489              -20.95841388              163.69853343              -83.09062366
              33.40423085                4.21648870               73.46114633                1.00000000              137.71795201              -72.24856450               11.77571559              -99.30806005              112.55162828              -99.04419317
              34.42030360                3.68321202               70.54975071                1.00000000                1.60727572               34.10811505              -21.91903196             -156.52080847                2.28011029              -77.84037917
              11.10803510                7.05960093               73.63835084                1.00000000               -0.00842012               -0.35632794                1.05915128               -0.12572105                0.54976950                0.21985302
              12.10795089                6.91655593               73.31335413                0.41685645               84.55256913                0.06974782               -0.53043935              -57.89333471              193.44280612                0.09378307
              14.79908648                5.61535127               76.84675348                0.00010000              149.72413707             -133.22050589              160.28670187                1.93425826              339.52114666              204.63754798
              17.10243364                4.14088843               77.91405835                0.00010000              127.16774832             -105.82514335              154.32276832               -3.62873883              222.06695580               39.21931746
              19.34244144                3.44025600               78.16994175                0.00010000              125.00955410             -103.73531151              120.70266863                1.57131305              157.73502630              -11.25223627
              21.60262472                2.98780994               77.50061886                0.00010000              122.32303481              -93.04764556               97.20511518              -16.00635159              106.91774779              -42.50394568
              23.78890214                2.71779904               76.29421909                0.00010000              116.76373435              -81.78449586               70.87439621              -37.47563255               84.50679108              -64.28360464
              25.93789940                2.64178981               74.79279812                0.00010000              110.20219661              -72.27099356               42.77221239              -62.47196711               80.18336646              -85.38941477
              27.99294607                2.89220152               73.18363265                0.00010000               98.01538743              -59.84396120               12.53953711              -86.44759879               70.66920526             -112.10733658
              29.89820715                3.81912721               71.21084438                0.00010000               88.37825972              -92.48357485              -25.53535091             -136.71647971               47.29682426             -173.45431837
              31.76051127                5.30000822               68.86853096                0.47816345               86.23041139               -8.84888016              -63.98398905              -80.16066010               34.21252387             -135.97156352
              11.24568949                8.05646358               73.52724151                0.93606730                0.02575374              -14.00874803              372.52272861              261.55817281              282.30847709              550.26018056
              12.24594703                7.91611583               73.21572902                0.27461785              126.17008961             -124.43608993              298.50688270              103.37179709              504.14808654              329.99693098
              15.76909129                5.10035706               78.64923582                0.00010000              194.58424032             -127.08138615              160.20887921              -25.11727042              457.65669896              114.40256996
              18.13763184                4.15511117               79.00051687                0.00010000              112.65515603              -92.79422810              148.09838024               31.91653145              178.79633986               42.01964397
              20.02219441                3.52375743               78.52403339                0.00010000               84.99686523              -78.82626493              117.13338821               21.01976210              120.12253021              -11.12265941
              21.83756914                3.18979389               77.41093680                0.00010000               78.49240020              -66.06759329               86.58622875                3.48062398               79.83352720              -43.80290185
              23.59204241                3.05491748               75.87985138                0.00010000               70.10801581              -51.70602630               57.15263654              -15.52248934               56.81994929              -67.05524162
              25.23972946                3.13977863               74.08391591                0.00010000               58.38063879              -35.79322060               26.77216949              -29.16625181               43.54686251              -88.03521051
              26.75965519                3.54949943               72.10206371                0.00010000               51.11825472              -23.53303802               -8.09722205              -30.62739117               33.43378735             -113.00730106
              28.26209455                4.36681720               69.91565000                0.00010000               54.78366008              -34.33734993              -55.58672547              -22.06566574               19.97064851             -123.18663274
              29.85532839                5.50623442               67.48080109                0.44490871               59.32338352              -74.26263858             -104.36498344              -18.81796612                5.53966220             -119.06121760
              16.61989404                8.77942597               83.27942070                0.93720397              -48.84006880             -112.45615778              367.10911309              141.96833696              112.11433946              567.83818588
              17.13149335                6.42783413               81.59979919                0.26190336              -28.10741580             -175.70855222              279.13997105              158.90591574              115.01345458              461.28984251
              18.05774573                5.07372355               80.56701588                0.00010000                9.29352680              -87.19034546              207.89275969               85.48019538              151.89317712              125.98840238
              19.31736389                4.28500387               80.08644124                0.00010000               33.52041217              -71.33785806              150.30022898               51.90457227              135.76606870               35.66488627
              20.72815397                3.86373070               78.93021089                0.00010000               41.18566284              -55.09163587              111.11865538               36.01079266               82.17206718              -13.38974799
              22.14107715                3.66645808               77.37318277                0.00010000               40.01568207              -41.44514463               76.58097137               21.83573436               51.53162908              -43.58706990
              23.52846761                3.68367851               75.51111759                0.00010000               35.94576358              -27.13526860               43.70689919               12.76488610               30.96389188              -64.99123040
              24.85999242                3.92592540               73.43723513                0.00010000               31.24460354              -13.57941539               10.22819883               11.78967488               18.45533669              -82.35091385
              26.15335968                4.42154076               71.21532265                0.00010000               32.00832154               -7.33067218              -27.62718545               18.97475552               10.48664314              -97.50847435
              27.50015885                5.13238022               68.87570301                0.00010000               47.59789109              -17.73544702              -73.26368692               19.38737715                2.75364974             -109.15344557
              29.10531750                5.81475545               66.42975958                0.44362906               60.51586542              -54.10657379             -122.76851139               16.12332955                3.78513010             -109.42351419
              18.78823992                7.80734042               86.91979272                0.95501996              -65.84721509             -178.11593768              332.63436709               15.60820110               33.18746146              190.66003733
              19.12976777                6.40194479               84.53894790                0.27770945              -58.33572330              -97.71672156              266.95822725               24.17541962               47.87873354              155.72131446
              19.62152545                5.35655015               82.73880734                0.00010000              -37.20258187              -64.58570480              203.00613313               37.22287766               71.07348534               99.80619505
              20.38571613                4.72835401               81.07249891                0.00010000              -13.02847023              -47.64668204              148.97645643               40.17991070               65.11965876               25.60779935
              21.36095605                4.42192472               79.32991094                0.00010000                3.43099428              -36.00135302              104.72609616               35.76364983               45.60016238              -15.96772425
              22.45433602                4.36089100               77.36236256                0.00010000               11.34583796              -23.57211221               66.67957558               32.40324515               24.47845576              -42.11492687
              23.58787281                4.51221211               75.20267811                0.00010000               14.16623445              -11.21211773               31.04074505               32.75036575                9.53747570              -59.61104431
              24.73766071                4.86819033               72.89884234                0.00010000               17.24113376               -1.11576922               -4.99256262               37.84552276                0.59801463              -72.48518665
              25.93269548                5.40288599               70.49705200                0.00010000               25.94833513                2.15428629              -44.67852937               43.41085487               -3.17263525              -82.60248416
              27.25662741                6.01210826               68.03475652                0.00010000               44.01745145               -6.04965513              -89.14988212               35.47541386               -3.82125719              -90.40084240
              28.81304451                6.42410294               65.54723764                0.44376011               55.64171038              -24.50010168             -138.36710448               21.63412761               -1.02044666              -94.34036422
              19.74284933                7.21710722               88.89768736                0.96336968              -67.70573138             -140.28252463              298.08820685               -7.90492888               13.22110912               70.36375358
              20.06579202                6.47349970               86.37709046                0.29381381              -63.35276397              -86.86825616              243.17070848               -6.36673376               14.70623002               69.46170646
              20.47579405                5.78200945               84.07367528                0.00010000              -50.51022403              -54.27812477              188.98135110                4.07457698               23.10939927               41.22183768
              21.05558754                5.33207023               81.88395444                0.00010000              -33.24520359              -36.17515055              139.79456521               17.16399145               21.31728918                8.72976978
              21.81088998                5.14370364               79.67195024                0.00010000              -17.83664417              -23.85097493               96.05205436               26.21992848               11.97796798              -19.53117269
              22.69885466                5.19501583               77.37057744                0.00010000               -6.73571914              -12.66051782               56.44525949               33.11140775                0.74332721              -38.69738407
              23.67617560                5.45943616               74.96354981                0.00010000                1.36871706               -1.83738783               18.92506863               40.38625706               -8.24172506              -51.47423590
              24.72622900                5.90361002               72.47513178                0.00010000               10.07416230                6.76743697              -18.91356578               47.29881625              -12.68354773              -60.33003086
              25.87765885                6.46462649               69.93883283                0.00010000               23.11105871               10.25958148              -59.87561294               48.72049803              -12.43307713              -66.47725265
              27.18845017                7.01138711               67.38783049                0.00010000               41.81759208                7.46181799             -104.66322415               35.05041952               -8.41199580              -70.59884165
              28.71401069                7.32475342               64.86093217                0.44470113               52.55605160                4.28563282             -153.86368213               20.62313735               -2.60274720              -73.82177714
              20.11735638                7.00168993               90.02968763                0.96763475              -67.98255253             -107.40859500              271.89766985              -11.02276531                0.92235442                6.77856378
              20.43753086                6.66457966               87.48028403                0.31418324              -63.64549606              -74.84851033              221.85687362              -14.07288368               -3.54604743               16.48433635
              20.84444646                6.27098765               84.96105551                0.00010000              -53.51145429              -48.65884320              173.45369559              -10.71431732               -5.79623133                8.94440267
              21.36730177                6.00485100               82.46316086                0.00010000              -41.10187259              -30.88073469              127.74340896                1.66066590               -8.89282479               -6.23135231
              22.02240901                5.94490522               79.95539396                0.00010000              -28.32350597              -17.73524911               85.26341808               14.91587736              -13.82393496              -20.93015560
              22.80083165                6.10768064               77.40694874                0.00010000              -16.77026230               -6.35948092               45.45114195               26.83702172              -19.41857878              -32.22089513
              23.68700376                6.47546435               74.80912502                0.00010000               -6.11924766                4.04282676                7.12705644               36.97253969              -23.43001803              -39.92088781
              24.67844670                7.00353906               72.17832239                0.00010000                5.61622918               12.80932535              -31.46086530               43.21659274              -23.60326711              -44.92159910
              25.79932835                7.60807762               69.54890648                0.00010000               20.95310853               18.72061174              -72.92916039               41.23834726              -18.74083065              -47.20312535
              27.09750887                8.16134462               66.95826444                0.00010000               39.97231529               22.85371476             -119.05158192               27.42703648              -10.55613033              -46.27831065
              28.59877465                8.50981560               64.41486964                0.44639989               50.12657833               31.19353632             -169.06744449               15.19988988               -2.40597520              -45.37426849
              20.19661456                7.06893532               90.76949589                0.87292774              -68.15779359              -85.16634334              252.60579326               -8.44253586               -7.94902030              -15.44675332
              20.51503662                6.97652949               88.24602167                0.24231358              -63.76890939              -64.03325217              204.62126208              -11.15906652              -17.10446414               -3.06262821
              20.92123637                6.80883259               85.60645653                0.00010000              -55.00766634              -43.27683401              158.42954461              -11.47618355              -27.19114680               -4.01660252
              21.41488329                6.71445553               82.92649336                0.00010000              -45.74292395              -26.29051604              114.52721554               -3.92332952              -31.75167675               -9.29784726
              22.00637789                6.78899866               80.22820653                0.00010000              -35.49236708              -12.48516311               73.04838411                6.07356092              -34.70232413              -15.16842448
              22.70503595                7.06782622               77.50972221                0.00010000              -24.33049599               -0.75282441               33.63396145               15.63868134              -37.06479574              -19.82282474
              23.51976797                7.54029269               74.77105505                0.00010000              -12.35441827                9.55216210               -4.59350988               23.47716738              -37.64008391              -23.01523433
              24.45794759                8.15979653               72.03333486                0.00010000                1.24261327               18.51835498              -42.55293695               27.42024646              -33.74665228              -24.79481591
              25.54462024                8.83903872               69.34799487                0.00010000               18.86526651               26.81284752              -84.31752224               24.88773105              -23.11706187              -24.91961925
              26.83525292                9.46846141               66.73450284                0.00010000               38.82231430               35.88597203             -138.17414737               15.39631887               -9.52176942              -21.54058375
              28.32106652                9.94862414               64.19566045                0.44889856               48.58136042               50.55414037             -193.53775550                8.48215262               -5.89948412              -18.46659556
              20.13331732                7.29836306               91.50538394                0.92052280              -65.88650644              -77.05722545              237.99420546                2.22543236              -23.24626409              -17.46636070
              20.47445226                7.38391462               88.96914410                0.60406845              -62.81602868              -59.26148682              190.38754684                1.29595922              -34.59965744               -5.09825849
              20.87699675                7.40545097               86.21995035                0.37396106              -58.28915721              -40.33816137              144.25610726                0.33234097              -48.49963768               -4.27511814
              21.30866911                7.47904068               83.41386966                0.36427680              -54.32436010              -23.54148506              100.54528116                3.86613094              -52.74625214               -5.89347204
              21.79050955                7.69520195               80.58832659                0.36096008              -47.31789344               -9.37967022               59.46400254                9.09233922              -54.53270374               -8.03009991
              22.36231124                8.09262415               77.75068533                0.36321871              -36.29663717                2.47979384               20.72132667               14.29281127              -55.16096810               -9.73837304
              23.06457680                8.66650760               74.90629893                0.37134454              -21.71028226               12.62149034              -16.47612952               18.54498379              -53.48928465              -10.71985354
              23.92810560                9.37390616               72.08152760                0.38545984               -3.80793583               21.41096393              -52.96866397               20.90714985              -46.37734412              -11.14644712
              24.98841809               10.14433457               69.33757710                0.40623885               18.38721148               30.52958459              -93.57937681               19.63767986              -31.19794329              -10.01579835
              26.29584983               10.87906406               66.70014363                0.43139089               40.98370766               41.06026519             -148.68582716               14.88788315              -13.63468023              -10.82489986
              27.80809224               11.52089841               64.16036277                0.72518649               51.22424104               57.22742663             -205.06355550               12.88600659               -7.46966433               -9.42041860
              10.97861091                4.18122809               74.96866224                1.00000000               -0.33009051               -0.32611638                1.41015831               -0.30929267                0.07056132                0.40513552
              11.97531000                4.01877825               74.63878083                1.00000000               -0.22470654                0.14594063               -0.21709955                0.06408672                0.90283824               -0.25099214
              12.97411678                3.86260541               74.32525770                1.00000000              119.18283470                0.13195213              238.80477407               93.55256111              418.30130289              152.29722633
              16.35896670                5.57772032               79.58809346                0.63531307              229.20241880             -204.66987732              187.48925259               66.94456442              451.97576886               33.77040982
              19.55816515                4.58297321               80.67120469                0.46510200              222.64162529             -159.06754508              161.56342818              -31.30193252              224.90640548                7.73141825
              22.81179920                3.82141694               80.38966401                0.16229544              229.48430701             -151.88066755              136.54063094              -16.86430358              161.26336955               -3.78207048
              26.14785129                3.31366396               79.38006715                0.00010000              233.14460707             -141.11836756              109.23612298               -7.70161305              140.97024897              -10.14143043
              29.47469135                3.22880531               78.05745993                0.00010000              217.54469333             -134.75579968               79.28371521                9.61392176              145.03681453              -14.01004772
              32.49874516                3.41136324               76.61432823                0.00010000              181.97793023             -113.23260647               48.65857449                7.44636446              151.27469350               -7.40699215
              35.11424995                2.57051249               75.02531521                1.00000000               80.27950311               -5.93626768               19.89360903               -7.51706544               77.23378005                4.53850777
              36.10433522                1.75474496               71.84610976                1.00000000               -0.99147266                5.28695894              -13.52841968               -4.95756756               -2.32456567               -4.74847048
              11.13796783                5.17796693               74.86206308                1.00000000               -0.27056124               -0.26527411                1.26438111                0.05245215                0.32850148                0.59931337
              12.13526221                5.02023765               74.52983817                1.00000000               -0.38982352                0.10555675               -0.47320631                0.29104043                1.80317488               -0.38235881
              13.13017135                4.86392493               74.22504430                1.00000000              126.64831145              -41.38666692              219.21046055               94.25983165              399.96806773              200.41345831
              16.66822844                4.53102154               79.35361159                0.74933181              249.65630810             -179.63898672              176.29824559               18.18010073              470.60893775               19.53473038
              20.12329752                3.99229776               80.34309939                0.63943296              230.47911745             -158.73110653              149.46650830               -7.46503347              239.23707652               -6.05313489
              23.27781079                3.30261027               80.06437211                0.33497226              212.19217326             -145.01831512              123.84021754              -16.65494452              169.65830061              -21.64087781
              26.36714098                2.90248029               79.02917015                0.00010000              212.20850679             -135.10733096               96.29462922               -9.35217400              141.45230846              -30.01718750
              29.52198093                2.88124731               77.66078072                0.00010000              226.76071172             -133.19487194               67.44050632                8.79529805              144.79080406              -36.35411685
              32.90235522                3.27903717               76.24508639                0.00010000              217.27037543             -130.79806749               39.77959319               31.70382935              162.27185231              -37.21235904
              35.86738844                3.51114981               74.80203437                1.00000000               98.40859298               -5.34116082               15.76373563               46.08616834               88.56933812                4.52583528
              36.87052708                2.80761455               71.58779638                1.00000000                0.31386407                5.92154485              -17.79092738                0.62744834                0.00645093               -4.80282240
              11.29511850                6.17592261               74.75750073                1.00000000                0.00543130               -0.20647398                0.95077530                0.11678621               -0.01076241                0.57440051
              12.29517281                6.02088938               74.41685887                1.00000000              102.67055120                0.07918012               -0.45982479              -41.35352345              185.40917128               -0.38314306
              15.34852952                5.03487207               77.78287160                0.00010000              164.95115367             -111.94844883              285.58308486               50.10041253              427.37030900              208.69229369
              17.59419588                3.98494058               79.49305100                0.00010000              164.43731205             -142.05429987              173.31840913               27.86187558              324.86826557               45.95353264
              20.63727576                3.40835108               80.31313174                0.00010000              198.71609500             -145.77075057              141.72509448               10.96264037              235.48430721               -4.41749609
              23.56851778                2.92105064               79.74111501                0.00010000              187.24475047             -127.92321671              113.15903179              -10.66649889              159.51212941              -32.50557926
              26.38217077                2.61151734               78.54630379                0.00010000              185.27613195             -117.39847204               84.68709964              -24.81165151              132.14844113              -50.46261998
              29.27404042                2.56490787               77.02569048                0.00010000              206.03742386             -117.04311976               55.45058523              -40.34481508              130.55623528              -67.00407128
              32.50291925                2.79540189               75.43696812                0.00010000              261.66777594             -120.95400544               26.69788247              -14.00466652              182.33002984              -87.04172498
              36.50739594                4.46368927               74.57848413                1.00000000              151.05177325              -80.47806823               11.62935410             -103.56430994              121.89593392             -114.79944245
              37.52395471                3.87317586               71.32948112                1.00000000                1.65587722               35.08488493              -22.05475344             -168.83939940                2.41480723              -96.34324628
              11.45037000                7.17383745               74.65012302                1.00000000               -0.11277175               56.88028260                0.83133228              279.96921598                0.41687606              372.13372921
              12.44924228                7.02182126               74.30838059                0.41597514              135.88792025              -94.70792767               -0.14872390              102.28672329              270.97375964              298.90929452
              16.16812841                4.62495595               79.37749218                0.00010000              220.13723308             -133.05817316              204.09281162              -30.74336968              481.17411361               78.61793427
              18.85198694                3.68993555               80.61159690                0.00010000              161.91559309             -125.23049905              173.18078558               57.34617940              272.57224353               61.65646546
              21.40644027                3.07688275               80.43764439                0.00010000              150.46638013             -116.57013245              136.23814870               35.61755446              188.99945370               -3.91141006
              23.86131455                2.74414593               79.49462878                0.00010000              141.03052284             -102.32399955              103.42210497                6.73473959              138.86274964              -36.28213291
              26.22705072                2.55451085               78.00293423                0.00010000              133.49427680              -88.80439347               72.87840923              -25.16157221              109.84606172              -61.57806854
              28.53120008                2.54038491               76.20853881                0.00010000              124.82148802              -78.74565470               42.03917742              -57.17520012              100.61162137              -86.12497900
              30.72348048                2.85995706               74.28682296                0.00010000              109.35640927              -66.45030617               10.71676440              -85.56336047               85.12644673             -118.63685037
              32.71832827                3.90158844               71.96791002                0.00010000               97.56427163             -105.77905476              -23.25777181             -143.94039372               52.52997755             -196.69160603
              34.67476592                5.50931225               69.24051694                0.44397326               95.64376487              -15.32899849              -62.10099028              -83.98418819               39.58536397             -169.78248619
              17.19853520                9.31352826               81.97462669                0.94922129             -130.87464272              -88.97033616              700.25149319              101.95866794              305.37707957              662.20885198
              16.88978877                6.12673083               80.18502979                0.28213139              -56.64936801             -180.78753916              562.54905541              134.27762845              394.26570986              393.45602336
              18.06554784                4.37370861               81.19982457                0.00010000               69.97019535             -115.02897391              209.35974894               95.21954531              366.16114688              143.26439996
              20.28919268                3.48033060               81.61176252                0.00010000              111.49343140             -101.95829422              170.77997247               83.27581984              236.22696692               44.63615756
              22.29541647                3.07694843               80.74854527                0.00010000               96.81958988              -84.73507434              129.33950020               58.99258966              149.57873908               -1.49221307
              24.22558448                2.87457065               79.30686164                0.00010000               89.36419399              -71.22772833               93.51147672               26.78544675              108.06599861              -37.61918114
              26.08270035                2.83542948               77.46029598                0.00010000               79.97528646              -56.01114621               59.96858745               -1.81652985               81.83690805              -64.94006532
              27.82509020                2.98999477               75.34384596                0.00010000               67.38740820              -39.55225939               26.49231190              -22.03864508               63.95398829              -90.68763340
              29.43044851                3.46639576               72.99502529                0.00010000               57.70713400              -28.08638641               -9.99883412              -28.10761143               46.24951168             -119.90170606
              30.97923288                4.34810817               70.39706221                0.00010000               59.91874189              -42.45013715              -50.53731618              -21.19242639               22.91308660             -138.22371692
              32.62882335                5.56659589               67.49974880                0.44095944               64.95904628              -87.41586635              -96.91533088              -20.52090357               12.06751914             -143.39783712
              19.86313822                7.39443072               88.01204007                0.95243255              -78.85237147             -226.48053342              416.92222272               32.50310380              110.66546841              363.44696409
              20.07461451                5.40607047               85.38973368                0.27574682              -57.21093406             -129.39633556              316.37611562              101.48217340              136.40307470              322.86361511
              20.71891954                4.32437647               83.91059500                0.00010000              -13.01754940              -86.97756091              247.72831212              126.64726964              172.00907594              162.21499150
              21.81426352                3.65076966               82.66270611                0.00010000               23.65662371              -66.68289034              168.78120904               89.75184117              148.28449278               49.41260712
              23.19205201                3.38218126               81.09802845                0.00010000               41.21394592              -55.88602977              122.39933793               66.20216311              106.66908905               -3.23011989
              24.63854244                3.31959137               79.16666730                0.00010000               44.16219943              -43.24945625               82.64970534               43.05713265               75.24522757              -36.97045281
              26.07529600                3.43428792               76.95791707                0.00010000               41.04592283              -29.12060292               46.12118038               26.61832155               53.63878112              -62.82693473
              27.45946089                3.74933973               74.53158568                0.00010000               36.39594266              -15.52431721                9.59555566               20.20929144               37.50151672              -85.14243637
              28.80321486                4.29822934               71.92163926                0.00010000               36.74093629              -10.19696784              -29.73581345               23.31832547               23.29203951             -103.96872068
              30.19427962                5.05258570               69.13300107                0.00010000               51.20787840              -22.72129859              -74.23239030               21.79292954                9.95174620             -116.78486165
              31.82737242                5.76099492               66.18962824                0.44148893               63.30928048              -63.10015501             -124.47805112               16.88930899                5.06756209             -120.13876973
              21.82531778                6.78391759               91.40042439                0.97158326              -83.58312868             -152.99123307              353.76482499               15.11424033               28.77293820              152.16971704
              21.98948649                5.53880412               88.33624985                0.29513283              -73.57618667              -85.12982275              287.50684452               33.06913526               43.29785171              148.72216469
              22.35379404                4.63415739               85.84533603                0.00010000              -48.15308863              -59.78816953              219.87521302               55.28130888               72.85217494               96.09320441
              23.02642472                4.14667280               83.63708879                0.00010000              -20.15780086              -43.09549150              162.74543156               62.34619499               75.78337798               36.79850353
              23.95063802                3.95922783               81.41816834                0.00010000                0.40978748              -33.74698213              113.06714766               56.27127904               61.82288070               -6.37971478
              25.03462047                4.00958152               79.05002448                0.00010000               11.73401957              -23.18352712               70.97344283               49.13990225               43.97177827              -35.55763856
              26.18531842                4.25301742               76.51579927                0.00010000               16.53570780              -11.45637179               31.85614853               45.20947810               29.07815719              -57.17384143
              27.36533462                4.67950843               73.83415831                0.00010000               20.41253141               -1.62899537               -7.20734011               46.47798871               17.59620666              -74.39652847
              28.59356904                5.26245641               71.02579052                0.00010000               29.34956350                1.30653872              -48.75356376               48.53066650                8.56089672              -88.09202982
              29.95232589                5.89368220               68.10878565                0.00010000               47.81110239               -7.70593404              -94.83979287               37.69339410                2.22305168              -97.65369625
              31.54979109                6.30459279               65.11527618                0.44248610               59.74652007              -27.56082488             -146.61360727               23.30189721                1.89471684             -103.02944498
              22.65564997                6.33460606               92.98129476                0.98038779              -76.98925593             -131.06738902              315.84667251               -7.88630266               11.47838852               41.30000924
              22.88575741                5.70347402               89.88796940                0.31398180              -71.94864670              -80.08818277              257.18853303               -0.34394658               13.84584467               54.30113458
              23.21667704                5.12861308               87.03022716                0.00010000              -57.48202218              -49.15585954              200.57666680               14.06965164               25.99598569               40.70648792
              23.73611697                4.78885983               84.32577900                0.00010000              -38.10540874              -32.85123165              148.09451248               29.57313360               29.75456855               14.10411227
              24.45456887                4.70724162               81.65880383                0.00010000              -20.42830363              -21.46521110              101.06903288               39.46873646               25.32628957              -12.15658271
              25.32755090                4.85592082               78.94378323                0.00010000               -7.25051035              -11.17850079               58.16758428               45.30813750               17.02111332              -32.98435466
              26.30955866                5.20516049               76.14525893                0.00010000                2.60153892               -0.83537487               17.51958472               50.44583939                8.74340456              -48.86097259
              27.37958168                5.71675982               73.26159111                0.00010000               12.50478770                7.57942905              -23.31430690               54.85169603                2.47335133              -61.04798337
              28.55965441                6.32436011               70.30499973                0.00010000               26.32147224               11.14289317              -66.51107632               54.18333050               -1.39940644              -70.17305302
              29.90601112                6.89846702               67.29354811                0.00010000               45.59673950                9.09072794             -113.81360250               38.27915894               -2.36894214              -76.36751077
              31.47158920                7.20977842               64.25540074                0.44296476               56.55780803                6.41613327             -166.49057372               22.38964412               -0.02284614              -80.99534916
              22.92985581                6.16256981               93.84069234                0.98422123              -74.12552747             -105.57688840              287.09686862              -11.07825783                1.27160460               -5.73331084
              23.18860054                5.93704046               90.76328606                0.33675971              -69.00272749              -72.35669077              232.53275686              -11.19167971               -1.92470477                9.55399345
              23.54980126                5.65104020               87.73611954                0.00010000              -57.46708407              -46.27093090              180.52362582               -5.19573022               -0.89662474                8.16014273
              24.03925885                5.48964816               84.76422471                0.00010000              -43.84247490              -28.61067054              131.90288700                9.19334783                0.02197095               -2.53467099
              24.67295176                5.52992361               81.81616029                0.00010000              -29.81972543              -15.69334110               86.66444474               23.39461712               -1.34096885              -15.80254256
              25.44286435                5.78601151               78.85558074                0.00010000              -16.97777772               -4.43995020               44.16809620               35.21433187               -4.44812171              -27.83152467
              26.33339621                6.23630992               75.86027699                0.00010000               -4.98477129                5.96444166                3.06485361               44.24089452               -7.55745612              -37.45030357
              27.34316892                6.83109701               72.82697753                0.00010000                8.10661225               14.84823014              -38.56257834               49.14002547               -9.03679624              -44.67862612
              28.49552845                7.48531427               69.76573603                0.00010000               24.46609192               21.14701586              -82.99976836               46.48159732               -8.23516338              -49.60347081
              29.83249076                8.07549676               66.68992678                0.00010000               43.97163598               25.66416446             -132.27167966               30.67216332               -5.18284379              -52.40151843
              31.37496117                8.43291545               63.61940192                0.44392738               54.24704145               34.90287412             -186.31179265               17.54573191               -1.04246237              -54.89902919
              22.88514351                6.22306829               94.35439539                0.88440545              -71.16900798              -86.02141498              262.80316558               -9.42576634               -6.59773354              -20.54780660
              23.17345343                6.25634020               91.32401069                0.26181564              -66.24943891              -63.31161340              209.83116296               -9.74817740              -13.82097863               -5.79674798
              23.56015474                6.20319447               88.20425395                0.00010000              -56.61764610              -41.72750785              160.35413799               -8.63068816              -20.61707441               -3.94351281
              24.04110051                6.21664642               85.07072681                0.00010000              -46.70284375              -24.26818853              113.92834078                0.03831089              -21.83599603               -7.19716922
              24.62609786                6.39337480               81.94561558                0.00010000              -35.78246420              -10.15566954               70.24326350               10.66923155              -21.69675770              -12.23228873
              25.32545123                6.76712182               78.82159842                0.00010000              -23.84034077                1.83369501               28.66214662               20.29310667              -21.63042101              -17.21627230
              26.14929105                7.32444932               75.68997455                0.00010000              -10.60366966               12.39629105              -11.85241612               27.57840691              -20.95298571              -21.33765639
              27.11337784                8.01372442               72.55343826                0.00010000                4.77977811               21.77335787              -53.19518270               30.97988918              -18.24832324              -24.33805642
              28.24488661                8.74730043               69.42184976                0.00010000               22.92376861               30.35995360              -98.48105941               28.25482238              -13.18507973              -26.08627936
              29.57185321                9.41175031               66.30677927                0.00010000               43.13899270               39.47061052             -149.00363498               17.44222832               -7.21289804              -26.92472587
              31.10766646                9.90783590               63.21868858                0.44542723               53.58132543               54.86268559             -204.75269991               10.31005786               -1.44493117              -27.62926238
              22.67479667                6.44214151               94.90276263                0.92474481              -66.12858501              -78.09267825              239.83634328                1.83198345              -22.23766567              -19.29102102
              23.01351082                6.67080820               91.86354912                0.60921888              -62.89576940              -58.55320080              187.28323835                2.72316454              -31.46954978               -5.86233355
              23.41688128                6.81649004               88.63795689                0.37304005              -58.18330370              -38.67044254              138.63340505                2.34646397              -41.74696461               -3.99223975
              23.84984474                7.00428439               85.38474385                0.36398672              -54.05101415              -21.23620302               93.26688615                6.39043196              -42.09141712               -4.70700828
              24.33586100                7.32681022               82.14051187                0.36085617              -46.60963942               -6.65645738               50.82798888               11.89636421              -40.08998625               -6.51057028
              24.91765195                7.82268541               78.90809875                0.36310705              -34.87496258                5.55635887               10.71674321               17.09134841              -37.49491477               -8.42262895
              25.63836174                8.48423574               75.68448275                0.37064287              -18.88681783               15.97864200              -28.12280148               21.10100772              -33.84302899              -10.01164198
              26.53991560                9.26656417               72.47614512                0.38360367                1.21186347               25.28397459              -67.77025298               23.06765621              -27.71790919              -10.99419501
              27.66259901               10.09251334               69.29522419                0.40288414               24.04421251               34.52129154             -111.86030696               21.68848065              -18.94883736              -11.49937681
              29.02079985               10.86490897               66.15190523                0.42733428               46.31960643               45.31586619             -162.12721018               16.77745494               -9.79209306              -11.55837501
              30.58899114               11.53016916               63.05312824                0.72315003               56.81912943               62.23332584             -218.35764416               14.65848699               -2.51134659              -11.28409646
              11.31976205                4.29207200               75.98130980                1.00000000               -0.05236384               -0.24673261                0.89245731               -0.18061213                0.02476688                0.23111536
              12.31923842                4.12708331               75.63473431                1.00000000              137.86790325                0.08679991               -0.14711015              152.14685270              240.93332593               -0.02534478
              16.07712012                7.00787342               80.10332719                1.00000000              200.46026392             -269.44473066              438.14852677               83.29334927              597.10193268              179.09464255
              18.32844369                5.97338739               82.59027211                0.64383530              186.99927717             -193.34114482              239.77983831              -34.01301280              431.88218462               28.64069838
              21.81710566                5.08289324               83.41347290                0.46668097              254.24706812             -191.88192854              189.25781158              -14.31052694              296.76201577                8.44698405
              25.41338506                4.17063690               82.80552023                0.15051941              259.02961092             -167.64667794              152.91213464              -16.21496712              209.10267165               -2.34667128
              28.99769788                3.63471505               81.49728061                0.00010000              255.62593602             -153.62379422              118.63351624               -4.63956287              170.85034051               -8.40023183
              32.52590378                3.54423857               79.85527488                0.00010000              235.55343223             -144.19177058               83.45864914               12.36197639              159.92581878              -13.65147023
              35.70876653                3.74405304               78.09594749                0.00010000              195.60390617             -120.33741613               49.40655171                9.69713870              158.70262859               -8.79153685
              38.43798190                2.86053850               76.22462041                1.00000000               85.94187102               -5.90922180               19.88161899               -6.69663413               79.74478264                4.68073776
              39.42760395                1.98632717               72.71206230                1.00000000               -1.03779543                5.20909493              -13.21310084               -4.88361926               -2.36063845               -4.86862738
              11.48294462                5.28960467               75.87330697                1.00000000               -0.01383868               -0.25268972                0.76172651                0.00567994               -0.00140668                0.29199504
              12.48280623                5.12795131               75.52426332                1.00000000              125.19784754                0.07161390               -0.27692539               17.34798202              221.87943659               -0.18764103
              15.98690157                5.31342611               79.61042253                1.00000000              223.39987106             -211.08541228              399.48552912               13.04285901              574.64811263              107.41188692
              18.95080366                5.03997594               82.20951262                0.77664143              229.42370329             -202.03440050              226.00346575               26.22103312              465.39923875               52.51037857
              22.57537564                4.16407395               82.97410308                0.65641073              251.22604127             -183.36622499              177.22703206               -3.17998423              309.77000054               -1.93044510
              25.97532448                3.49417012               82.34737739                0.33640997              234.45628913             -160.01291784              138.63061090               -4.33360777              215.79550026              -14.76702302
              29.26450142                3.09847710               81.01366108                0.00010000              230.97650312             -146.35620633              104.36730897               -1.78094316              173.32347684              -24.76929146
              32.59485454                3.10232086               79.33829234                0.00010000              244.15432629             -142.34397889               70.92375328               15.01648291              165.02992244              -33.38276823
              36.14758795                3.54067888               77.63749186                0.00010000              232.75119768             -139.01227298               40.30655542               37.50552009              176.13823980              -38.53000803
              39.24987850                3.80144628               75.95932958                1.00000000              105.26955704               -5.29571543               15.61853469               50.46969282               93.55011477                4.71974545
              40.25297909                3.03841811               72.41036993                1.00000000                0.31005899                5.86496840              -17.61579478                0.64727481                0.00630710               -4.97168437
              11.64318238                6.28701821               75.76450325                1.00000000               -0.08057593               -0.22275623                0.70310147               -0.00461960                0.40710590                0.27565546
              12.64237662                6.12851559               75.41465183                1.00000000              139.13851438               -0.06902084                0.00303772              -59.18011703              289.32812487               -0.05605104
              16.42595267                4.78616517               80.84388025                0.00010000              267.99199473             -177.13345650              260.50612128               -3.16826671              570.74710793              126.72016379
              20.00221651                3.93269938               82.69677902                0.00010000              243.66795659             -189.23348609              221.58281906               58.61631005              399.92130924               65.92824851
              23.29931180                3.41556874               82.78256150                0.00010000              219.50466175             -161.87298431              164.67734531               35.08510815              281.98528625                9.69750909
              26.39230975                2.97037855               81.92624306                0.00010000              202.73082410             -139.88747341              126.90215036                6.56437861              206.90266808              -21.18119777
              29.35392828                2.70759092               80.41050480                0.00010000              199.58609551             -126.31158157               92.13826792              -13.28038182              164.62770658              -42.19496717
              32.38403166                2.69735899               78.58378743                0.00010000              220.29116132             -125.05930541               59.02044269              -33.61973917              153.64863302              -62.47854686
              35.75975151                2.96380758               76.70005975                0.00010000              278.28024313             -128.96357657               27.89801548               -7.71094737              203.72843451              -88.02402254
              39.94963652                4.75462419               75.69373342                1.00000000              160.34271340              -86.73646295               11.35139547             -105.74734091              131.45815677             -129.32714956
              40.96660577                4.10362653               72.10865565                1.00000000                1.69692527               34.78363527              -22.02037114             -177.39848446                2.55719142             -114.05979164
              11.79985746                7.28514955               75.65497748                1.00000000                0.01994673              -17.41473226              695.93601351              448.60426041              585.02937042              714.63570530
              12.80005693                7.12657089               75.31037965                0.42793125              215.97474924             -171.23161864              484.26099917              237.46470798              838.92709443              392.65630043
              18.11935245                3.77075698               82.92860971                0.00010000              334.68346807             -167.68114674              234.66337261               68.41820763              722.46828653              136.44450388
              21.49372629                3.25530622               83.37767406                0.00010000              206.00230956             -146.79871342              201.78013728              123.35456274              326.90288732               61.59701276
              24.23939864                2.92661427               82.89470472                0.00010000              166.04317908             -129.10198135              155.48921452               73.02363516              243.67082664               16.94745519
              26.81458987                2.69642065               81.56906095                0.00010000              151.62573520             -110.25033983              115.69017511               27.02299278              179.39820369              -22.97249869
              29.27191334                2.57224547               79.75178728                0.00010000              142.58266136              -95.32287901               79.90917154              -12.87089684              142.55517269              -52.67337497
              31.66624310                2.60113475               77.63358167                0.00010000              133.20952280              -84.71899465               45.87738654              -50.53949311              125.92722319              -82.21627589
              33.93610380                2.96140735               75.39796793                0.00010000              116.44348145              -72.35792820               13.57383102              -83.13700295              103.53575844             -121.82082799
              35.99511273                4.06671702               72.74568895                0.00010000              103.54504574             -115.86861893              -20.04405094             -148.06601391               63.19902659             -218.05918362
              38.00700471                5.73409082               69.62651116                0.43446373              101.18919844              -20.72300755              -59.86348873              -87.02762949               43.59963981             -204.78813639
              20.93242490                7.93872356               89.53227137                0.96506726             -102.63615494             -133.12909937              579.78139499              290.41390283              145.36310956              720.57182578
              20.90606335                4.70388322               86.46671013                0.29741192              -63.34217030             -219.63422639              457.24878014              332.73808367              211.63034269              614.99631579
              21.66558149                3.43254224               84.83643080                0.00010000               20.36935674             -104.91225298              299.25519519              219.92221308              305.68760437              169.76323681
              23.31345048                2.99672511               84.41611632                0.00010000               82.65442884             -100.36882392              195.89798451              150.14404382              273.81102669               77.52739895
              25.31867007                2.83352911               83.11082339                0.00010000               98.68439577              -89.85545198              146.01958897               94.34112811              190.99540219               17.32799868
              27.28713840                2.76537175               81.28116633                0.00010000               93.65630889              -75.62672373              103.86055209               46.95537207              143.44795366              -23.40192599
              29.19179625                2.80113334               79.07922313                0.00010000               84.84707615              -60.03044731               66.02035342               10.10094276              111.99377989              -57.01052864
              30.98407992                3.00297910               76.61376215                0.00010000               71.98164659              -43.41852116               29.80118640              -15.22134284               88.44220941              -88.74310251
              32.63142918                3.51664902               73.90208703                0.00010000               61.57764256              -32.50031164               -6.94539065              -24.20229993               63.99643739             -125.86087282
              34.21563277                4.43725181               70.90490368                0.00010000               62.99382054              -49.08787431              -46.93258986              -19.56952842               33.35150112             -153.48159351
              35.89130559                5.68916638               67.54249448                0.43576160               67.56728162              -96.88190760              -94.24381692              -20.48805753               16.69047265             -169.56100858
              24.07781620                6.62256756               93.61786516                0.97036906             -111.68162791             -202.86217399              460.71103795               39.11302313               73.90250429              236.14398132
              23.96099993                4.73388637               89.92732150                0.29450741              -92.64306967              -91.28654267              366.70547111               84.73470836              113.42531678              233.61620782
              24.22495481                3.67251192               87.52158212                0.00010000              -43.26898170              -63.68800814              268.60951437              131.30959514              168.19183004              173.67557961
              25.09562029                3.24792974               85.46206542                0.00010000                6.63098763              -59.77369574              191.60469888              123.60471019              162.94489456               75.50839844
              26.35757456                3.12950523               83.37819765                0.00010000               34.52363963              -54.99870356              135.41371215               90.08821686              134.42069263               16.59644114
              27.78609308                3.18388618               81.02617688                0.00010000               43.93751430              -44.63747277               90.71544456               59.55667761              103.59077786              -23.80788820
              29.23632485                3.37163653               78.43354120                0.00010000               43.01037399              -30.98699586               50.34718768               37.11920125               79.74729475              -55.93878654
              30.64630056                3.73276433               75.62914625                0.00010000               39.07301163              -17.63623853               11.27625142               26.76391313               59.72504527              -84.55661760
              32.01778508                4.31140112               72.62060638                0.00010000               39.24521154              -12.94820486              -29.09096587               27.50260519               39.94136082             -109.74330431
              33.43120479                5.08495954               69.39105521                0.00010000               53.78146689              -26.93822583              -73.48642065               24.05107777               19.16806706             -129.11648865
              35.09341442                5.79645267               65.94019855                0.43702497               66.22096255              -69.57124192             -125.22442117               18.48192316                9.99644827             -138.55062488
              25.49204775                5.88148008               95.99508922                0.99059749              -94.12345949             -150.98640576              367.64805508                3.72980934               29.44794771              108.96812318
              25.55081316                4.87815236               92.28908479                0.31653394              -85.71588670              -80.07000928              302.63407623               30.50392877               46.03346746              132.72561607
              25.77773002                4.15878207               89.13631160                0.00010000              -61.11308879              -48.35781096              236.61023847               62.80240948               78.69578026               99.44337915
              26.32855138                3.80125120               86.32740754                0.00010000              -29.66260246              -38.04565953              175.16374750               75.06274571               88.45758089               53.39199753
              27.18447797                3.73355504               83.59125389                0.00010000               -4.62053649              -31.34625924              122.15709876               70.66040351               80.84115595                9.91242718
              28.23614065                3.87262229               80.78183141                0.00010000               10.04120771              -22.70568479               76.10827939               60.72835631               66.14539866              -23.83481833
              29.38530212                4.18139342               77.83980109                0.00010000               17.17264720              -11.69487698               33.67727762               53.72714953               50.95398616              -50.98422321
              30.57959359                4.65025432               74.75469554                0.00010000               22.19919762               -2.14665998               -7.93380735               52.29730780               36.88062037              -73.90337235
              31.82928607                5.25768492               71.52198073                0.00010000               31.60045906                0.49093990              -51.19872459               52.40808027               23.32286715              -92.96441279
              33.21160278                5.89848730               68.13796066                0.00010000               50.43358565               -9.10318839              -98.54765761               39.97610739               10.55408082             -106.99630152
              34.83795779                6.29774154               64.61496549                0.43817934               62.63550119              -29.78659836             -152.60365476               24.74712969                5.84776032             -115.55418273
              26.15906783                5.60283945               97.21462081                0.99939485              -86.52913179             -118.37785018              327.59739397               -6.75766216               10.97878095               32.90280560
              26.29377651                5.13248618               93.52086112                0.33708158              -80.05818301              -72.92670607              267.87423714                2.76563310               15.73711659               53.02103955
              26.55790417                4.70535570               90.08520861                0.00010000              -63.58371343              -44.93091757              209.93481165               20.11878380               32.26783721               47.43328647
              27.02210224                4.48701655               86.84584469                0.00010000              -42.92463134              -29.60207151              155.75781134               37.81867038               41.13986661               25.69988103
              27.69941154                4.50258004               83.69333090                0.00010000              -23.46402058              -19.57562111              106.01285229               48.12557832               41.05662286                0.24607270
              28.55282183                4.72977248               80.53392913                0.00010000               -8.30878649               -9.96936679               60.18358445               53.33854036               35.37437397              -23.20464542
              29.53323581                5.13773899               77.31394151                0.00010000                3.15666970                0.01746163               16.62996210               56.96071854               27.48004571              -43.21680652
              30.61595522                5.68983113               74.00884565                0.00010000               14.22389543                8.39325376              -26.75100359               59.80695343               19.28061959              -60.03222037
              31.81771372                6.32121991               70.60861131                0.00010000               28.73575487               12.07366250              -72.12443698               57.77271968               11.41815015              -73.69033957
              33.19067032                6.90289577               67.11155844                0.00010000               48.60673992               10.07979015             -121.55977679               40.40420611                4.65635456              -83.94415909
              34.78984852                7.20072070               63.53112069                0.43936867               59.91781969                7.54028149             -176.88636691               23.83336099                3.32025353              -91.08854723
              26.29760104                5.51392308               97.77162500                1.00000000              -79.39914765             -100.34652742              297.37258747              -11.11240995                2.45158396               -7.01215522
              26.50360956                5.41961824               94.13093917                0.36171181              -73.60128594              -68.60773571              240.02633306               -7.93886850                1.64363962               11.68558600
              26.82557532                5.26016372               90.57152802                0.00010000              -60.79545579              -43.86153580              186.06989405               -0.30669418                6.69161045               14.41609013
              27.28770045                5.20920977               87.10121860                0.00010000              -46.06708593              -26.85117735              135.41493249               14.82891992               11.58682388                6.28834311
              27.90423360                5.34204262               83.68868286                0.00010000              -30.99739675              -14.12893742               87.94766542               29.30923883               13.58780923               -6.64083094
              28.66775251                5.67323496               80.29031066                0.00010000              -16.98878771               -2.93948655               42.98343606               40.74733844               12.60322347              -20.24952308
              29.56445785                6.18174266               76.87042210                0.00010000               -3.77503882                7.57974087               -0.72078196               49.02585284                9.88168383              -32.67015885
              30.59225174                6.81811940               73.40707082                0.00010000               10.36089908               16.70183384              -44.89986063               53.12831054                6.57679488              -43.28479094
              31.77167583                7.49915817               69.88891111                0.00010000               27.39671873               23.33025328              -91.55162831               49.59138059                3.35356618              -51.83912130
              33.14018611                8.10008310               66.31283085                0.00010000               47.36496562               28.25463384             -142.42806242               32.64374101                0.90742093              -58.46591526
              34.71897514                8.44854717               62.68863379                0.44038217               57.87890311               38.07959341             -198.83764664               18.77144526                1.79987351              -63.83045590
              26.12542930                5.59590890               98.02555921                0.89695269              -73.66708043              -84.90574529              270.09589053              -10.08824419               -4.24239103              -18.64992633
              26.38875849                5.76033147               94.44264493                0.28381280              -68.16252707              -61.60135811              213.24889889               -8.07632365               -8.77322683               -3.34395910
              26.76217876                5.82812499               90.81353929                0.00010000              -57.59783753              -40.09817098              161.34788869               -5.75255256              -11.17774790                0.14754083
              27.23680174                5.94999301               87.20506017                0.00010000              -47.03038149              -22.61716612              113.04583619                3.42308225               -8.74387287               -1.92174137
              27.82157113                6.22000129               83.63307180                0.00010000              -35.43665915               -8.34223274               67.49591010               14.10555312               -5.64186465               -6.82682820
              28.52806856                6.67098275               80.08296514                0.00010000              -22.63513512                3.89679794               23.90078388               23.50110347               -3.59553081              -12.66451789
              29.36886842                7.28933380               76.53400673                0.00010000               -8.34813209               14.77578529              -18.92499240               30.40485293               -2.54168950              -18.31407824
              30.36110592                8.02386781               72.96943120                0.00010000                7.93546040               24.52445668              -62.72964792               33.46227099               -1.95098212              -23.23082535
              31.52757763                8.78782498               69.37837368                0.00010000               26.65251094               33.42200041             -109.45977223               30.30630206               -1.62609507              -27.19041975
              32.89415614                9.46798844               65.75443014                0.00010000               47.03858192               42.87807689             -160.92796270               18.82026964               -1.14510483              -30.33467052
              34.46834927                9.96231257               62.10060645                0.44152596               57.41931337               58.88949932             -218.37518452               11.25461953                1.06906216              -33.47385859
              25.76699102                5.81580817               98.30211081                0.93066521              -65.71240166              -78.01007268              239.32280069                1.33446314              -18.62759572              -17.25063260
              26.10986700                6.18759108               94.71480887                0.61540497              -62.30641445              -57.27403865              182.84631451                4.23045764              -24.91889350               -4.19411639
              26.52086273                6.45820030               90.99261845                0.37200412              -57.27906093              -36.99246827              132.56987556                4.33216583              -30.32019085               -1.70132047
              26.96428578                6.75686645               87.27920738                0.36381856              -52.77539068              -19.31265598               86.13614548                8.59828729              -26.59040974               -1.96219384
              27.46535492                7.17519796               83.60488637                0.36102709              -44.79218567               -4.48033305               42.65275712               14.09360268              -21.03625354               -3.76783928
              28.06844207                7.75117092               79.96502020                0.36302994              -32.28425314                8.01881631                1.26938903               19.14037114              -15.88696678               -6.17116012
              28.81966985                8.47725836               76.34384290                0.36968249              -15.27180450               18.79245567              -39.29064622               22.95202395              -11.53125604               -8.56713958
              29.76300598                9.30860853               72.72612254                0.38191354                5.70056890               28.47407276              -80.96575873               24.70699729               -7.71431507              -10.65008969
              30.93368123               10.16759818               69.10037096                0.39957311               28.95489666               37.97731992             -125.93574011               23.06216521               -4.48341196              -12.33308703
              32.34210391               10.95764464               65.45759942                0.42340227               51.08690261               48.96561910             -176.13038696               17.73172694               -1.85734284              -13.70982335
              33.95541928               11.62633716               61.79320989                0.72116575               61.33153701               66.40245913             -233.45418613               15.57625394                1.41888987              -15.35986271
              11.67225724                4.40185607               76.98651138                1.00000000               -0.02981087               -0.12426862              807.48180009                0.11270155              672.17650719              376.75737195
              12.67195913                4.23921333               76.63583863                1.00000000              214.41801901               -0.26460189              549.28148814              217.80019977              940.16788072              323.36922364
              17.96061762                8.43030758               85.08822824                1.00000000              350.72527761             -315.86979629              381.61480093              131.36866503              873.14408293               -3.44103396
              21.68646469                6.91205327               86.38369022                0.65215189              265.87698635             -243.73310623              305.53381896              -47.37595492              498.75061109               30.68441196
              25.27815735                5.63065252               86.45636092                0.46924529              261.17901200             -204.60522686              230.76301799              -20.79666214              368.07467847                7.10222475
              28.91004493                4.69076921               85.44790670                0.14195062              261.84730544             -180.42222333              182.46455168              -11.47591949              262.82796250                0.83125976
              32.51510346                4.11289838               83.75273748                0.00010000              258.22479541             -161.90281186              137.56178450               -2.29220050              200.46746429               -5.73443586
              36.07454084                3.98974098               81.72663291                0.00010000              239.41743731             -150.46615939               94.07520908               14.39804406              172.73183488              -12.43455153
              39.30345221                4.15244375               79.60245926                0.00010000              200.92449797             -124.81190014               53.67427091               10.31145213              163.51153277               -9.97149219
              42.09303079                3.19470890               77.42294759                1.00000000               88.93932302               -5.82771871               19.69423748               -7.33614227               80.71850038                4.82362441
              43.08223867                2.26075716               73.58184775                1.00000000               -1.07921284                5.08303559              -12.75841382               -4.76178801               -2.39854260               -4.98802818
              11.83602700                5.40061338               76.87729761                1.00000000               -0.02916171               -0.10454330              739.62256087                0.13070382              717.92606576              170.19065111
              12.83573538                5.23656731               76.52429966                1.00000000              205.09286535               -0.27806529              482.34798890               60.06977023              944.20267104              121.60294701
              17.93788430                6.27160961               84.21475488                1.00000000              388.83986442             -308.96097046              375.20619196               87.94408807              914.28951456               73.71920457
              22.61253267                5.47472221               85.87368090                0.80158926              312.14742288             -238.83545812              290.94258865               14.02333793              534.84098616               29.53995829
              26.18083276                4.58460025               85.88764003                0.67276795              247.08150661             -197.44764488              215.69008915                9.05924289              372.95788016               11.45647294
              29.55416280                3.88654698               84.83698433                0.34075383              233.09314033             -170.75130470              164.83781667                3.89264675              266.47446501               -5.18437982
              32.84269557                3.49387026               83.11651633                0.00010000              232.22928949             -154.17032894              120.81220311                5.03047431              205.75696129              -16.25278599
              36.19874859                3.48507939               81.07925579                0.00010000              248.06936018             -148.48466910               80.32969082               19.66858945              184.73142221              -27.85229194
              39.80408277                3.90432475               79.05121750                0.00010000              238.33820400             -143.89991935               44.21575860               40.77210350              188.29631871              -37.96641713
              42.96551267                4.13643171               77.11440506                1.00000000              108.22448760               -5.19609936               15.31431981               52.10975751               97.11619358                4.92368924
              43.96857252                3.31158751               73.23548048                1.00000000                0.30598537                5.75408172              -17.27909801                0.66635138                0.00446652               -5.14932360
              12.00296346                6.39976520               76.77156276                1.00000000               -0.06051503               14.90850223              829.63366565              583.59498597              825.60043951              711.29468478
              13.00235831                6.23365203               76.41691962                1.00000000              273.91905138             -170.68391763              562.40962325              348.48697629             1079.78727624              424.14146190
              19.48134449                4.25108817               84.99299402                0.00010000              432.57912507             -245.51570691              331.51565719              125.70037533              974.57021505              111.46411530
              23.65394081                4.13534411               85.92470738                0.00010000              278.30864778             -213.60918561              260.95355903              112.10142313              493.18100917               77.65845917
              27.04751744                3.68169962               85.60667864                0.00010000              221.23435182             -174.85151412              201.03013037               52.40180755              352.10409149               27.53351992
              30.07862785                3.27574312               84.27915802                0.00010000              198.48315448             -147.83871442              150.43036508               19.29127251              253.34757617               -4.78807092
              33.01718053                3.02949180               82.38906915                0.00010000              198.94151435             -133.07726221              107.55542586               -4.23788079              199.04036646              -29.57485817
              36.05745813                3.02004760               80.20609934                0.00010000              222.51807123             -130.94973546               68.77641726              -27.51155675              177.32107642              -53.90061006
              39.46754196                3.27444537               77.99492843                0.00010000              283.52525240             -134.14057631               33.49555793               -2.56275469              224.22663491              -85.05716338
              43.72796318                5.09078691               76.80551204                1.00000000              163.88560623              -90.35986000               10.93361341             -105.51768318              139.02855052             -141.43009261
              44.74525408                4.37583879               72.88907370                1.00000000                1.72908994               33.40615871              -21.80533977             -180.66772271                2.70745387             -130.23975970
              23.84015307                7.69878343               90.56884329                1.00000000             -288.60011284             -131.88440517             1059.98260713              324.10837401              459.19076288              848.47222288
              21.95415194                3.82288896               85.99360058                0.44269706             -164.49766723             -221.19683650              818.35637761              423.91949668              594.95812906              596.44663936
              22.55019973                3.36129548               86.07075963                0.00010000               73.48988683             -153.75436159              331.01743338              306.40993925              600.06639947              217.48786672
              25.42394968                3.20253850               86.64719964                0.00010000              176.91350907             -159.44284436              246.36509232              178.16771516              445.92535426              108.22141555
              28.08846991                3.08756997               85.54742868                0.00010000              158.41231941             -137.08420716              185.06117475               96.49956220              298.06776843               40.87028794
              30.59219607                2.92977269               83.80843228                0.00010000              146.25817795             -116.31634549              136.17338049               39.61355054              223.57347322               -4.04560204
              33.01363347                2.83232502               81.60111766                0.00010000              140.56839117             -100.80134107               93.65395880               -4.54442066              176.57511300              -39.80660677
              35.40356389                2.86608468               79.12608654                0.00010000              133.42274524              -90.02397293               55.69581196              -44.85997152              153.61726650              -74.85375106
              37.68208837                3.22151323               76.55829959                0.00010000              117.51008445              -77.39527548               21.40420404              -79.25782010              125.43814452             -121.69603409
              39.75376558                4.32923451               73.56702901                0.00010000              105.15129643             -122.88384310              -13.00174251             -148.19551296               75.85672847             -236.00461288
              41.78511430                5.97971069               70.04324717                0.42830063              103.13487204              -25.70752393              -54.61140909              -87.84252566               48.44378663             -238.32409170
              26.23691987                5.76207710               95.57025459                0.98477063             -141.86836786             -202.21454632              552.17356533               48.86994720              165.71226247              317.13584755
              25.81823620                3.80971530               91.33000539                0.31518239             -100.35130703              -78.34344974              435.88239396              194.95878868              234.33979784              410.63453001
              26.22989373                3.17600094               89.18492848                0.00010000              -16.36077862              -93.16441019              344.06868413              256.72922115              322.76872583              271.50221185
              27.49102062                2.94648722               87.52972221                0.00010000               51.01903817              -97.64460449              233.96993213              177.83053691              295.98780089              120.06102975
              29.25027450                2.94001548               85.66893705                0.00010000               81.75615909              -92.69451928              169.87520288              111.54067412              232.99634400               46.56209135
              31.12614381                2.94941621               83.38407268                0.00010000               86.98528146              -79.35020840              120.03407126               56.81339419              179.52477422               -5.09725924
              32.98998013                3.01346498               80.78070305                0.00010000               82.24633453              -63.86953897               76.70754225               16.18954994              143.32453612              -46.00755095
              34.77107050                3.21956814               77.93986969                0.00010000               71.46278003              -47.44053462               37.46257068              -11.17962005              115.72845555              -85.10431673
              36.41923573                3.72653986               74.85611747                0.00010000               61.73924821              -36.90218379                0.00453856              -21.42066777               86.32056972             -131.28724675
              38.00585546                4.63311005               71.45841041                0.00010000               63.41077405              -54.60177827              -40.19719876              -18.02841660               46.95072608             -169.97515455
              39.68745121                5.86168831               67.61487246                0.42967208               68.15957480             -103.10996411              -89.45795441              -19.94715358               23.44203208             -198.68003990
              28.72227562                5.65449250               99.22626083                0.99068000             -128.28717412             -119.77763495              442.38812215               39.62103190               45.14201440              196.49076965
              28.43940388                4.25601997               94.72384310                0.31446876             -108.71317000              -60.49692380              373.43486358               89.71060179               88.84699714              239.81000877
              28.54801222                3.49800727               91.28278529                0.00010000              -61.14290021              -55.83012294              287.76086955              132.65598032              160.63616867              184.70382162
              29.21654588                3.24964641               88.49480009                0.00010000              -11.58289072              -55.78768729              214.30864437              129.26428613              178.67667803              107.50347362
              30.31635441                3.23367958               85.80630270                0.00010000               21.92342845              -54.88361726              152.47777363               97.79424426              159.62380867               41.90116840
              31.65501445                3.34276852               82.98097619                0.00010000               37.54590604              -46.21416498              102.04568293               65.20460491              131.51485669               -7.02134207
              33.06727253                3.55493424               79.96486082                0.00010000               40.59410839              -33.02661684               57.29041510               40.80296796              106.29194887              -46.84302923
              34.46689661                3.91727399               76.75711071                0.00010000               38.64302922              -19.89132804               15.40033950               28.91161012               83.78397354              -83.22816737
              35.84013311                4.48346955               73.33981994                0.00010000               39.55760883              -15.56883135              -26.11112467               28.87252428               59.69040355             -116.81019639
              37.25804879                5.23719894               69.66327266                0.00010000               54.44407898              -29.99285551              -71.01862712               24.93045704               31.35600125             -144.81072114
              38.92901469                5.91751141               65.68513981                0.43075768               67.09659022              -72.95506619             -124.97164525               19.29551827               16.05562980             -161.01560741
              29.82628558                5.36652440              100.75338549                1.00000000             -105.73521220             -121.91830526              377.65180186                0.34870974               26.00373035               88.53597931
              29.76893346                4.59977682               96.38893138                0.33873941              -96.84493434              -66.69897660              314.71086888               29.16910700               44.30392487              124.62670001
              29.88938690                4.05939848               92.57754080                0.00010000              -71.41497123              -42.79724419              249.88725387               60.99973268               82.75019748              113.45067086
              30.34063404                3.83073348               89.14036374                0.00010000              -38.81748129              -36.03000089              188.06571504               75.85953978              100.50982598               73.65973931
              31.11303727                3.84234313               85.86131032                0.00010000              -11.58263964              -30.94727372              132.59113231               73.28309509               99.28115375               29.68460640
              32.10898124                4.02513291               82.57219007                0.00010000                5.92483732              -22.97099271               82.80993599               63.50014186               87.68799870               -9.32392231
              33.23153402                4.35293264               79.18934483                0.00010000               15.58930711              -12.23654465               36.91561716               55.67896008               72.81413527              -42.97718766
              34.42076739                4.82174158               75.67548216                0.00010000               22.26136202               -2.67669326               -7.35291177               53.29291222               57.01796413              -72.80482802
              35.67676126                5.41516323               72.00181603                0.00010000               32.48276789                0.00766900              -52.37492105               52.83414309               39.63557851              -98.96232840
              37.07042274                6.03325294               68.13783250                0.00010000               51.79876944               -9.62426457             -101.05232090               40.30018978               20.25117658             -119.41460137
              38.71273665                6.40258699               64.06320309                0.43215601               64.23139023              -30.15861128             -156.92354505               25.42615926               10.64028734             -131.69875747
              30.26274498                5.21612640              101.53324264                1.00000000              -93.28330327             -107.75680449              334.99943576               -7.70991802               11.48259304               38.20897714
              30.32991195                4.92204043               97.24545414                0.36145556              -86.28473803              -67.54042241              276.25754207                3.92864168               19.29684603               61.92892158
              30.53705022                4.64206239               93.22892340                0.00010000              -68.95599636              -42.41835774              218.63970051               21.54865469               39.51704347               60.61649447
              30.95079202                4.52904639               89.44093523                0.00010000              -47.47166685              -28.72669712              163.38612094               39.29390880               52.86192575               42.00585928
              31.58761688                4.61473411               85.77906088                0.00010000              -26.81821245              -19.24885185              111.51865598               49.84404454               56.78134478               15.84072240
              32.41442777                4.88334867               82.14745492                0.00010000              -10.16869133               -9.65739352               62.94200392               54.98387854               53.52035994              -11.01479231
              33.38424305                5.31020335               78.47785817                0.00010000                2.80482513                0.49544394               16.55630509               58.15635816               46.13580109              -35.92355365
              34.47052427                5.86374012               74.72657104                0.00010000               15.05307833                9.15370259              -29.30319336               60.44339981               36.41154935              -58.31089319
              35.68530462                6.48362293               70.86251099                0.00010000               30.30522764               13.18031207              -76.64669382               58.05260095               24.93883574              -77.63611607
              37.07662882                7.04471365               66.86235258                0.00010000               50.67825739               11.50269129             -127.71569377               40.56050059               12.39268429              -92.80810706
              38.69886977                7.31433918               62.71767340                0.43334914               62.22409437                9.21167914             -184.85149841               24.29335926                7.00830703             -102.56525894
              30.26025915                5.21138831              101.78814409                1.00000000              -83.86888443              -94.82712199              304.78096355              -11.07303039                4.24781373                4.57904256
              30.42157030                5.24896837               97.56381272                0.38791269              -77.34525576              -65.82245559              246.23037126               -6.01300605                6.27557725               22.81903447
              30.71335403                5.21103132               93.45751742                0.00010000              -63.38649045              -42.85037676              191.18182807                2.21827399               15.62336129               26.67635837
              31.15384050                5.25619954               89.47252336                0.00010000              -47.88690731              -26.44117861              139.10598650               17.11166509               24.17397359               19.16187226
              31.75561589                5.45736609               85.57511359                0.00010000              -32.03254600              -13.70496920               89.68347925               31.17621124               29.10566586                5.42676068
              32.51318958                5.83198504               81.71524946                0.00010000              -17.06730818               -2.21133695               42.38900845               42.18266721               29.92947159              -10.55116604
              33.41426972                6.36284152               77.84586135                0.00010000               -2.84868884                8.72718042               -3.76329278               50.02893672               27.42577474              -26.45850153
              34.45621580                7.00481563               73.92898032                0.00010000               12.12850126               18.31580370              -50.21586896               53.76974600               22.43372358              -41.15168440
              35.65683975                7.67876947               69.93470346                0.00010000               29.73503534               25.42046295              -98.73126876               50.02761417               15.52038782              -53.94745546
              37.05091651                8.26330676               65.84136553                0.00010000               50.12565124               30.77873373             -151.18993138               32.90703072                7.59782095              -64.37276637
              38.65935277                8.58682057               61.64264898                0.43476143               60.84362681               40.97217260             -209.33451487               19.24264630                4.98309378              -72.37240685
              29.96612425                5.31958396              101.75631320                0.91141644              -75.61154346              -83.36813292              275.48675040              -10.56978909               -1.03232801               -9.32706677
              30.21000881                5.60559132               97.58898867                0.30758016              -69.59698575              -60.31851908              216.13832719               -6.57370525               -2.36500816                4.29636521
              30.57418453                5.78505485               93.43121172                0.00010000              -58.16591330              -39.33630063              162.63242823               -3.63217937                0.18964038                7.94228596
              31.04669055                6.00022282               89.33164354                0.00010000              -46.94144646              -21.97267156              112.85115190                5.37540025                6.16626541                5.96290601
              31.63535560                6.34063472               85.29553378                0.00010000              -34.70424322               -7.47708977               65.61134204               15.63031631               11.85336670                0.45764193
              32.35260568                6.83912193               81.29961410                0.00010000              -21.16822072                5.15835251               20.05458139               24.59393719               15.41308963               -6.74845641
              33.21199119                7.48474695               77.31147471                0.00010000               -6.13072205               16.51895423              -24.88803741               31.16494126               16.44140051              -14.36849316
              34.22999124                8.23005620               73.29884530                0.00010000               10.76872927               26.76820327              -70.64190774               34.00853362               15.02274181              -21.60842081
              35.42736578                8.99203219               69.23265432                0.00010000               29.83635468               36.15437856             -118.92633354               30.74231355               11.33276525              -28.00353634
              36.82671834                9.66028833               65.08822001                0.00010000               50.46646476               46.05335827             -171.62679259               19.08240005                5.86254587              -33.42681469
              38.43669507               10.13378263               60.85118489                0.43576187               60.99767346               62.54722353             -230.69346046               11.68919284                4.53951887              -38.88632811
              29.47684864                5.54402565              101.68921864                0.93645833              -65.22233321              -77.55583036              238.45238247                0.92967253              -12.57635303              -10.88129175
              29.82462530                6.04259799               97.52047541                0.62364191              -61.53848435              -56.29933316              179.32194920                5.47563181              -15.43180552                0.04780815
              30.24607895                6.42430531               93.28935440                0.37104404              -55.94283364              -36.07495434              128.07105982                5.89684725              -15.14182038                2.42320108
              30.70576863                6.81674610               89.10746676                0.36364203              -50.83779218              -18.34767148               80.85489340               10.08375779               -7.55971777                2.08550863
              31.22932311                7.30782430               84.99356702                0.36092049              -42.24062722               -3.28104236               36.35622097               15.31704922                0.97785711               -0.08962202
              31.86095609                7.93515209               80.93348653                0.36273937              -29.13444133                9.60301592               -6.38654955               20.10485581                7.97118192               -3.22805854
              32.64663428                8.69322061               76.89866983                0.36901700              -11.59274254               20.84736533              -48.55525517               23.71568955               12.38615682               -6.67057044
              33.62910124                9.54017970               72.85682995                0.38020590                9.74098061               31.01235022              -91.71674846               25.34282113               13.90225118               -9.99273186
              34.84145389               10.40185704               68.77650938                0.39662120               33.08564133               40.98248535             -137.75363602               23.61852296               12.49537665              -12.94840275
              36.29081406               11.18437393               64.62929749                0.41875155               55.23470632               52.40856011             -188.68785052               18.20497276                7.98959356              -15.48568142
              37.94614802               11.83776504               60.38404452                0.71830513               65.53339548               70.39824115             -247.48377585               16.28440638                6.91491688              -19.01216524
              25.46463771               12.04564700               94.13094581                1.00000000             -344.37585317             -413.72806721             1331.68168730              -14.52771614              586.03022396              233.95951916
              23.02087918               10.81754572               88.62036407                1.00000000             -183.62437615             -403.86164585             1035.18439725              -67.13005635              798.81705014              190.68212111
              23.79215019                8.68599946               89.73562321                1.00000000               95.72220279             -280.29550406              495.51641643              -47.40652841              840.69296641               -1.29778691
              26.93532323                7.60709427               90.70094849                0.66067948              216.11162842             -251.73363254              374.30166703              -12.23949765              626.29388911                7.10007659
              30.11438275                6.36237951               90.02873326                0.47345786              221.91222585             -211.94938247              291.63243658              -14.21466528              428.81082816               11.80442752
              33.37356775                5.40910684               88.45481127                0.13763476              230.69690998             -184.98756330              224.52272921               -8.25857137              299.28117505                5.40764337
              36.72832095                4.79246862               86.24851630                0.00010000              237.86254714             -165.53789087              164.85736884               -0.03543003              216.40145089               -1.05217034
              40.13081869                4.59030178               83.73677906                0.00010000              227.71807776             -152.44931845              109.72005051               15.12821755              174.90310651               -9.61168913
              43.28268251                4.64710672               81.16943291                0.00010000              197.10723645             -125.82253522               60.51382177                8.75796679              160.14167599              -10.17114779
              46.07296342                3.57409604               78.61850516                1.00000000               88.95751312               -5.67404300               19.32894909               -9.89268292               78.14304165                4.98122726
              47.06183277                2.57930113               74.45689402                1.00000000               -1.11306506                4.89045586              -12.15320922               -4.57100989               -2.43667410               -5.13431538
              26.54746182                8.90836632               92.66575819                1.00000000             -351.80594414             -361.21403879             1310.95309029               57.04828037              643.75153645              243.77313729
              24.02940238                7.77892926               87.17122309                1.00000000             -181.20755998             -383.77509035             1016.11863903               48.52448966              891.83581754              186.79197374
              24.92331062                6.88304442               89.11454637                1.00000000               97.26679221             -276.32783644              503.15053641               46.41238525              937.16510793               70.24292281
              27.97473823                6.08975795               90.02836439                0.82382813              207.39595954             -244.73722253              356.73141095               33.83350604              628.07108969               40.03129734
              31.07122982                5.24288569               89.28790487                0.68810380              205.05996270             -202.79645152              269.48874105               17.10167533              423.78124706               23.33381134
              34.07593748                4.55923121               87.64413372                0.34902576              203.30696841             -175.29688359              201.99873050                9.87535224              301.04274845                9.00770322
              37.13736918                4.13708972               85.42990514                0.00010000              213.94221694             -158.04880998              145.24184369                9.30253619              227.35167995               -4.65591203
              40.35478182                4.06580860               82.94488615                0.00010000              237.04979329             -150.88928755               94.98975302               22.27834333              196.46898309              -18.94365616
              43.87836505                4.38888137               80.52180704                0.00010000              232.65787832             -144.57622467               51.07827709               40.68679989              193.78431293              -34.33667965
              47.00793939                4.51735561               78.26561597                1.00000000              106.62762632               -5.03488220               14.84344091               50.12115827               97.23690452                5.12475472
              48.01091758                3.62820569               74.06478797                1.00000000                0.29781895                5.58817601              -16.78859300                0.67494718                0.00966682               -5.31807657
              28.86447744                6.82136622               94.35717656                1.00000000             -384.77865652             -272.62320769             1333.12758884               11.40258482              671.30931615              387.88296915
              26.01669088                5.14204391               88.66284429                1.00000000             -222.74541196             -281.82556747             1047.54346870              175.29886470              885.09362557              363.32584654
              26.40956920                5.15944273               89.47419339                0.00010000               61.77306007             -247.72322777              471.02745991              205.70383272              848.36100046              226.85314292
              29.25215208                4.71234982               89.91585020                0.00010000              178.86868964             -213.75191200              335.95625304              105.39169249              591.57485958              100.92687171
              31.98694300                4.30645048               88.80316411                0.00010000              171.23593447             -178.05620343              249.33124428               57.95554515              396.58177846               49.84248202
              34.67687077                3.90316917               86.93485036                0.00010000              171.04256463             -152.43186308              185.12290060               24.07374082              288.09962601               14.21782020
              37.40779429                3.63149243               84.56161332                0.00010000              182.38615688             -137.63051414              130.70521161                0.88695077              224.15856381              -13.77442893
              40.32459391                3.57251603               81.95931578                0.00010000              211.85386041             -134.77596117               84.44657138              -22.46427559              196.62300174              -41.34247303
              43.64487150                3.75558223               79.36997091                0.00010000              275.57341789             -136.12918727               44.39481143                1.32207694              239.44188011              -76.39286276
              47.83606226                5.47339839               77.91240568                0.00010000              160.43800237              -91.18146040               10.37682646             -102.25786226              141.95426542             -148.35834495
              48.85363154                4.69106465               73.67254885                1.00000000                1.75692811               30.68022663              -21.39050548             -177.60704667                2.84145969             -142.82522406
              30.13415814                5.45590217               98.85462962                1.00000000             -193.68549680             -159.86716271              724.83223210               61.78612961              191.62050392              362.97342307
              29.19730317                4.14241791               93.67750720                0.45835858             -133.35383840             -147.78563079              655.16705513              221.70861170              390.10928104              522.55051739
              29.46708137                3.92857986               91.54895838                0.00010000              -13.08694243             -175.44409555              470.45653101              259.19858908              544.55105687              309.58783187
              30.93556432                3.81471971               90.30497591                0.00010000               78.62199995             -158.10022790              306.73615228              162.51138073              457.50086784              150.34152339
              33.03952137                3.68176162               88.59592822                0.00010000              114.84030181             -140.02767795              227.73270095               91.65888615              339.69256759               68.18297074
              35.23237036                3.51059395               86.29252856                0.00010000              122.31199853             -120.61432579              165.54437483               39.58574608              254.08850445               14.61115042
              37.48576134                3.38447943               83.62486645                0.00010000              127.45180746             -105.71266318              113.45343882               -2.28044530              204.09553787              -26.36353833
              39.78140651                3.37028937               80.74749791                0.00010000              125.90814441              -95.13237191               70.92973580              -40.97705520              181.33745930              -65.89116039
              42.00392423                3.66629762               77.82605202                0.00010000              112.29466048              -82.30992499               36.67913137              -74.10673086              150.79814736             -119.44186951
              44.02729971                4.69372640               74.48565410                0.00010000              100.97599473             -126.59466642                3.05915612             -143.23286775               91.60868553             -247.31939877
              46.02344412                6.24181022               70.53428297                0.42261163               99.61444064              -30.86958581              -41.71860612              -85.51208814               52.21289452             -271.19485967
              32.72716855                5.62402297              102.57574268                1.00000000             -174.89831324             -104.33250539              557.99300100               48.79752417              100.43866510              301.01394194
              31.97818542                4.18633130               97.18435801                0.33450845             -140.29646822              -83.56286771              483.56421542              125.53250493              190.31917791              364.95912422
              31.92123919                3.65056082               93.71780448                0.00010000              -61.44937442              -97.73019152              372.68891774              178.18268965              300.43638370              275.03666251
              32.74919793                3.55034526               91.09551496                0.00010000               10.15036441             -101.36810087              276.74457825              153.27041148              304.35827094              160.19155376
              34.12424648                3.50589692               88.50832745                0.00010000               50.83349727              -95.33031486              201.16078509               98.24453304              255.85346158               71.62299517
              35.76586788                3.49088266               85.68184776                0.00010000               68.91217400              -82.76259989              141.87708036               51.84019862              205.36780919               11.69154793
              37.50248996                3.51723916               82.61337398                0.00010000               72.86833667              -67.91726328               91.23639144               13.96269526              169.19001704              -36.41148056
              39.22323461                3.66986859               79.36301356                0.00010000               66.84049493              -51.88504321               47.89879153              -12.11205117              143.08593802              -82.79364761
              40.83929986                4.10938373               75.90217780                0.00010000               58.63288481              -41.83994945               10.61723823              -21.34282757              113.19881518             -139.18975911
              42.39589231                4.94150506               72.10095970                0.00010000               60.39611376              -59.22016890              -26.97152100              -17.50027797               65.00619553             -190.75442574
              44.04722213                6.07367294               67.75333539                0.42380289               65.13298233             -105.70001672              -80.73283075              -19.41578328               32.50944778             -231.08500694
              33.98549196                5.36925206              104.46562760                1.00000000             -130.40765433             -113.94025508              430.66823014               10.88395078               48.00457794              168.74459534
              33.68141542                4.47116056               99.39601877                0.33641768             -115.93853827              -66.86279855              375.55506282               61.96374434               93.29247803              231.13032191
              33.66672119                3.97397603               95.27679951                0.00010000              -76.78894876              -58.44517178              308.50300289              103.81297754              161.59327240              199.79330754
              34.14563644                3.78735769               91.74823831                0.00010000              -30.14232791              -61.10172069              236.91923756              105.34798730              185.12800136              130.25408601
              35.06387464                3.77515532               88.42775312                0.00010000                5.60978254              -57.57039700              172.36607890               84.10062479              175.27838186               63.07516097
              36.25783209                3.85534195               85.06709054                0.00010000               26.10773349              -48.56087699              116.06643868               57.34885408              151.75245671                7.68746851
              37.58602931                4.02613417               81.57934950                0.00010000               34.45944118              -35.41934200               66.08222221               35.65246679              128.29831943              -39.23319993
              38.94702092                4.33258851               77.93715304                0.00010000               35.97009491              -22.25855801               20.72082817               24.38057665              106.53988997              -83.81182909
              40.30543120                4.82949863               74.09838389                0.00010000               38.29920152              -17.68182123              -22.34957437               24.85409812               80.99927964             -127.26694568
              41.71300495                5.50932302               69.97068266                0.00010000               53.26807534              -31.51948570              -67.83761775               22.88290965               45.69955623             -165.37200521
              43.37079271                6.12780989               65.44076565                0.42494733               65.77877647              -72.12200645             -122.92659866               19.48869835               23.53878465             -187.72161808
              34.74103058                5.34521786              105.54812526                1.00000000             -112.82942404             -101.84958379              378.04759642               -0.67401782               21.65490433              104.31381876
              34.61273634                4.84907532              100.58330217                0.36336098             -102.98644866              -63.74886441              322.27512781               21.95283850               43.45693881              138.77416028
              34.68130161                4.48165738               96.13405667                0.00010000              -77.88789777              -46.81335298              261.95843437               48.26391396               85.44301956              129.29813616
              35.05497838                4.32831085               92.08872184                0.00010000              -47.15134479              -39.61917850              201.50837863               62.81992168              108.80078888               92.59621264
              35.73827471                4.35448898               88.24307654                0.00010000              -19.65561341              -33.47820553              143.93619097               62.79991839              112.44435063               47.33402681
              36.66186612                4.51966512               84.43803013                0.00010000                0.00090112              -24.44623511               90.55818247               56.04814902              104.36275206                3.99027648
              37.73829273                4.80885232               80.57811343                0.00010000               12.28077807              -13.16913901               40.94902543               49.79193610               91.20119694              -35.71766855
              38.90748168                5.22469743               76.60763730                0.00010000               21.06772871               -3.12367002               -6.23867023               47.97037273               75.28907569              -72.78308385
              40.15964731                5.75574730               72.47448231                0.00010000               32.38787838                0.30557595              -53.16458153               48.08478052               55.41778251             -106.99136866
              41.55523924                6.31111535               68.11691425                0.00010000               52.01875261               -8.30612138             -103.12548831               37.29210768               30.02440102             -134.61020977
              43.20002236                6.63123281               63.47649459                0.42614198               64.47831148              -27.89201310             -160.00683940               24.44076086               15.55394802             -149.55562600
              34.96429668                5.33226039              105.91460953                1.00000000              -98.02640124              -98.13922514              340.52686115               -9.09823802               11.83268212               56.95501111
              34.98403267                5.19618327              101.04601196                0.38736098              -90.57663666              -65.83054599              283.74365719                2.62300110               22.13267691               78.68051667
              35.15276395                5.03770897               96.45800262                0.00010000              -72.74146995              -44.51274094              227.10170879               17.34105780               45.50809093               78.09173331
              35.52920327                4.99497412               92.11356710                0.00010000              -51.21226058              -31.32859739              171.30660105               33.32438034               62.31249906               59.31145703
              36.12851874                5.10559121               87.92370402                0.00010000              -30.23857674              -21.01920289              117.55176808               43.83946179               69.55873576               31.46446382
              36.92443174                5.36641725               83.79276921                0.00010000              -12.58415136              -10.48063292               66.26582444               49.54441216               68.69734439                1.13242682
              37.87683571                5.76275139               79.64506761                0.00010000                1.75508264                0.50518829               17.02289120               53.23238055               62.34437514              -28.65885189
              38.95953339                6.27011511               75.42278178                0.00010000               15.19365936                9.90570114              -31.32976567               55.87305924               51.91494122              -56.89339738
              40.18070890                6.83561015               71.07567743                0.00010000               31.19141030               14.71592159              -80.56861391               54.15682732               37.60243273              -82.36963946
              41.58336159                7.34320059               66.55724457                0.00010000               51.93320579               13.78224925             -132.92028707               38.16586211               19.72395713             -102.83975114
              43.21937301                7.56996963               61.83409073                0.42737179               63.60114185               11.81773687             -190.84992917               23.47929158               10.59182741             -115.27653127
              34.83122006                5.38243336              105.86724427                1.00000000              -87.14722779              -91.19836875              310.68345265              -11.24013909                6.14857269               25.93181523
              34.95974778                5.53246440              101.05554659                0.41572833              -80.09440717              -65.32935952              252.25010614               -5.42518293               10.91476481               40.20420879
              35.22933191                5.59140256               96.39516458                0.00010000              -65.30820147              -44.12876212              196.71271872                1.99136199               24.04385156               42.36547682
              35.65358375                5.70173890               91.88333833                0.00010000              -49.28555474              -28.03331979              143.43944354               15.46520424               35.68324817               33.83296823
              36.24362082                5.93410493               87.48235244                0.00010000              -32.89947812              -14.74452520               92.13884408               28.52313571               43.08986416               18.40654317
              36.99559419                6.31005246               83.13809083                0.00010000              -17.21891671               -2.43203493               42.52917781               39.04044263               45.54194284               -0.29331486
              37.89924248                6.81895609               78.79515624                0.00010000               -2.17550448                9.32020394               -6.03808651               46.71942627               43.42778490              -19.88000410
              38.95208410                7.42281146               74.40275344                0.00010000               13.52279440               19.68673256              -54.69038706               50.59787016               37.21157660              -38.90233056
              40.16969837                8.05006574               69.91428574                0.00010000               31.60564583               27.51690896             -104.97720329               47.40491023               27.18982797              -56.19353785
              41.58419701                8.58676034               65.28903222                0.00010000               52.31858756               33.41598011             -158.76212241               31.35183473               14.17170892              -70.67491980
              43.21607012                8.86758755               60.50194349                0.42826960               63.18731094               43.66104216             -217.90843144               18.77456490                8.21165980              -81.59115367
              34.43943181                5.50829301              105.53529421                0.92869870              -77.28720029              -82.50309511              280.39361825              -10.78317523                2.58592635                6.02428579
              34.66655981                5.88959608              100.76541147                0.33248175              -70.80575607              -60.34453287              219.83783417               -5.59059619                4.44706224               15.61993928
              35.02331669                6.15513373               96.06618786                0.00010000              -58.53774100              -40.05117945              165.22819781               -2.67926439               11.96755149               17.98711281
              35.49580499                6.43430772               91.46208321                0.00010000              -46.63243982              -22.74043628              114.10620742                5.54310225               21.11403179               15.15227108
              36.09066789                6.81070071               86.94529864                0.00010000              -33.77077811               -7.83829357               65.15073502               14.93701469               28.95434098                8.53313674
              36.82038943                7.31777655               82.48405677                0.00010000              -19.61013293                5.44062121               17.58048330               23.28117345               33.73061020               -0.30519857
              37.69846524                7.94915547               78.03624598                0.00010000               -4.00041419               17.52503110              -29.46354232               29.54401527               34.71909501              -10.06029050
              38.74038114                8.66384976               73.55659305                0.00010000               13.31964929               28.49865712              -77.15220405               32.39601094               31.64331302              -19.77565000
              39.96485822                9.38594833               68.99984701                0.00010000               32.62476671               38.54271252             -127.01425313               29.45466432               24.36596575              -28.71969169
              41.39287648               10.01152020               64.32189428                0.00010000               53.41758344               48.95078587             -180.97522366               18.37028893               13.18285093              -36.50613836
              43.03320989               10.44319047               59.48673724                0.42953819               64.03334127               65.63935276             -241.24392120               11.57469976                8.16425487              -44.57141340
              33.85295042                5.73237146              105.07115846                0.94473098              -65.18552807              -77.59215520              239.31126934                0.67208927               -4.75631574               -1.12556616
              34.20109514                6.32557375              100.30124785                0.63298737              -61.09577195              -56.40223304              178.79145657                6.35390836               -4.04843196                6.09698458
              34.63103498                6.79037897               95.55403965                0.37026971              -54.61081626              -36.47547550              126.87828722                6.83965010                2.11523984                7.66087553
              35.10887881                7.24693018               90.89630525                0.36348937              -48.60713472              -18.73775474               78.78786594               10.65538628               13.00800512                6.79584833
              35.65889228                7.77733906               86.33201079                0.36084486              -39.30579567               -3.33616537               33.00790386               15.41917417               23.87381629                3.99844603
              36.32276290                8.41886488               81.83728921                0.36270289              -25.74213534               10.10883314              -11.37319603               19.84322970               32.18827100               -0.00282243
              37.14404958                9.16945671               77.37273779                0.36831692               -7.97757251               22.03012434              -55.32132459               23.25441991               36.48577936               -4.55998082
              38.16321145                9.99278460               72.89178757                0.37846372               13.35358230               32.89348373             -100.12633217               24.85619419               35.99016247               -9.16719760
              39.41112122               10.82091999               68.34529824                0.39342522               36.55746023               43.49716527             -147.45741114               23.27587281               30.33119428              -13.46076152
              40.89436065               11.56577605               63.68384241                0.41394913               58.65511714               55.42558576             -199.41090974               18.12114819               18.74087805              -17.25419508
              42.58422357               12.18037460               58.84353437                0.71521380               68.98629134               73.71841296             -259.39279188               16.56122225               12.91778887              -22.98149687
              34.41402520               12.01142169              105.62014513                1.00000000             -237.04024645             -296.15763198              943.82945706               22.58187219              248.30502140              -46.08518544
              33.04362273               10.95113770               99.33952657                1.00000000             -186.00663350             -302.12111382              902.72487653               -0.24172798              509.72866400              -15.66050404
              32.69389253                9.64650551               96.99855657                1.00000000              -56.21951542             -270.86076242              652.55230512              -14.58047131              699.85135362               26.01717575
              33.91923242                8.39922301               95.86972356                0.66870664               70.33093066             -233.87765541              464.39705459               -6.76902894              597.39842160               19.69342298
              36.10051114                7.34839785               94.28900965                0.47883542              137.83264816             -207.15522284              357.78009570               -4.92956830              435.13010629               19.81679445
              38.67588539                6.42027717               91.93836128                0.13881901              173.03267717             -183.36152279              271.03917924               -5.25281764              297.03089648               14.98877280
              41.56116468                5.72907728               89.04988485                0.00010000              198.79004817             -164.14222854              194.06974355                0.83199696              206.30952648                6.40016062
              44.65168635                5.38129301               85.92103392                0.00010000              203.16974731             -149.76234656              125.73264259               14.21376348              159.51531339               -4.54497130
              47.62455963                5.24427254               82.81273570                0.00010000              185.83720815             -122.72193845               66.77610434                4.38889728              144.96532658               -8.68982901
              50.36843051                4.00011180               79.80952657                1.00000000               86.60839087               -5.50855274               18.62461251              -15.21554720               70.83402285                5.18023741
              51.35672745                2.94228297               75.33878356                1.00000000               -1.17030662                4.72881902              -11.21722065               -4.41344061               -2.52186519               -5.23617098
              35.70012791               10.04984537              105.09635941                1.00000000             -247.64643659             -302.14342731              981.80704387                8.19757551              231.47810045               85.83680434
              34.22366354                8.92992657               98.84667244                1.00000000             -193.80413728             -297.86264284              939.57819288               21.58218874              492.20660461              115.11104759
              33.82404516                7.93789789               96.27776561                1.00000000              -61.15337871             -264.63832476              634.96357488               31.60929737              672.06989446               91.92931181
              35.00059597                7.06044645               95.00830912                0.84284196               60.83216060             -226.09764883              438.51888744               28.80912928              578.88851062               62.74454085
              37.04068838                6.27684562               93.27741485                0.70282699              121.62107623             -198.89359705              329.69483759               19.29285987              424.11337412               43.88240851
              39.43301749                5.58666194               90.87695894                0.36247397              152.41441786             -175.42862481              246.46610586               10.85475757              302.93847905               27.13195965
              42.08897673                5.08765500               88.02135320                0.00010000              180.16044312             -158.50176863              174.38935351               10.58646574              226.77797007               10.63384519
              45.03622636                4.88366955               84.97905085                0.00010000              213.50312382             -149.53533120              112.08644111               22.96361948              193.77769866               -6.07942605
              48.35903921                5.01705316               82.07278304                0.00010000              216.55217376             -140.09647056               59.07068850               37.00433754              188.20610672              -25.71302525
              51.36726983                4.94502628               79.41127388                1.00000000              100.56913342               -4.82649582               14.24072658               43.42790166               92.54498957                5.49460540
              52.37042188                3.98957116               74.89970862                1.00000000                0.31520464                5.37781690              -16.15119389                0.70796295                0.00763014               -5.68684826
              36.81781432                7.96855315              105.43411453                1.00000000             -223.06003317             -265.50798016              881.68763757               18.86717408              172.87331704              232.13237407
              35.58721399                6.99388485               99.36778899                1.00000000             -181.11278675             -258.87704881              855.59554372               61.17655683              428.70456127              292.32312085
              35.19555859                6.35373902               96.41354322                0.00010000              -71.53733552             -231.42284355              598.97982349               93.65460888              604.16384777              206.11361080
              36.15646728                5.87727003               94.64383244                0.00010000               38.22971291             -201.53711251              411.92938671               77.15940570              523.80340080              127.51638778
              37.96015285                5.37052591               92.59330353                0.00010000               96.28519392             -176.53897868              309.47905464               44.42574363              395.31251533               71.79105501
              40.08217116                4.91170468               89.98161603                0.00010000              125.78667737             -155.58318203              229.28939736               20.02632161              291.18204374               33.83339144
              42.47588639                4.55904191               87.00317338                0.00010000              154.96947097             -141.71807021              160.16706166                1.52399322              229.80386863                1.98008568
              45.18156058                4.39058639               83.89503076                0.00010000              191.37016301             -136.95529296              102.77426247              -16.18988093              206.62804660              -25.73985561
              48.30328965                4.44234313               80.88282466                0.00010000              254.14549855             -135.82921071               59.78474832                5.69257063              248.26316173              -57.72016149
              52.26447055                5.90358189               79.01304857                0.00010000              148.92536442              -87.53668808                9.78985625              -94.10326639              137.08339615             -143.75291258
              53.28179694                5.04983930               74.46126359                0.95436674                1.73263926               24.27279010              -20.94136030             -167.28963000                3.08395810             -146.41338769
              38.02680799                6.73968577              107.06548793                1.00000000             -196.47991827             -189.85975922              671.24014394               11.80239159              151.66340846              311.65072812
              37.06200881                5.75238559              101.09694168                0.47503665             -160.65279162             -180.17493172              623.85622835               73.25496032              285.36817588              361.71477997
              36.81375216                5.30944102               97.47989025                0.00010000              -76.75058062             -170.24229819              498.35905960              120.46122387              420.84096699              272.76693758
              37.52699720                5.02970420               94.78192269                0.00010000                4.05082220             -158.51070643              371.29961879              103.39104122              409.14453185              164.38602227
              38.89476860                4.74606605               92.10208270                0.00010000               55.90153624             -141.49377160              276.57340142               63.30760943              332.09179681               82.35510834
              40.64502792                4.47499830               89.11931978                0.00010000               87.29031400             -125.15097410              202.29884677               27.67549242              259.09530412               26.79583350
              42.64057488                4.25329359               85.87018644                0.00010000              109.20497972             -111.41447944              137.45805982               -5.68531726              215.18617548              -17.17775657
              44.82912751                4.14456369               82.54468126                0.00010000              115.96601214             -100.82731650               84.69640972              -39.51998968              204.86575545              -59.91226591
              46.95989512                4.30046895               79.29188221                0.00010000              102.42904083              -88.59651670               59.25257367              -65.41474700              195.76119499             -111.69392772
              48.87770833                5.19429251               75.62821213                0.00010000               88.61096574             -128.52944598               51.17736491             -131.75453763              120.75975150             -257.45664247
              50.73211444                6.47502696               71.20887504                0.41718676               85.44061085              -35.81669025              -13.24152429              -84.37196264               55.22298036             -291.89426643
              39.02846252                6.17135796              108.73011461                1.00000000             -154.59045671             -134.13419707              510.12786857               11.64166737               72.35478014              244.94422203
              38.48255795                5.39038621              103.00128970                0.35539366             -135.04990316             -113.63516739              477.03169001               60.48039079              156.67882689              308.49691168
              38.32746445                4.94889306               98.63870683                0.00010000              -84.74474353             -111.59098935              399.20337454               96.52878323              258.91393076              252.44533076
              38.78766308                4.70705590               95.06461378                0.00010000              -27.32267596             -108.40914764              311.83653426               91.64562560              280.21058243              160.89423904
              39.78101093                4.54065047               91.69215275                0.00010000               17.03951898              -99.28161685              233.93799105               65.49652518              251.65717923               81.09971458
              41.12845346                4.40868519               88.22161429                0.00010000               45.58018642              -86.73313943              166.25747630               34.17705650              211.20602253               18.87726710
              42.69261466                4.33075232               84.60543088                0.00010000               60.77659874              -72.38814027              106.67072996                4.39782000              181.98628302              -32.44709460
              44.34398543                4.37404006               80.89784552                0.00010000               62.63256136              -57.40750098               57.15846923              -20.54035076              165.75882877              -86.01838460
              45.94526589                4.67041280               77.06846224                0.00010000               55.54181751              -46.73214077               20.20802135              -28.71765702              146.05730980             -152.77318782
              47.45482178                5.33299297               72.91897999                0.00010000               54.38114541              -64.02441083              -13.70367156              -19.24787376               95.97566288             -220.34871242
              49.03288880                6.33350550               68.00021584                0.41810887               57.80670142             -101.75535580              -62.15647459              -13.57324803               50.54093414             -270.48449906
              39.82158484                6.05700183              109.83962544                1.00000000             -132.75033064             -108.37695565              431.96587383                0.29640767               38.99316703              183.05282295
              39.49408153                5.47968224              104.23494436                0.35993696             -119.69633518              -83.25596880              386.23267819               29.51011377               82.27915666              223.02472728
              39.42765813                5.07762123               99.45284534                0.00010000              -86.29646216              -74.23674847              324.55617206               57.36010847              149.06229464              196.15552268
              39.76815229                4.86152125               95.23318484                0.00010000              -46.22941604              -69.48634846              256.92139983               65.13896738              178.07084519              135.93172426
              40.50306981                4.76043371               91.25362427                0.00010000              -11.48425434              -62.37888507              190.97965810               55.52096620              175.46142965               71.47651817
              41.53846720                4.74033551               87.30230496                0.00010000               13.00533009              -51.47127137              129.83302091               38.89215085              158.83567732               14.86863658
              42.76317642                4.80553079               83.28650527                0.00010000               27.00964103              -37.89455787               74.24161758               22.47071415              140.81077917              -36.02715418
              44.07866002                4.99641367               79.17152728                0.00010000               33.17063312              -24.67944486               24.90262100               12.32449656              123.37033652              -87.75540635
              45.42658908                5.36582613               74.89282845                0.00010000               37.54990665              -18.61852401              -20.04967431               12.39823497               99.34324327             -142.49311970
              46.82965816                5.91380430               70.30652031                0.00010000               51.65176674              -28.92530642              -66.39066848               14.40852057               59.09622014             -191.77201209
              48.45962441                6.43991984               65.22660784                0.41935258               62.99662573              -65.76780527             -121.63809166               16.19986087               31.49696339             -213.23784693
              40.18902985                6.00381885              110.31433742                1.00000000             -113.68890223             -101.04471112              378.82098151               -7.10475556               20.74950601              125.80658275
              40.05214082                5.72526684              104.83443393                0.38824052             -104.81011146              -72.81379489              329.33644341                9.77150453               43.68173774              151.99236140
              40.09282762                5.46415809               99.81670949                0.00010000              -82.22554360              -56.74160438              273.44739606               27.20304257               83.95052416              140.36306422
              40.40762995                5.31732893               95.17053131                0.00010000              -54.01058113              -47.04311039              213.61594726               39.60515010              108.79998060              104.01072779
              41.01261599                5.29307277               90.74003414                0.00010000              -27.32152778              -37.78431153              154.19733805               42.92252567              116.56246038               58.61045206
              41.86119940                5.37925977               86.38335372                0.00010000               -6.33326013              -26.71995049               97.57861654               40.41661277              112.67388935               13.00920634
              42.88595079                5.57286117               82.00832533                0.00010000                8.44903140              -14.27736465               44.44621079               36.95664822              102.86437916              -30.93160454
              44.03018002                5.88045116               77.55070876                0.00010000               19.49445858               -3.28288192               -5.68397095               36.23672040               88.68513587              -74.54797792
              45.27583996                6.29804232               72.93852440                0.00010000               31.93592296                1.53002886              -54.53418271               37.51685425               67.74441511             -116.71485994
              46.66889848                6.75448684               68.07532273                0.00010000               51.44074801               -4.90018224             -104.93635555               30.15717948               37.44011399             -151.29738075
              48.30465492                7.01814939               62.86306630                0.42008064               63.57564400              -22.82800934             -160.75659899               21.23573484               19.19521408             -168.60762713
              40.23659375                6.03610761              110.34377986                1.00000000             -100.74213661              -94.72394611              345.07116408              -10.39032084               11.53480287               85.72012057
              40.22917239                6.02340634              104.92032728                0.41478645              -92.84684308              -69.58069010              291.08416207               -1.67569991               23.41442144               99.41794469
              40.37965689                5.94278914               99.77095757                0.00010000              -74.89158914              -50.70012301              235.46488579                8.54322029               48.13826194               94.44237149
              40.73134060                5.92065904               94.86706725                0.00010000              -54.00336989              -36.64930698              179.10912142               21.73229909               66.89469897               73.83510306
              41.29958949                6.00474748               90.13009624                0.00010000              -33.21647695              -24.45852184              123.40570561               31.76610711               76.72955837               44.29584899
              42.06701107                6.20593650               85.47277141                0.00010000              -14.92357551              -12.22142932               69.45916665               38.26306285               78.48070365               11.25859793
              43.00111798                6.51998350               80.81831599                0.00010000                0.56011056                0.06009531               17.45344474               42.85157727               73.92447370              -22.71577272
              44.07821328                6.93075603               76.09997573                0.00010000               15.08862521               10.62532952              -33.35134647               46.37905103               63.80510020              -56.43973790
              45.30289049                7.39642671               71.25113871                0.00010000               31.72406967               16.63434085              -84.32989778               46.17810939               47.78211292              -88.09601602
              46.71269467                7.81580065               66.20394684                0.00010000               52.70617549               16.53359053             -137.47612011               33.23637009               25.80291205             -114.06333470
              48.35701400                7.98335966               60.90067482                0.42124529               64.43193276               14.21007941             -195.02996198               21.41132633               13.77109233             -129.62206761
              40.00662595                6.10933993              110.00181314                1.00000000              -89.46806665              -89.99760620              316.49952900              -11.51796398                7.68157600               52.86145812
              40.11194529                6.33365304              104.60881484                0.44591755              -82.00933147              -67.55587469              258.85746128               -6.01501356               14.41337699               59.98252523
              40.36643932                6.45015563               99.39177180                0.00010000              -66.58138439              -47.84335503              202.99426836               -0.60516550               30.28787885               58.32666859
              40.78031760                6.58434279               94.34131223                0.00010000              -50.18893261              -31.51788567              148.46341697               10.61332531               44.18351240               47.57479997
              41.36266067                6.80390234               89.41789048                0.00010000              -33.45464828              -17.15541824               95.21259813               22.16838817               53.60622979               30.20137201
              42.11122463                7.13483118               84.56583301                0.00010000              -17.22489314               -3.60584615               43.23156549               31.97101090               57.66425676                8.97708554
              43.01816281                7.57406307               79.72509962                0.00010000               -1.49534010                9.29880474               -7.79641317               39.54226985               56.29876169              -14.01352591
              44.08131783                8.09295775               74.83517258                0.00010000               14.80973600               20.73765193              -58.66285008               43.88546316               49.49728589              -37.23424829
              45.31435753                8.63072914               69.83515940                0.00010000               33.26875517               29.50995753             -110.66547260               41.93471322               37.16439851              -59.11465822
              46.74669294                9.08515865               64.66612309                0.00010000               54.17029554               35.97773587             -165.47687428               28.12061475               19.89754291              -78.06761326
              48.39776344                9.30235098               59.28448035                0.42238107               65.10705048               45.87019146             -224.86574064               17.38324591               11.15425730              -92.72725179
              39.55760826                6.23615548              109.36418557                0.94658492              -78.95518407              -82.97770436              286.05839984              -10.64078412                6.05557204               24.73667045
              39.76805642                6.67228885              103.98574535                0.36040115              -72.03722173              -62.03940550              225.24768016               -5.07016255               10.67968490               28.40101209
              40.11686382                6.98592204               98.73577568                0.00010000              -58.90980089              -42.41681957              169.72316095               -2.75502485               22.59287067               28.33235532
              40.58986040                7.29030133               93.61376769                0.00010000              -46.21974770              -25.00618956              117.15029398                4.16785322               34.36963870               24.05217643
              41.19246887                7.66163911               88.59854848                0.00010000              -32.67949262               -9.47667060               66.28836192               12.33365264               43.95372294               16.13260578
              41.93627055                8.13381958               83.65122377                0.00010000              -17.93160317                4.68997884               16.52354971               19.85451714               49.78606277                5.71283055
              42.83383681                8.70595959               78.72220386                0.00010000               -1.85070365               17.74871445              -32.77596735               25.76890897               50.89381229               -6.06796228
              43.89925647                9.34550907               73.75580122                0.00010000               15.77735246               29.67444744              -82.53389260               28.78462394               46.60830350              -18.19695386
              45.14938386                9.98662586               68.69236925                0.00010000               35.21143216               40.55051085             -134.06888218               26.57558524               36.35952487              -29.75814211
              46.60348512               10.53535537               63.46871554                0.00010000               56.04551960               51.51175586             -189.21283592               16.74200922               20.02270593              -40.16499883
              48.27029425               10.90076349               58.02630647                0.42337077               66.68091300               68.10949383             -250.16316046               10.90863395               11.66884510              -51.39908597
              38.92154354                6.44978584              108.47544403                0.95322270              -66.07680610              -78.63696423              243.58062120                0.70143627                3.81459501               10.48873255
              39.26077548                7.09286493              103.09630454                0.64299617              -61.41085933              -57.94239252              182.60720523                6.87357547                7.82164785               12.82199020
              39.69332635                7.60181923               97.82692014                0.36927458              -53.64089403              -38.41028095              129.94931756                7.21395641               19.44647897               13.04988957
              40.18795760                8.08421900               92.68322408                0.36323917              -46.37554393              -20.60823267               80.59115372               10.43720399               32.94234188               11.37001494
              40.76581547                8.61436892               87.65372509                0.36084094              -36.19815482               -4.72701889               33.05572855               14.55524790               45.51905526                7.86598282
              41.46399450                9.22863076               82.70602261                0.36253102              -22.19819855                9.48111746              -13.41863554               18.50581695               54.81589428                3.03380105
              42.32185150                9.92903736               77.79224334                0.36773613               -4.38252279               22.30777696              -59.55409207               21.69226669               59.04843043               -2.56467614
              43.37634404               10.68644670               72.85430330                0.37685662               16.70857173               34.09376320             -106.35669134               23.34385650               56.96151103               -8.41615857
              44.65602294               11.44173935               67.82736116                0.39044885               39.55257248               45.51134948             -155.27093517               22.11126114               47.67592809              -14.07060928
              46.16739549               12.11539377               62.64107930                0.40914714               61.45484758               58.00383970             -208.30985139               17.53111280               29.45671075              -19.25998567
              47.88511989               12.66454086               57.19618868                0.71203390               71.77243941               76.37773740             -269.05740823               16.39727322               19.11279340              -27.55956003
              42.99197525               12.17151472              115.00753495                1.00000000             -215.49342283             -236.03817167              766.54993609                0.29516994              168.20115928              -11.70111647
              41.83704102               11.49004390              108.67486160                1.00000000             -186.64974895             -243.71561089              773.37715172                9.32923430              318.32692626               18.24614222
              41.25898027               10.64792489              104.78666931                1.00000000             -112.21012213             -234.12808944              656.13226603                6.09654240              487.49662237               31.79298459
              41.59283858                9.72379162              101.98888958                0.67616322              -25.53165561             -215.32517350              522.12719747                2.70106746              479.06197202               43.18736499
              42.74834716                8.78190501               99.18433517                0.48610531               48.02359495             -196.56650217              403.43474437               -0.95519877              369.58313452               41.86824526
              44.55331048                7.83168699               95.87559485                0.14794086              106.17458431             -177.30713342              302.22688029               -6.47267023              250.99077620               32.48615552
              46.87183884                6.97753514               92.12991117                0.00010000              150.24818212             -158.10570426              213.79305601               -2.51614170              167.59581587               19.83049463
              49.55827412                6.38336850               88.25143191                0.00010000              171.08287761             -141.31452670              134.97550592               10.84719944              125.53236928                4.12959533
              52.29349640                5.95321545               84.50495500                0.00010000              170.26609460             -114.86835495               67.62557545               -3.78134114              119.19698895               -5.60808293
              54.96359601                4.47420616               80.99099741                1.00000000               82.96925401               -5.04804534               17.35298359              -23.19263422               59.75817684                5.78570108
              55.95288148                3.35272760               76.23254961                1.00000000               -1.07145353                3.92611044              -10.21533134               -4.01593485               -2.33825184               -5.71728527
              43.67639777               10.81113301              114.30189906                1.00000000             -198.42694913             -233.83147700              731.87874015               -2.69354085              127.40524651               60.47601606
              42.69212828               10.05288779              107.96278695                1.00000000             -173.66629676             -237.59034050              736.98133864               13.49116917              279.21454087               94.00286438
              42.20307184                9.30664400              103.81381787                1.00000000             -106.96345427             -228.41672942              628.10059297               23.77372638              446.37536360               96.17250490
              42.55285919                8.57053988              100.79874214                0.85950534              -25.91121777             -211.73638045              494.46907378               23.26085999              453.57547830               86.89354577
              43.68484748                7.81623998               97.88180162                0.71758568               41.89547571             -193.21506363              387.85960831               14.75691707              366.56231286               74.73810873
              45.39076871                7.05861566               94.57345584                0.38185063               94.29945955             -174.71054177              292.99808564                5.87847130              267.64130055               54.54883924
              47.57083667                6.39647810               90.91769221                0.00010000              139.40686241             -157.76371167              205.23443690                6.51128295              198.63003173               29.27314522
              50.17890596                5.97022324               87.18661498                0.00010000              181.97137415             -144.56399974              129.35361082               21.36416234              172.14959463                8.09974215
              53.21026415                5.80453190               83.70322081                0.00010000              192.65038198             -128.55678130               65.05182336               32.60614999              167.80737579              -11.92779801
              56.03191360                5.42372571               80.55043051                0.91955433               91.19682693               -4.64021351               12.99650339               31.15760218               82.42145215                6.29161698
              57.03420069                4.39198870               75.74176409                1.00000000                0.22870967                5.04514398              -14.34299818                0.12625925               -0.37815390               -6.33331936
              44.45459486                9.49488518              113.99092931                1.00000000             -184.32414478             -220.91081776              679.78507641               -4.25875772              112.50972403              167.36066605
              43.61135341                8.73823709              107.77475516                1.00000000             -161.88960770             -215.48374934              676.18471395               19.14206031              245.07166511              197.67425123
              43.21680271                8.07959030              103.45378986                0.00010000             -103.14468128             -207.39444975              581.36313057               37.33373897              398.35604187              173.96041487
              43.54845979                7.48906401              100.15443793                0.00010000              -33.06964941             -194.44405294              469.73210751               39.07083704              417.18231133              131.86660331
              44.55540972                6.91760373               96.99274520                0.00010000               27.10910016             -179.31127084              375.01453412               25.37624431              344.91443840               88.81796343
              46.09064179                6.33747616               93.52063831                0.00010000               76.75236028             -162.60516505              284.56670413                8.00305821              259.03461298               50.63697105
              48.09045693                5.82226090               89.76495455                0.00010000              124.34308837             -147.89056474              195.52739195               -2.60504776              205.61267040               15.04999780
              50.57750356                5.49208851               86.01480103                0.00010000              170.08299985             -140.04969696              119.85431446               -8.10305979              198.33941032              -18.05622547
              53.49211692                5.38207983               82.56566588                0.00010000              221.08938483             -127.88752064               70.41101909               25.73332443              250.07741543              -23.99063182
              56.99929126                6.38140189               80.10820281                0.00010000              126.33818771              -89.25317877               10.25733693              -71.74305164              123.30401190             -101.02231287
              58.01888068                5.45363048               75.25372164                0.51908696                1.95894208               23.64919695              -21.68721682             -146.15828150                3.35274157             -132.51865862
              45.10451880                8.39291665              114.27943250                1.00000000             -161.42544356             -187.30576421              581.97991101               -6.10442852               84.44096429              226.17776089
              44.49026437                7.74321280              108.15463177                0.49349664             -145.27995520             -175.99851181              570.16854729               17.88273375              187.66502591              257.20224610
              44.19891970                7.15875500              103.51613957                0.00010000              -99.70009321             -167.65389825              493.37176602               37.89185187              310.82943905              212.86297857
              44.49626250                6.68165882               99.73096828                0.00010000              -42.74797419             -158.60480566              409.12410251               41.13817219              336.47695916              140.30202237
              45.34396022                6.23001457               96.12739625                0.00010000                7.49550992             -147.06270447              326.83042389               28.49166825              294.12396307               76.50757816
              46.64617270                5.80651236               92.33850550                0.00010000               51.00815754             -132.60166729              244.63405476                9.73603188              234.96420352               25.04628506
              48.36412337                5.43866680               88.37402765                0.00010000               90.54265691             -118.51412311              163.51111985              -13.08778020              198.30549445              -19.02785755
              50.45702584                5.16922930               84.44142610                0.00010000              123.57469466             -108.47168107               94.58331350              -34.70045204              214.98168285              -60.79075892
              52.83561726                5.24678149               81.01110349                0.00010000              103.42380365              -96.45530472               49.18586807              -64.16862502              264.85135254             -119.50515978
              54.52550191                5.63866213               77.50920140                0.00010000               56.54803178             -126.25896272              155.70453663              -99.87240734              273.11751739             -177.70969421
              55.96657789                6.86497264               72.26945249                0.41178396               44.10759819              -40.36901582              106.76354500              -33.53452797              143.60346674             -317.99107199
              45.63191399                7.74876990              114.77830005                1.00000000             -142.87442456             -147.34154660              489.93215212               -9.54037164               55.94646582              224.77589236
              45.20316974                7.21826685              108.72499181                0.37796303             -129.78601286             -132.23509680              463.15068513               10.06283566              120.20697596              250.20696554
              45.03619373                6.72651234              103.70187197                0.00010000              -95.16030371             -121.98355867              403.62552225               27.47539712              207.35323413              209.06928859
              45.29996367                6.31696789               99.33224565                0.00010000              -51.79020900             -114.07920908              331.37194749               32.99246091              239.76150150              137.54398968
              46.00038955                5.97634964               95.18708727                0.00010000              -11.16267345             -103.66051344              260.64573223               26.42489047              226.24825474               66.77619537
              47.07671020                5.68544281               91.00699728                0.00010000               23.27974171              -90.77685529              188.42912448               11.55603714              195.94975907               10.91894019
              48.46598438                5.45197844               86.74678858                0.00010000               49.93348165              -76.79850856              118.35899402               -9.69443566              176.46811600              -36.93574511
              50.07537983                5.32265489               82.50618295                0.00010000               63.66636015              -62.23060747               60.02998017              -32.39630463              175.28101163              -91.88118870
              51.73931159                5.45297373               78.30633823                0.00010000               65.41360642              -56.86037036               24.95421414              -57.23732351              167.75856053             -178.52784972
              53.38365196                5.85622264               73.82688627                0.00010000               57.81287592              -56.05610501              -16.25030089              -38.55377616              118.35816651             -269.86509526
              54.89556910                6.64625016               68.51020589                0.41273027               51.19171459              -93.23850727              -48.28983594              -11.29829704               88.05709234             -289.92621316
              45.97471746                7.44608572              115.10494508                1.00000000             -126.09388179             -119.57874017              424.07361089              -10.56180107               30.95809809              188.45826495
              45.71377864                7.09851087              109.12067233                0.38525475             -116.24954293             -100.73636139              387.89956969                2.69136947               68.67640788              208.65666088
              45.64972660                6.71908383              103.76792295                0.00010000              -90.37521144              -87.78529499              333.20503740               14.47923782              125.66015539              180.63322469
              45.90627441                6.40007464               98.88666630                0.00010000              -57.28717482              -77.11624467              268.53057398               22.27050771              156.14506396              126.52406432
              46.50398311                6.15680430               94.24734629                0.00010000              -25.23048838              -66.30617925              202.43602751               22.36062867              161.06714641               67.02838903
              47.40166465                5.99097525               89.66375095                0.00010000                1.45197362              -53.80300082              138.84186532               15.81174196              152.16391971               13.18452665
              48.53302258                5.90269663               85.06418185                0.00010000               20.32199060              -39.67844698               79.33990797                4.79413943              141.52453174              -36.91596542
              49.80810446                5.92461715               80.43520546                0.00010000               31.21402302              -25.86827331               26.53251989               -5.87585216              130.27800493              -93.41189275
              51.15730304                6.10957408               75.69739040                0.00010000               37.65227512              -19.49169426              -20.85056801               -7.82335331              108.05614530             -158.66203075
              52.56114996                6.51754003               70.64286929                0.00010000               50.16269356              -23.42407163              -64.24980628               -5.67619630               64.30292058             -218.54248772
              54.16055691                7.00020250               65.00800382                0.41356833               59.94069487              -53.06184352             -113.76951950                3.90976644               32.28996769             -244.63858853
              46.11582767                7.35719510              115.12454489                1.00000000             -113.18286448             -104.34493252              381.89211556              -12.00652534               17.23398846              151.20443225
              45.98399902                7.20353963              109.17003104                0.41585550             -104.58064763              -84.41748087              336.38576293               -3.75119574               37.75779328              160.96959508
              46.02421471                6.97080644              103.60300460                0.00010000              -83.81728363              -68.37948675              282.04641949                4.50829978               73.97820709              143.64968920
              46.30765335                6.77464300               98.36104079                0.00010000              -58.37566020              -54.95896885              222.35004769               14.05518943               98.81934218              107.58435602
              46.85670151                6.65022606               93.32702330                0.00010000              -33.03003215              -42.15762221              161.21230336               19.40812150              110.16931816               63.49191175
              47.64705271                6.60938280               88.38960247                0.00010000              -11.42381167              -29.09326707              102.11860298               20.61724263              111.40208552               17.92434994
              48.62822528                6.65840950               83.46703764                0.00010000                5.19663142              -15.55174924               46.49621357               19.55024561              106.24901327              -28.55783354
              49.75098533                6.80528942               78.49395788                0.00010000               18.08481789               -3.38803071               -6.16489552               19.97192796               94.99247292              -77.56393638
              50.98992163                7.06313985               73.38379865                0.00010000               31.42571429                3.37403735              -56.46426866               22.87643972               74.82435336             -127.42421669
              52.37949962                7.38774121               68.01818714                0.00010000               50.92589381               -2.32032427             -106.47055056               20.53036064               42.17728993             -168.93305566
              54.00843951                7.58501329               62.26136261                0.41463310               62.89398905              -22.20441360             -158.85610546               16.76630797               22.53173412             -189.46112020
              46.04189789                7.35918707              114.81603281                1.00000000             -101.67545064              -96.89691406              350.41908739              -12.15155627               10.67570712              115.38570538
              46.02514339                7.41016125              108.86769520                0.44394369              -93.65543346              -76.84213916              298.61786922               -6.68176665               22.28696399              117.57232578
              46.16878922                7.35149409              103.16730034                0.00010000              -75.85924031              -58.88443057              243.38159121               -1.54442980               45.81662851              106.49595902
              46.50795858                7.30089526               97.69574953                0.00010000              -55.56917421              -43.40542692              186.00510493                8.28198654               64.97009369               83.68732825
              47.05740574                7.31365185               92.39181813                0.00010000              -35.10662624              -29.02729675              128.45181924               17.13688816               76.95231315               53.22122468
              47.80582606                7.40910991               87.18195254                0.00010000              -16.46424372              -14.91204921               72.08855478               23.63136289               81.67750905               18.46866274
              48.72812087                7.59166164               81.99413650                0.00010000               -0.15066905               -1.18059003               17.45810252               28.76997502               79.63571107              -18.82083062
              49.80281267                7.85685653               76.75575485                0.00010000               15.21295916               10.85057909              -35.64217021               33.31889441               70.78906834              -57.57504588
              51.03238005                8.17705483               71.38907947                0.00010000               32.35355277               18.17010913              -88.19175602               35.31956066               54.32933110              -95.39232428
              52.44988373                8.47113355               65.80772216                0.00010000               53.44794258               18.64490812             -141.57243436               26.61933450               29.97933478             -127.98919270
              54.10133890                8.55611422               59.93349149                0.41569649               65.14551700               15.11987849             -197.73261839               18.19812863               16.20560660             -149.00758310
              45.77084818                7.41925681              114.19723485                1.00000000              -91.27915116              -91.48957672              323.29124783              -11.47970716                8.46982045               81.14643060
              45.85805666                7.66669684              108.23269582                0.47823979              -83.41280354              -72.00173165              266.43015122               -7.13594890               16.05204938               78.56914998
              46.10259211                7.79311783              102.45504995                0.00010000              -67.34606738              -53.24308025              209.96335206               -4.08999185               33.24054281               71.59228933
              46.51113532                7.90653446               96.85260667                0.00010000              -50.56837405              -36.37279309              153.95268737                4.45143391               48.50408038               58.20005086
              47.09122462                8.06968012               91.38660441                0.00010000              -33.47325718              -20.80668241               98.60956662               13.97439413               59.53371599               39.13731223
              47.84167017                8.31114181               86.00272214                0.00010000              -16.76732353               -5.86331740               44.20150258               22.58734145               65.19468297               15.92701517
              48.75587815                8.63479770               80.63922798                0.00010000               -0.48500680                8.44954311               -9.32043322               29.74011790               64.95005305               -9.98347640
              49.83197004                9.02230100               75.22949644                0.00010000               16.30788394               21.19617121              -62.47600080               34.56567364               58.24593176              -37.10198472
              51.08203583                9.42654203               69.70097629                0.00010000               35.04284394               31.07644490             -116.21243131               34.25463570               44.57742601              -63.70461677
              52.53282692                9.76063937               63.97949474                0.00010000               56.02024503               38.10652310             -171.88286700               23.51892420               24.28780512              -87.82766017
              54.20244073                9.88741086               58.00462868                0.41646877               66.96138171               47.36931011             -230.95377648               15.18045111               13.62345370             -107.63568778
              45.31742369                7.52939553              113.25646221                0.96659579              -80.88602954              -84.98138129              293.52036079              -10.09323613                8.93258184               43.90285389
              45.50856340                7.97012662              107.27036508                0.39042549              -73.51359623              -65.29008416              232.78614884               -4.73838659               15.58018312               40.39703487
              45.84715177                8.28663249              101.46065107                0.00010000              -59.40692188              -46.20149946              176.19090173               -3.31171485               30.92853216               37.16965602
              46.32042496                8.57343940               95.80508909                0.00010000              -45.74327482              -28.55583851              121.86324265                2.03355503               44.70456979               31.17757157
              46.93228627                8.89751821               90.27106588                0.00010000              -31.39848267              -12.26873164               68.81142705                8.68271953               55.65417415               22.03751750
              47.69245531                9.29184356               84.81452776                0.00010000              -16.02611199                2.94006999               16.60168004               15.10133341               62.44409730               10.30270688
              48.61176403                9.76065251               79.38072663                0.00010000                0.49632574               17.16432663              -35.19228702               20.48978678               63.86700077               -3.20087293
              49.70238182               10.28077996               73.90591520                0.00010000               18.36851827               30.25781259              -87.24827098               23.66425129               58.87002838              -17.56255178
              50.97913440               10.79858373               68.31846936                0.00010000               37.85057810               42.14909766             -140.63797865               22.41560068               46.39315167              -31.78681931
              52.45939338               11.23326401               62.53763757                0.00010000               58.61352705               53.76047307             -196.97596868               14.33785654               25.82371485              -45.21801238
              54.15140494               11.50350043               56.48347403                0.41751948               69.20115553               70.10040568             -258.29017605                9.71463800               14.79729259              -60.47681018
              44.68752129                7.71962919              111.94277088                0.96290643              -68.14693068              -80.97663459              252.15634168                1.13635647               12.08939716               22.25712866
              45.00605198                8.36089516              105.95339196                0.65561665              -62.72381307              -60.92314582              191.09987813                7.22179060               18.87653783               19.10660114
              45.43304502                8.86908784              100.15302600                0.36856485              -53.25656407              -41.75446511              137.27851384                7.31545226               35.11141646               17.66014574
              45.94092070                9.33541769               94.50812832                0.36304211              -44.32850860              -23.80217098               86.08462683                9.81045661               50.47421268               15.05039846
              46.54647485                9.82430549               88.99312536                0.36095644              -33.01790786               -7.32127150               36.23223439               13.14513414               64.21923136               10.89619508
              47.28056254               10.36994321               83.56891650                0.36244445              -18.48686793                7.80996486              -12.85383292               16.49966064               74.25676675                5.38067136
              48.17673749               10.97808423               78.18165595                0.36720780               -0.66193494               21.74317281              -61.66045163               19.37304838               78.57531337               -1.10217884
              49.26732384               11.62745725               72.76465375                0.37527241               20.05631496               34.66772966             -110.91444237               21.06618948               75.45177623               -8.08076555
              50.57786379               12.26952398               67.23987953                0.38779964               42.36717533               47.09402545             -161.77516317               20.29251836               63.39793025              -15.10456636
              52.11466735               12.83584883               61.51764539                0.40453478               63.91984347               60.25848189             -216.04154191               16.52214615               39.49057369              -21.86451013
              53.85626066               13.28941897               55.46238620                0.70905968               74.15933139               78.59185479             -277.32742403               15.84258686               25.26512253              -33.22975459
              50.44339508               13.18867113              122.95114385                1.00000000             -181.23681867             -191.26998032              638.45752303                3.46006952               82.53058834               23.94679287
              49.63102689               12.74020984              116.80706961                1.00000000             -165.67990450             -203.01195571              657.56245866               18.47071400              187.02132673               33.61602671
              49.12979699               12.22806809              112.12120189                1.00000000             -126.41104419             -203.38406504              588.10052214               23.73279303              319.10610966               48.25604238
              49.10280601               11.64326519              108.31226751                0.68339153              -76.21642120             -201.04961737              495.72348661               18.26966620              339.35248394               74.62903192
              49.60546856               10.79082986              104.35770454                0.49605597              -17.63405469             -182.76320982              389.42970184                0.72589312              269.30003129               77.59384471
              50.75012491                9.67427831               99.98289889                0.16392358               46.58876880             -164.16830427              291.63408657              -12.05243891              184.70807292               62.21714559
              52.53724394                8.55012509               95.32574598                0.00010000              101.85824960             -151.20505704              205.51659110              -12.92054724              115.03495958               38.32581917
              54.78728991                7.59351879               90.62054404                0.00010000              136.58449873             -131.12235172              123.36360601               -0.08731649               80.68972894               10.81147370
              57.26893392                6.73557927               86.16524720                0.00010000              152.43547652             -101.77929451               59.90686202              -21.58423058               89.82191157               -3.81192678
              59.83599944                4.99695962               82.15658624                1.00000000               77.89620428               -4.33064112               15.02071777              -32.18793240               47.87193684                5.56734315
              60.82685800                3.80950831               77.13447694                1.00000000               -0.91414357                3.22244301               -9.10099973               -3.41176821               -2.58974238               -4.52282375
              50.92645706               12.27597133              121.73393421                1.00000000             -163.04215094             -192.52190525              591.71760478               -3.74000323               75.63615360               84.23450083
              50.29603555               11.71009029              115.58629922                1.00000000             -150.54299088             -199.23423959              609.84180914               15.65079827              175.92538507               94.15139861
              49.91559724               11.19422744              110.83977747                1.00000000             -114.59568826             -204.87212379              568.56313581               28.79392009              312.57787990              101.95940133
              50.00412179               10.63276902              106.89769060                0.87364341              -65.91881538             -203.04446198              527.79156434               31.36612365              347.67846070              123.53700581
              50.59722094                9.96319776              103.03460702                0.73295254              -12.70844387             -194.47696561              436.92624125               14.32994600              287.56816575              120.97498236
              51.74995291                9.03259527               98.73692065                0.40781319               42.55986454             -175.74419388              333.73680865               -9.22970428              203.04734036               92.78248235
              53.44841823                8.03807452               94.12604194                0.00010000               97.18683711             -157.32093296              242.93240921               -9.67834244              147.51861095               53.77481599
              55.69368965                7.28229528               89.56612307                0.00010000              145.14764833             -140.94340177              152.80927774               12.00296797              125.53198786               20.19179175
              58.35137119                6.71778632               85.37381951                0.00010000              164.17329700             -104.04657252               65.48869427               30.69301018              131.01846380               -5.11639054
              60.97715559                5.95365321               81.67120395                0.87061190               81.44102206               -3.62974422               11.30971747               16.52209994               68.72286070                8.08610711
              61.98019164                4.84173274               76.61284866                1.00000000                0.30360430                3.11347134              -12.19153048                0.35575758                0.83575428               -8.14950315
              51.50035710               11.33823303              121.02981606                1.00000000             -147.45703523             -190.00505398              559.87391876               -6.33221352               69.44123318              159.36131856
              51.02578675               10.75552505              114.89148327                1.00000000             -135.86802202             -188.19482099              565.27500714                3.74796465              163.28716229              162.83252847
              50.78299666               10.13062562              110.04080583                0.00010000             -103.23142913             -193.78044825              532.10930419               18.26290412              302.47252449              152.20522056
              50.96115816                9.58237595              106.03847460                0.00010000              -64.53777110             -198.74160431              507.11786573               20.59114221              345.88031652              114.80640114
              51.49224124                8.90129055              102.09359421                0.00010000              -23.52520465             -194.06611069              455.35244179                7.47540952              291.47460668              110.47850493
              52.49065407                8.15939443               97.67295011                0.00010000               30.08679246             -177.15151184              353.93183104               -7.49282197              206.25182838               72.24562708
              54.09397709                7.40370643               92.91372122                0.00010000               92.84916957             -157.35860487              240.81939328              -16.46988665              155.29000111               11.60207307
              56.34763746                6.77465076               88.29211705                0.00010000              155.87295485             -142.24643418              145.22867854                2.44685341              152.95217073              -27.12744351
              59.21143618                6.65464782               84.29104504                0.00010000              184.74287789             -127.40464607               67.33800878               49.37448332              209.62542523              -38.69899228
              62.04249502                6.92436474               81.21819531                0.00010000               92.31889604               -1.61190232                8.49747743               66.08420028              103.64277160                9.68444348
              63.05781410                5.87177773               76.02751925                0.40621908                1.53190834                0.84942661              -16.87114468               -0.08420268               -3.01555820              -17.58468124
              51.96522874               10.47587025              120.70508615                1.00000000             -138.66264840             -174.84348956              512.92798592              -15.28507737               54.43198415              204.30968680
              51.57860226                9.94619387              114.50031263                0.51279782             -125.56121582             -166.35200469              507.26398192              -10.99564875              127.67891263              203.27644570
              51.45400443                9.31861848              109.34732557                0.00010000              -96.66612779             -162.60650839              461.02879271              -10.19891476              235.27119217              164.21927501
              51.64527970                8.65793693              104.96440474                0.00010000              -64.21468891             -164.00691389              416.62521867               -5.01116392              295.53281469              105.20656372
              52.16971065                8.08187555              100.63869118                0.00010000              -27.37995575             -157.25331011              390.12598916               -1.46943721              261.52819652               43.16108650
              53.09768059                7.48956503               96.01200087                0.00010000               16.70267618             -142.87879455              300.84856706               -9.69399322              182.15743482                3.43541799
              54.50376417                6.89090242               91.14040884                0.00010000               69.70023729             -125.09116053              178.74385015              -21.16921030              155.50200378              -30.35727111
              56.49168533                6.43736659               86.43634753                0.00010000              134.26913538             -111.60069139               95.80387364              -38.93952332              177.52883856              -73.86905154
              59.18914688                6.16969340               82.27559957                0.00010000              229.50121734             -112.05394634               31.72861535               12.61730835              333.65450936             -125.96752270
              63.08170968                7.92141517               80.74230286                0.00010000              144.72673568             -106.11707872              111.96898174              -86.76748522              350.52106096             -188.61347510
              64.08368159                6.85872127               75.34414594                0.40658053                0.19719125               -3.76739126              103.55254566             -187.79052479              135.28702207             -322.86610229
              52.25400832                9.84136324              120.52875766                1.00000000             -129.08827707             -149.79739799              462.16855179              -19.08465070               36.62993000              213.34777378
              51.96312555                9.42848496              114.26430340                0.40300016             -119.33665096             -136.92088190              441.25887259              -16.84191156               83.60698086              212.14660034
              51.86727530                8.87849545              108.71121728                0.00010000              -93.27238647             -126.47326854              391.12528845              -20.26922169              154.86623012              169.35237645
              52.09767782                8.30223768              103.69205272                0.00010000              -61.80254515             -114.73647690              330.80665360              -17.79602877              195.05705040              104.87429601
              52.63122439                7.75622434               98.90506739                0.00010000              -30.49652422             -106.04050438              267.55699190              -11.14008454              196.54584480               37.21726677
              53.48774733                7.30181854               93.99019678                0.00010000                4.57834628              -93.40720825              199.80868468               -9.35558419              172.61727377              -10.48494773
              54.72279132                6.90188322               88.97261076                0.00010000               40.11543420              -77.19700038              125.44147859              -22.03666184              156.36366505              -44.91555435
              56.29005602                6.54263693               84.09844513                0.00010000               62.84712280              -64.84828552               59.19521005              -46.44940465              168.84975251              -98.25436408
              57.97973378                6.41356889               79.56754652                0.00010000               66.40307151              -52.72841546               19.53937569              -77.48562486              160.28536062             -178.90647885
              59.61811745                6.80202316               74.59397397                0.00010000               72.38288126             -128.48807429               -8.86414925             -144.68727526              112.11035926             -380.16505983
              61.42739140                7.79642991               69.03441913                0.40748529               80.92739547              -53.13649551              -26.98625203              -85.98566915               97.90967325             -422.77550217
              52.40929228                9.47992229              120.32109765                1.00000000             -120.46604677             -126.22717364              418.76598844              -17.77815625               21.34019912              199.92876349
              52.20463182                9.20777623              113.99293575                0.41224096             -111.72125043             -111.54245433              384.73568861              -16.25288744               48.77938158              195.37375883
              52.17486727                8.78915311              108.11694609                0.00010000              -89.65007919              -97.03604832              332.73780492              -16.52310614               92.99426759              163.00553333
              52.41163023                8.36320740              102.60379632                0.00010000              -61.37695923              -82.11524272              270.82796932              -13.28836867              122.24297256              112.44441422
              52.94732809                7.96106546               97.30234482                0.00010000              -32.33601016              -66.88925898              203.87047407               -9.27851212              134.24816349               58.04776610
              53.76491003                7.62142087               92.07914227                0.00010000               -6.25577712              -54.11366815              140.29057056               -7.63118085              134.89418746                9.37059324
              54.82221255                7.34696241               86.87330342                0.00010000               14.30507701              -41.50666873               82.34379053              -14.86178324              132.71540598              -38.97203537
              56.05101157                7.14040088               81.70217767                0.00010000               27.89177993              -26.70069437               27.04937161              -25.43124316              126.30946525              -97.33673054
              57.38004815                7.11512509               76.47581709                0.00010000               37.70457932              -17.78499858              -21.93581013              -26.01916008              108.30956970             -176.24828042
              58.80510316                7.35165368               71.02152418                0.00010000               49.75532876              -29.55251547              -63.27621961              -15.11854267               66.82129969             -241.64439463
              60.37515472                7.79599136               64.95121745                0.40830754               57.00515664              -74.64952938             -100.67694804              -13.48886924               35.47774432             -287.53512180
              52.44273731                9.31681976              119.95217973                1.00000000             -111.39003308             -110.43952685              384.97597342              -15.04384791               12.29521560              174.03017036
              52.32883698                9.19763587              113.56214919                0.44406833             -103.06776522              -94.77940751              341.27771164              -13.00164814               27.77750652              165.96244230
              52.38138201                8.93777448              107.45763788                0.00010000              -83.44194457              -78.42450678              287.31804727              -12.23175980               56.69142950              142.17149748
              52.65999809                8.65993282              101.61753226                0.00010000              -59.69706639              -63.01838369              227.09699187               -6.23704321               79.65183973              106.98440778
              53.18744068                8.41843916               95.96428020                0.00010000              -35.53856652              -47.57372962              165.64512987               -1.76414912               94.37155394               65.41827130
              53.94922676                8.21954518               90.42572578                0.00010000              -14.04325201              -32.96153922              105.33962202               -0.66782386              101.88650179               20.29445638
              54.90657564                8.07174984               84.93824961                0.00010000                3.20208570              -18.77929308               47.41254388               -0.65523959              101.90880570              -28.32646732
              56.01326847                8.00862304               79.42741085                0.00010000               17.07610675               -4.83421648               -7.11113479                1.70795894               93.98050949              -82.71652647
              57.24809778                8.05786892               73.80923902                0.00010000               31.08059249                2.81387480              -58.70114615                7.99057306               75.89281760             -140.11386075
              58.63488032                8.21097285               67.94591172                0.00010000               51.04204413               -2.84722423             -107.68949831               10.41683000               43.92838420             -193.79006876
              60.26893866                8.30343932               61.68594419                0.40939894               63.40583338              -26.80247155             -155.91203577               11.96828474               24.55702527             -225.88001058
              52.34678311                9.27113175              119.35216161                1.00000000             -102.31389727             -101.24903137              357.71110155              -12.77621189                8.56231326              142.91532921
              52.32364414                9.31218808              112.89268467                0.47516124              -93.94239894              -84.76348562              306.38676636              -10.20672958               18.02688773              131.09954405
              52.46793513                9.22066297              106.63858940                0.00010000              -75.87097247              -67.45619023              250.43017384               -8.96955196               38.50791215              113.31047092
              52.80622469                9.10283972              100.58716934                0.00010000              -55.77511897              -51.04642854              191.86962250               -2.61127214               57.17701458               88.45340260
              53.35243275                9.00959087               94.69913263                0.00010000              -35.39909072              -35.55191650              132.58030514                3.75646017               70.93286645               57.74773666
              54.09824287                8.96219008               88.91454251                0.00010000              -16.62014281              -19.93744588               74.12951330                8.75268231               78.43213654               21.93732737
              55.02002989                8.97137655               83.16747804                0.00010000                0.04044010               -4.19732138               17.20890955               13.26701995               79.21531273              -18.41163524
              56.09905167                9.04371655               77.38713233                0.00010000               15.87399505                9.60673348              -38.24407713               18.56228594               72.39501586              -61.87465218
              57.33750980                9.17140259               71.48730359                0.00010000               33.44088390               18.46889967              -92.47885695               22.94013116               56.85156930             -106.37205868
              58.76786935                9.29470920               65.37249815                0.00010000               54.60388451               19.38585950             -146.16192172               19.12278337               32.09067140             -147.09588708
              60.42958749                9.25994193               58.94602245                0.41029847               66.17181332               14.81076792             -200.50590828               14.07457235               17.90386271             -177.01421219
              52.10510042                9.29183914              118.46763810                1.00000000              -92.99292486              -95.12276129              331.98825638              -10.86374481                8.48898239              106.64353480
              52.17517117                9.50236616              111.93741787                0.51196326              -84.68805481              -77.63273339              275.04013740               -7.56806893               15.77339457               93.15141650
              52.41133933                9.58865068              105.59103884                0.00010000              -67.81632110              -59.46619271              217.38739078               -6.52932936               32.87815466               80.30927276
              52.81884475                9.63900425               99.42036597                0.00010000              -50.40599016              -42.22543051              159.56658985               -0.69687687               48.69785270               64.22962653
              53.40321952                9.70740083               93.39008181                0.00010000              -32.81750157              -25.68611772              102.05271504                6.27364726               60.90209211               43.69612938
              54.16249472                9.82079626               87.44986307                0.00010000              -15.64149769               -9.42553583               45.19035656               12.88257246               68.06440354               18.95698575
              55.09038957                9.98780342               81.53869096                0.00010000                1.09967180                6.40688030              -10.92808880               18.98604699               69.07953475               -9.27339331
              56.18448816               10.20075771               75.58565256                0.00010000               18.27590925               20.76920901              -66.53731205               23.96530660               62.96585650              -39.95710545
              57.45590775               10.42724691               69.51091077                0.00010000               37.21542464               32.02918200             -122.24331600               25.29735299               48.89948867              -71.38622397
              58.92879665               10.59869004               63.22846575                0.00010000               58.20284424               39.90676394             -178.93808702               17.97465801               26.99879205             -101.70741891
              60.61996464               10.59965468               56.66540482                0.41100746               69.11679895               48.67639132             -237.61111532               12.34544720               15.41430073             -128.65713110
              51.70845417                9.36867653              117.23459278                0.98997925              -83.29829483              -88.47640330              303.43640074               -9.06486605               10.98182465               61.06661033
              51.87547122                9.75953341              110.64146833                0.42291477              -75.38718569              -69.67114857              242.39194665               -4.22287354               18.85417203               49.90183363
              52.20071045               10.03133912              104.25959371                0.00010000              -60.09671123              -50.91891887              184.24315195               -3.58616567               36.57136834               43.14840505
              52.67353699               10.25833111               98.05103254                0.00010000              -45.22983835              -32.99278700              127.74682619                0.15135668               51.74795290               35.35523253
              53.29611368               10.49586851               91.97477702                0.00010000              -29.90226268              -15.96134837               72.18225425                5.07703272               63.70691046               25.16310608
              54.07549174               10.77367937               85.98325737                0.00010000              -13.81621499                0.33352248               17.26297436               10.08750815               71.29212698               12.43018680
              55.01978938               11.09951416               80.01835812                0.00010000                3.17112859               15.86658631              -37.29211172               14.63261575               73.13489499               -2.44818059
              56.13891431               11.45910073               74.01083580                0.00010000               21.28675684               30.32982918              -91.96005131               17.75699499               67.85050521              -18.75809875
              57.44552452               11.81198623               67.87960968                0.00010000               40.80202164               43.47903879             -147.53226630               17.44129435               53.92067525              -35.63578117
              58.95495474               12.09284447               61.52919617                0.00010000               61.45213197               55.96989389             -205.31790995               11.36935874               30.24090284              -52.50950215
              60.67456716               12.23346975               54.86050295                0.41177589               71.96124173               72.12333759             -267.04328016                8.11133119               17.40245893              -72.85542816
              51.14208933                9.52231107              115.51857086                0.97436248              -71.40382179              -84.63654572              265.09442064                2.02672869               19.28564581               32.68961715
              51.42805112               10.10894319              108.91830211                0.66924434              -65.06355103              -65.05902230              203.63766244                7.65605135               28.26205444               24.06884393
              51.84081831               10.57027230              102.57249042                0.36778440              -53.53543127              -46.10668159              147.97532300                7.52105232               48.09941996               20.80616481
              52.35734249               10.97914851               96.40491661                0.36282150              -42.57031947              -27.91826005               94.31168607                9.27562814               64.67706021               17.24825264
              52.98941192               11.38817387               90.37836978                0.36106781              -29.83716263              -10.76946449               41.60759049               11.74573399               79.11439888               12.52731239
              53.76059924               11.82746671               84.44894595                0.36220447              -14.58957028                5.37873461              -10.56987925               14.35881371               89.65805943                6.50205880
              54.69762052               12.30513514               78.55903430                0.36663095                3.32783745               20.56209850              -62.52956926               16.77749255               94.17063962               -0.64451237
              55.82715599               12.80735429               72.63601446                0.37422271               23.66846907               34.82535631             -114.73997097               18.40879488               90.55176530               -8.58877230
              57.17098990               13.29682769               66.59185790                0.38506375               45.37721548               48.48414600             -168.04194509               18.08321923               76.71658501              -16.93883566
              58.73470030               13.71808792               60.32024846                0.40000851               66.49754014               62.52434488             -223.90817423               15.23924255               48.39096697              -25.45126147
              60.50094070               14.04212143               53.64964020                0.70614956               76.62404058               80.86516766             -285.85297497               15.04070498               31.24377423              -40.47669312
              56.93073550               15.08486985              129.77668541                1.00000000             -152.33259824             -166.77190416              550.88137533                7.26907046               10.20244121               58.79900530
              56.40740952               14.60390522              123.82611077                1.00000000             -139.74154713             -175.24031214              557.99947037               24.28955722               65.61841255               37.02959845
              56.13590456               14.17589458              118.54867976                1.00000000             -113.20119585             -174.96665035              496.80722366               72.81439268              150.80595386               54.42147601
              56.14338560               14.04552609              113.90335932                0.68898211              -83.60940775             -173.04531726              365.45387268               57.02544372              181.01200927              115.31582777
              56.46371641               12.97997695              108.97292921                0.50852878              -43.19775516             -148.01269844              290.64236826              -10.55055130              155.19173023              105.20523115
              57.27943050               11.56798639              103.70827658                0.19041451                3.55882392             -134.37723002              219.18472952              -33.74085888              110.98433445               62.08144093
              58.53489288               10.14345959               98.24024299                0.00010000               52.65684842             -125.94604146              151.96311761              -27.26596382               79.86016600               38.63123560
              60.33256747                8.70843993               92.71870403                0.00010000              100.94997731             -100.59538685               96.56303150              -23.26129574               66.53411483               26.76600110
              62.55389243                7.45983231               87.70309224                0.00010000              130.96187743              -88.34260540               49.35507259              -40.44010378               78.35287909               -3.51940747
              64.95180502                5.55631761               83.29141176                1.00000000               69.57064028               -3.24788320               12.03605395              -36.16156729               39.23896101                5.13790273
              65.94530524                4.30552768               78.05052962                1.00000000               -0.64997821                3.04286438               -7.93760627               -2.84688106               -1.97251413               -4.19517709
              57.48439084               14.41715081              128.13625116                1.00000000             -137.95981118             -168.69551176              513.08397075                2.90260859               28.78172097              112.13731706
              57.10479273               13.85150210              122.15962313                1.00000000             -117.05763939             -176.15154859              524.76061345               23.38873154               96.16943724               88.92672747
              57.14323805               13.42622808              117.18508059                1.00000000              -89.65969365             -177.98739844              470.96128756               72.34640650              235.89779581              101.01635326
              57.31159886               13.31507291              113.35457343                0.88449510              -77.31286561             -216.35241006              561.53133877               67.17570125              284.17808069              147.15024807
              57.59698074               12.49984996              108.62032644                0.74959739              -47.56591331             -172.84436378              454.59176833                9.79255530              227.42239062              143.59882471
              58.36028059               11.22421409              103.24819201                0.44282535                4.75128661             -153.03389552              369.25775417              -24.98649686              182.85510885              104.64970264
              59.69200647                9.88399917               97.77634040                0.00010000               54.07437791             -155.17620569              299.60164855              -23.97654520               72.39421703               53.10064644
              61.44176815                8.70248606               92.24280053                0.00010000              101.67730382             -131.45623772              159.91328019              -19.04686154               22.23732654               10.14828054
              63.72555255                7.57640626               87.01299469                0.00010000              136.27867557              -87.67561987               52.57765986                1.30037292               80.30742185               -5.41609803
              66.16734166                6.52383878               82.77662486                0.92290181               72.10369032               -2.61628813                9.39230014                7.17087618               52.63915175                6.80983915
              67.16762636                5.33595632               77.49793348                1.00000000                0.02846963                3.25559431              -10.16146631                0.94257424                0.36989072               -6.01841661
              58.12008510               13.71095962              127.18840769                1.00000000             -125.39782149             -171.84910102              492.53950583               -7.09280262               32.23185497              177.90132183
              57.86610689               13.08087425              121.08025531                1.00000000             -100.04116138             -170.77902545              492.50151475               10.09987310              104.12241183              154.48238243
              58.11926188               12.61614661              116.09597594                0.00010000              -72.64145731             -182.67495096              445.47237838               -3.26914947              247.60198690              114.77819031
              58.41327774               11.71847788              112.29679525                0.00010000              -68.44177689             -209.14304733              566.93166966               35.54486946              338.46789188              165.37642095
              58.75042634               11.52308967              108.09979404                0.00010000              -50.88631951             -210.90434231              464.17997731               35.93889308              276.80421176              155.79572534
              59.39555135               10.50730848              102.59927493                0.00010000               -8.66681665             -183.31200174              385.02369311              -52.79155229              185.81483514              109.07913713
              60.57709001                9.03993547               96.58134242                0.00010000               43.18359004             -155.56836680              322.62319331              -53.50914952               80.06969044               26.32686738
              62.25922315                8.07931517               90.91937460                0.00010000              109.07285818             -140.84829333              185.98306200                4.85140820               67.90060003              -18.78685359
              64.75854717                7.70631991               85.91242605                0.00010000              153.82246612             -106.27383510               47.76455377               45.09381206              139.89601929              -75.19027553
              67.33567248                7.50399185               82.27815236                0.00010000               79.06872319               -1.66124034                5.80010650               48.21773762               86.61401114                6.58245243
              68.33992163                6.37063956               76.91629875                0.40103122                0.42491573                3.23971994               -9.92666898                1.71506220               -0.36671130               -7.33390640
              58.60270553               12.98016879              126.53799222                1.00000000             -120.11023310             -165.56228747              469.59740608              -15.75792076               31.76728474              212.24873805
              58.40160320               12.43592159              120.29991141                0.53375822             -108.12270518             -155.61492554              455.79462489              -19.03484446               77.83582286              183.40896278
              58.44025143               11.77272906              114.73671543                0.00010000              -64.30250074             -163.61036334              426.72723875              -35.86012457              173.52581617              135.35753134
              59.11555319               11.13221197              110.06347266                0.00010000              -45.66617082             -147.17078253              351.50522408              -44.84945625              270.00891733               47.19092501
              59.52692801               10.28176312              105.92991603                0.00010000              -66.39747221             -173.30241675              499.36085037              -34.57509313              316.00423796              103.07236694
              59.78760374                9.55797405              100.35547684                0.00010000              -23.85556136             -154.93530071              430.43075253              -22.15851632              205.92856791               57.32538038
              61.04981679                8.77263184               93.94890465                0.00010000               54.24040651             -110.95813536              171.98298418              -38.22672639              101.86024198              -58.54346156
              62.87241187                7.88552019               88.35750357                0.00010000              107.64676660              -99.37888553               97.24231119              -36.17431569              139.19865031              -91.82988964
              65.20275212                7.45092956               83.64567580                0.00010000              179.74824446             -101.58466389               39.16275649               14.80182819              280.96707486             -136.38847911
              68.46737676                8.49061397               81.74858103                0.00010000              113.29400253              -76.51458637                2.55068662              -61.34323855              178.09188097             -274.12379075
              69.46863217                7.40075072               76.34050340                0.40176678                0.12554060               10.65145230               -4.05838382             -127.33879364                2.75169754             -294.71457762
              58.89342109               12.39971387              126.02167109                1.00000000             -120.05713589             -147.94649368              442.77316359              -20.35682732               19.25508469              222.75187066
              58.69284974               11.96857574              119.55016926                0.42918478             -109.38260432             -136.38906669              418.73835302              -28.19299452               47.14965491              193.16047376
              58.70576901               11.34393934              113.52437774                0.00010000              -84.27975884             -126.99775815              368.14567038              -36.75067748              100.58758470              147.09259150
              59.00725456               10.77506223              107.94837872                0.00010000              -53.63033083             -120.43642900              321.13625282              -61.83580312              138.36931119               74.48943792
              59.63316239               10.05704134              102.53822711                0.00010000              -27.28711270             -101.16081526              246.72440371              -58.98936798              145.21446493                1.62461506
              60.46151230                9.40860246               97.00317098                0.00010000               -7.40765281              -90.75579667              189.73015320              -24.76412585              144.90185399              -26.47139278
              61.48500934                8.82077277               91.25561815                0.00010000               19.79634079              -80.75073798              140.85910658              -40.11932439              138.52383041              -53.18525332
              62.85743912                8.09173746               85.69008715                0.00010000               48.22403092              -61.83016889               65.04632016              -64.33889535              145.28334090             -104.12465333
              64.44948995                7.67462664               80.69712574                0.00010000               65.07737089              -55.40067917               13.78274961              -65.83207674              151.95330424             -188.68221094
              66.15898654                7.97370012               75.64960329                0.00010000               76.16911541             -107.89497917               -8.43731611             -106.80795950              111.96183806             -417.29781522
              67.97287226                8.58366861               69.97048085                0.40259507               81.38857235              -40.13878641              -22.58556844              -61.89849659               76.23252237             -511.19376015
              59.05784525               12.02123892              125.48026485                1.00000000             -116.43274140             -129.64896604              416.30819001              -18.89126861               10.37753989              215.19440233
              58.89351784               11.70814026              118.81538611                0.44049931             -107.95469342             -117.27680913              379.95752207              -22.36118807               26.02041637              187.85284894
              58.89875138               11.23277389              112.42267905                0.00010000              -86.38913526             -102.56731306              327.92879257              -29.38828231               55.91091116              149.70206692
              59.16573513               10.72348339              106.30322569                0.00010000              -59.25754790              -92.20520511              265.67095369              -29.37169123               79.25972354              102.86282973
              59.71360043               10.25854681              100.32475577                0.00010000              -31.85726688              -74.76188255              205.85323866              -33.89242934               98.09043293               52.94779025
              60.52858979                9.74285812               94.46956237                0.00010000               -7.46525650              -61.43653868              145.23210368              -42.58143494              112.90832260                2.52980356
              61.56429530                9.15761708               88.71105766                0.00010000               10.15951506              -51.15336141               84.07565019              -45.71171590              117.13254821              -45.96052051
              62.73178010                8.64891682               82.97619289                0.00010000               21.99263148              -31.28666120               28.71984708              -45.62670593              112.92410394             -106.63229019
              64.00414792                8.34291597               77.25867420                0.00010000               34.51977504              -21.26252514              -22.22930925              -38.82076345               98.54282859             -196.43727401
              65.42217560                8.33271439               71.37734490                0.00010000               50.32886657              -40.63671297              -64.43413501              -26.12826911               63.44786793             -290.94506342
              67.01072526                8.59797499               64.99446486                0.40335231               58.85496594              -75.55302652              -95.84590091              -21.14179864               38.80095076             -371.54540513
              59.14179305               11.80673455              124.82406436                1.00000000             -110.77020490             -115.96018199              391.27970172              -14.65686007                6.48949266              195.07988419
              59.03409100               11.62303955              117.99558527                0.47458904             -101.95664085             -102.56284002              345.50860213              -15.42029757               15.34917974              168.49486756
              59.10266023               11.29259308              111.34936554                0.00010000              -82.00215909              -87.42356708              290.31353917              -17.31850088               35.48361926              138.21121052
              59.39404782               10.93095813              104.90298063                0.00010000              -58.33605790              -72.81768910              230.46045856              -15.27844442               56.57725127              102.50657525
              59.93593907               10.56180368               98.63992590                0.00010000              -34.16172392              -60.78709130              168.75923645              -15.79984812               74.06345723               63.62355000
              60.71081334               10.17987169               92.49639491                0.00010000              -13.56113770              -45.95694736              108.00144587              -19.32822867               85.23368180               18.06172418
              61.66471632                9.79770554               86.41528852                0.00010000                2.43963839              -26.73147446               48.98874948              -21.91627213               89.75523784              -35.64518773
              62.75960611                9.46600424               80.35173519                0.00010000               16.22803958               -9.38975190               -8.21013000              -17.46110279               85.69424502              -94.96010267
              63.98927711                9.24937613               74.20977573                0.00010000               31.08780139                0.25129669              -61.96846758               -6.25703460               70.99089395             -160.76097626
              65.38136213                9.16096586               67.86439717                0.00010000               51.51189848               -4.30263023             -111.42919843                1.70173255               42.78618407             -227.35460821
              67.01951508                9.07260808               61.14312189                0.40412859               63.81529458              -28.08028232             -156.57205991                6.24633688               24.86687665             -279.63415175
              59.13209804               11.70203528              123.97025484                1.00000000             -103.28446859             -106.85191080              367.46156194              -11.55142035                5.93560866              165.36572420
              59.09925335               11.65688346              116.99543053                0.50754369              -94.38176251              -92.10490204              314.33821577              -10.08499540               12.22592406              139.31609582
              59.24446279               11.48430255              110.17590382                0.00010000              -75.41488557              -75.71470601              256.75310929              -10.76034950               28.74844009              114.52380510
              59.59095564               11.26712960              103.53314198                0.00010000              -54.78864412              -60.18471665              196.72337055               -7.47479924               46.08105904               87.31478871
              60.14868991               11.04280498               97.04342423                0.00010000              -34.24161371              -44.69226857              136.06333173               -4.97900668               60.68930826               55.22449947
              60.90612337               10.82371917               90.66454281                0.00010000              -15.44263028              -27.91525113               75.75902830               -3.81408212               70.39029385               17.98562160
              61.83983730               10.62298759               84.33831470                0.00010000                1.23820386               -9.96278888               16.39419938               -1.28171795               73.35504392              -24.45481039
              62.93088744               10.46112178               77.99087331                0.00010000               17.21041547                6.67255910              -41.63281721                4.22077818               68.48438278              -72.29293720
              64.18404561               10.34794191               71.53950233                0.00010000               35.10454277               17.85676635              -98.20001814               10.67376587               54.83774512             -123.38645898
              65.63297830               10.24666178               64.88448373                0.00010000               56.41609728               20.44135557             -153.09670619               11.26870062               31.59050836             -174.06952276
              67.31236756               10.03636935               57.92337332                0.40498401               67.93892556               16.35898300             -206.40161967                9.83743184               18.44359412             -216.46677944
              59.00106829               11.66969633              122.83699998                1.00000000              -95.09444705             -100.11201503              343.15187260               -9.31492875                7.94140366              126.82690106
              59.05012382               11.78094151              115.73349857                0.54805811              -86.19305983              -83.48022022              284.55977526               -6.50024079               14.19253413              102.37767616
              59.27720709               11.77829896              108.80279777                0.00010000              -68.20372090              -65.80767729              224.88528324               -6.45627912               30.33756116               83.51236345
              59.68604940               11.72726380              102.04393847                0.00010000              -49.87188593              -48.55680963              164.91105741               -3.05477921               46.15069227               64.41571959
              60.27976937               11.66795831               95.42765871                0.00010000              -31.58501535              -31.51563149              105.08021175                0.99063055               59.00654469               42.40767773
              61.05434909               11.62156666               88.90652927                0.00010000              -13.90450101              -14.11773798               45.70146988                4.95424152               67.11784237               16.36934037
              62.00167935               11.59844976               82.42066620                0.00010000                3.23591295                3.41789813              -13.13370254                9.24674788               69.12236331              -13.80145687
              63.11906735               11.59945542               75.89875020                0.00010000               20.77665338               19.70671555              -71.53340710               13.76573100               63.75239475              -47.39769488
              64.41721242               11.60651146               69.25610997                0.00010000               39.96206766               32.84895364             -129.72626754               16.27397380               49.98048922              -83.42700156
              65.91830871               11.56979297               62.40073300                0.00010000               60.98180856               42.23147363             -188.09258175               12.18080772               27.85837525             -120.51342346
              67.63684859               11.39978774               55.25240637                0.40565323               71.85398864               51.28935699             -246.96118646                9.22312683               16.38288542             -156.64528569
              58.72330910               11.69979498              121.32519023                1.00000000              -86.26631943              -93.21154794              315.96958768               -7.61642151               12.27010261               74.38539504
              58.86064591               11.98727905              114.11820401                0.45662533              -77.71470904              -74.61685193              253.57806689               -3.21981398               20.75247871               55.91249913
              59.16901492               12.16814901              107.14551411                0.00010000              -61.02226008              -55.94406210              193.15615551               -3.00369071               39.97650499               45.54374713
              59.64020071               12.29599341              100.36002562                0.00010000              -44.74076357              -37.73246025              134.00657283               -0.65617557               56.07169530               35.87604151
              60.27419965               12.41249235               93.71471096                0.00010000              -28.27419783              -20.01460438               75.61715724                2.51675574               68.67451773               24.64854393
              61.07471675               12.54136441               87.15978725                0.00010000              -11.36580743               -2.64797250               17.73577241                5.87816549               76.78438070               11.14195890
              62.04688350               12.69134555               80.63488440                0.00010000                6.17118072               14.26959301              -39.86660294                9.26470544               78.93574529               -4.69317911
              63.19814036               12.85525609               74.06671417                0.00010000               24.61520161               30.29345350              -97.51993752               12.00218145               73.56002487              -22.54997104
              64.53918753               13.00492098               67.36782404                0.00010000               44.25889046               44.98696860             -155.76696619               12.33921206               58.80802130              -41.86075122
              66.08331817               13.09129126               60.43127937                0.00010000               64.88265116               58.74630226             -215.56267481                8.18155948               33.14262458              -62.43815576
              67.83684056               13.06215649               53.14260843                0.40643343               75.35223834               75.09114312             -278.21988212                6.36172644               19.39528613              -88.91159025
              58.27377171               11.80546537              119.24465930                0.98683993              -75.63982024              -89.43296040              281.64150187                3.36017117               25.00540017               40.78453023
              58.51737351               12.28860448              112.02614520                0.68475198              -68.26763982              -69.86745756              218.84557873                8.37037755               35.71894723               27.22255445
              58.90841892               12.65941772              105.11253246                0.36715004              -54.43954853              -50.87312859              160.49742248                8.14090542               58.29870436               22.13673501
              59.42858254               12.97261459               98.39436204                0.36253168              -41.18427139              -32.33788184              103.74476996                9.25060861               75.63324216               17.60611579
              60.08473349               13.26766623               91.82527717                0.36074174              -26.77616665              -14.48261292               47.72944698               10.85301496               90.35068067               12.38553746
              60.89305921               13.56860721               85.35751891                0.36209678              -10.58258524                2.72428043               -7.93128364               12.64301548              101.07386345                5.99503800
              61.87308178               13.88384162               78.93106457                0.36573520                7.62381728               19.24960705              -63.46554468               14.45569208              105.71211444               -1.61703080
              63.04553555               14.20532449               72.46985433                0.37255154               27.74398543               35.00684032             -119.15548711               15.85997941              101.95747915              -10.28495600
              64.42796149               14.50625083               65.87904063                0.38240614               48.95844170               50.13298538             -175.53115823               15.84712226               87.24064188              -19.82368148
              66.02470439               14.74471902               59.03948190                0.39582960               69.71955841               65.34277614             -233.67363995               13.90660984               55.87350589              -30.16064238
              67.82235266               14.90161060               51.74532670                0.70341328               79.76482746               83.94541164             -296.81770502               14.24036889               36.90756771              -49.40073423
              62.54859317               17.64551974              135.96877136                1.00000000             -137.71923789             -153.85243465              512.25452723                7.50117096              -62.44986854               83.87340744
              62.17140079               16.81377709              129.96705902                1.00000000             -123.99628264             -157.92967891              493.99746818               19.82821809              -53.46911910               40.70427688
              62.06866752               16.04369595              124.05734636                1.00000000              -93.63020258             -137.64376322              398.28826954               48.66235637              -60.06628553               -7.68293873
              62.29879674               15.04715353              117.62134496                0.69248700              -58.21408086              -86.48154759              283.27922937               73.18628308               -8.63020889              311.09453933
              62.90438590               13.60014001              112.17055191                0.52273499              -29.81494612              -89.18305886              213.12381412               74.21256385               72.70547930              222.01988841
              63.70249782               11.83607628              106.36659348                0.22748103               10.98169538              -60.14853040              170.56844108               87.37508024               64.64489027              197.02665976
              65.12401981               10.25055499              100.36500833                0.00010000               47.63125668              -49.15669699              129.58097441              -60.00409937               58.08648862              194.80746312
              66.65512295                9.08064582               94.55180467                0.00010000               56.96319784              -79.60554976               96.41877579              -85.59254581               63.75499200               55.03118574
              68.26328377                8.04538621               89.15234866                0.00010000               80.91091619              -64.52556604               42.95736286              -31.52656262               75.79769317              -27.30945158
              70.27334128                6.12929149               84.39730732                1.00000000               50.29441200               -2.61820895                9.51263543              -33.56360201               31.61948304                3.73976761
              71.26917201                4.83079704               78.97572481                1.00000000               -0.41692699                2.47982302               -6.85077784               -2.26942522               -1.54384933               -3.27964420
              63.45534753               17.10699539              133.99561363                1.00000000             -128.47526612             -157.55006682              483.60900799                3.38378018               -8.50393541              132.18290046
              63.17059487               16.23448030              128.08151148                1.00000000             -100.83723322             -155.44463319              468.59977605               29.47644294                0.48198588               84.95271078
              63.43860287               15.66725832              122.25900322                1.00000000              -45.90786620             -158.45706837              392.02910590               69.88433427              190.55887957               46.73005106
              64.25243755               15.18233805              120.12831737                0.89414715               -9.32763492              -43.30741914              288.74951396               73.44761313              240.52461560              218.69665037
              65.25205017               13.70830942              114.12644238                0.76800470               -0.06982057              -44.62622720              225.33050512               43.68564017               82.59287058              158.25099185
              66.25104113               12.23459097              108.12207573                0.48841757              -67.51780604              -30.11919653              193.77696944               53.67915857               94.34213824              138.35588703
              65.90169405               10.75898802              102.11807491                0.06636333              -67.46296240              -24.64377341              167.13809764              -34.93746184               10.30314171              131.40605723
              66.90178189                9.28459032               94.76438867                0.00010000               76.10006296              -39.82175865               76.09593774              -31.97072977              -43.94271442               39.70226811
              69.42369531                8.40013055               88.42537270                0.00010000              132.16089776              -76.36125023               48.15029753               10.29070605               46.37584567              -26.62391277
              71.54499984                7.10310940               83.85904995                0.99311248               56.06384490               -2.26169382                7.60368570               -2.34870053               44.51080483                4.87730213
              72.54497220                5.85559527               78.40961933                1.00000000               -0.00276370                2.58663216               -7.96698820                0.49934127                0.33979123               -4.51143242
              64.36129896               16.49451840              132.88060618                1.00000000             -116.06322305             -160.97068894              467.66076391                2.10602917                4.11135033              199.46023915
              64.20066673               15.70488443              126.74151357                1.00000000              -92.14012503             -154.50105656              444.56729308                7.30184122               23.18780633              141.15383594
              64.51849646               14.87455458              120.95025340                0.00010000              -23.69844108             -153.49455076              375.27842982              109.92386760              249.48982752              121.43950461
              65.72669790               16.18100514              119.37710799                0.00010000               10.36746650             -161.60830453              304.16997475               71.64403897              287.17580112              -45.96725856
              66.72584579               14.70761546              113.37719376                0.00010000               -0.06477548               -0.17098006              213.89593460               -0.07858720               98.77875946              121.72294124
              67.72540240               13.23369235              107.37342397                0.00010000              -67.52872796               -0.12071891              188.78535337               -0.18568786              116.15370975               98.77558367
              67.37527123               11.75767952              101.36618508                0.00010000              -67.54182830              -85.66152789              189.45898074              -15.61167345               39.55893430             -103.37350719
              68.37456583               10.28421064               94.01177829                0.00010000               63.76537912              -72.72670349              104.58616745              -28.12065027              -32.44290146              -71.31202957
              70.65057881                8.51816120               87.24633611                0.00010000              119.81683571              -87.14532090               50.01430312              -10.32187104               73.63818126              -79.24357064
              72.77090254                8.08405761               83.33419744                0.00010000               56.18041405               -1.78104892                5.53484604               38.40441671               79.52374838                4.76931352
              73.77418709                6.88252968               77.82898587                0.39666002                0.32845473                2.73261713               -8.23413005                0.34213714               -0.18714302               -5.09454459
              65.07673606               15.88758161              132.09703427                1.00000000             -114.01405512             -157.01951875              453.40220459              -13.27150905                1.34569103              229.23366550
              64.93659551               15.14445917              125.61620512                0.55564256              -95.78882812             -146.43323454              423.71889154               -4.37345245               37.63061596              175.24384779
              65.16095950               14.59736730              119.88187034                0.00010000              -54.21690339             -137.00854643              357.21867500              -11.59830672               82.66535446              121.04503751
              65.85225744               13.95017196              113.99450922                0.00010000               51.84158610             -231.43658706              378.39231362               61.60196440              341.64337756              -23.11888708
              68.19779122               15.70488982              112.62590819                0.00010000               67.25029393             -165.68692785              284.92543195                1.84401409              365.18196965              -68.07603881
              69.19726332               14.23217659              106.62061592                0.00010000              -82.94244716             -128.76935913              263.47936941             -235.80706928              -31.48193676             -108.15600122
              68.53894228               11.04575746               96.58006852                0.00010000              -80.91880628             -134.08271886              283.74481456             -148.55199072              -54.30179235             -141.94949976
              69.57888720                9.83005625               90.38119375                0.00010000               43.92343189             -122.13780488              102.68557876              -50.44419594               98.59675776             -161.29440669
              71.41741092                8.65722413               85.05885470                0.00010000              118.49162486              -74.56174693               44.66708508              -17.69314589              243.67978028             -152.08687608
              73.94871969                9.06748842               82.79331659                0.00010000               76.87299436              -62.83773112                4.48265856              -46.69399826              165.36718410             -287.53956681
              74.95487080                7.91024761               77.26297827                0.39704993                0.61511103                1.80317836               -8.24597784              -88.91909954                2.40275986             -310.28432588
              65.58211366               15.35412803              131.38422093                1.00000000             -117.87016737             -145.30822729              438.54634373              -14.29760428                4.21952355              238.33801850
              65.40341199               14.77621974              124.63907046                0.45686932             -105.06480645             -131.25209863              401.39305763              -18.68569719               12.87582619              187.16876284
              65.48081753               14.13438365              118.07413069                0.00010000              -77.60986545             -131.95803283              350.35014253              -28.98299586               51.18681220              121.11292409
              65.85121468               13.55227340              112.11477778                0.00010000              -50.00480480             -124.21549380              280.11476521              -24.90081035               71.80951740               86.36247597
              66.48072144               13.39387691              105.83955547                0.00010000               -9.14106543             -239.32836733              250.20070346             -117.44796954               89.48793115             -151.10690375
              67.66839337               12.65830516               99.78479984                0.00010000               16.28151608             -202.66917916              200.98831726             -193.91702521              116.80530424             -203.71558594
              68.80635176               11.07602514               93.78979289                0.00010000                4.29109360              -88.88379156              127.56691195             -134.87799536               94.96328189              -86.39120115
              69.75421524                9.84145455               87.39937153                0.00010000               12.64659820              -74.19746045               78.28314618              -93.30544828               98.83576058             -133.08830427
              71.05928372                9.02692626               81.84320151                0.00010000               41.48919262              -49.17472532               15.34769740              -74.09048843              118.02753911             -221.70113287
              72.58399909                8.82730299               76.42522765                0.00010000               62.55014969              -87.47649451              -26.68734218              -85.93914231               85.57101514             -469.30262100
              74.31028671                8.91859325               70.58270776                0.39782182               72.62876212              -35.89026980              -49.41313599              -42.76782266               56.53446120             -582.03924603
              65.94660056               14.98141707              130.64726145                1.00000000             -116.39746183             -131.28502860              421.18606907              -13.83140315                1.14120086              231.21753826
              65.78262594               14.51941720              123.59208619                0.47063505             -107.06773208             -119.43654669              377.35972153              -15.80515067                5.94307315              183.18996826
              65.80524592               13.95820665              116.67552194                0.00010000              -84.39389777             -109.28048647              321.46065507              -17.53568027               21.33491006              139.61018320
              66.09474798               13.46586208              109.91721539                0.00010000              -53.12229221             -103.60626851              263.80310585              -19.50580465               45.47960088               80.18521626
              66.74280007               12.91832247              103.41940960                0.00010000              -22.89867000             -121.08176048              205.21982789              -34.62474819               67.87575006               37.60131773
              67.63677458               12.17879301               96.98378434                0.00010000               -4.22835417             -113.62529697              147.72222005              -72.00482214               78.36043422              -20.58075412
              68.65823299               11.26808163               90.55481643                0.00010000                6.25512623              -67.22180420               88.50757002              -89.63488048               85.56548697              -87.71902102
              69.76187711               10.34610704               84.27657461                0.00010000               14.57598583              -37.33569882               28.54592219              -70.79505396               86.94843954             -138.91351038
              70.94975271                9.67372962               78.03123091                0.00010000               28.81963758              -23.25525017              -25.43931304              -46.60892805               79.20527746             -231.30018733
              72.33826986                9.31795853               71.73284148                0.00010000               48.35905620              -33.52805636              -71.72619876              -25.40143288               53.00074586             -341.21687697
              73.91693383                9.19244222               65.03429943                0.39848036               57.86639687              -56.83727150             -105.77040257              -17.62462997               33.14974566             -451.32597550
              66.22948534               14.72842745              129.77777376                1.00000000             -111.89659422             -120.79532247              401.69410662              -10.66669800                1.62997013              211.30325585
              66.11051939               14.38748880              122.47232123                0.50638628             -102.29131482             -107.94102486              350.17760598               -9.98829144                4.42877121              168.16233908
              66.18365904               13.94877393              115.26390866                0.00010000              -80.47683168              -95.02499003              292.57944494              -10.36971045               17.79555695              129.32491830
              66.50098276               13.48014803              108.22674143                0.00010000              -55.41817467              -87.88422165              232.05901345              -10.54773814               35.50363454               91.06523118
              67.07529555               12.97224170              101.33946493                0.00010000              -31.12224946              -79.59872134              170.91535509              -20.11653944               52.39810011               44.71998905
              67.87853777               12.38579922               94.58575470                0.00010000              -11.44777144              -63.35124321              109.46215984              -33.31344691               65.34209762               -4.68170707
              68.84634012               11.73158906               87.91802460                0.00010000                2.70641987              -39.55894822               48.30980487              -39.42456861               70.86300029              -56.98558272
              69.93266617               11.09474057               81.26320825                0.00010000               15.44567766              -14.76321249              -11.56441727              -33.20466079               68.80512279             -120.48842128
              71.15525367               10.56182126               74.56986967                0.00010000               31.22958364               -0.81952268              -68.75741379              -17.35485690               58.25840707             -192.08297935
              72.55725784               10.15674186               67.71732776                0.00010000               52.67865357               -2.04878093             -121.33150145               -5.12173838               36.41646445             -271.64780249
              74.20882674                9.78184782               60.55450299                0.39925023               65.15689010              -18.55601766             -166.73761028                2.69791364               22.80103895             -345.18900443
              66.41514390               14.56551062              128.70139285                1.00000000             -105.26302620             -112.74928417              380.10434839               -8.41909270                3.75524009              180.94736784
              66.36251364               14.36059670              121.17944898                0.54122725              -95.49757127              -98.01712998              322.57717375               -6.25495481                7.06166005              141.91785521
              66.50519248               14.05770685              113.77365158                0.00010000              -75.10940954              -82.97431385              262.12691073               -6.42137205               19.81185240              109.67711734
              66.86032545               13.70817765              106.52163676                0.00010000              -53.51871920              -68.98565113              200.21009403               -5.76719516               35.50584138               77.63624370
              67.43481809               13.32634804               99.42039926                0.00010000              -32.45835813              -54.39870195              137.85668978               -7.54727186               49.71082512               43.31432382
              68.21115829               12.91176815               92.42972307                0.00010000              -13.70089114              -36.64302979               75.63438040              -10.80695397               59.44043582                4.10715063
              69.16080027               12.47690266               85.49536203                0.00010000                2.81967017              -15.81922407               13.76992856              -11.33247825               63.17659136              -40.82543709
              70.26755169               12.05084279               78.55447598                0.00010000               18.99270023                4.11111901              -47.36920965               -6.40686886               59.72440652              -90.97562582
              71.54065427               11.65733917               71.52330323                0.00010000               37.41284212               18.42819580             -107.18989632                1.22105970               48.29416950             -147.19931765
              73.01580853               11.27698291               64.31056403                0.00010000               59.00129557               24.24420385             -164.78220413                4.81963041               28.22929681             -207.08495695
              74.72068019               10.82132186               56.81799006                0.40011185               70.48716535               23.28330170             -218.99903477                6.20633836               17.44645889             -264.22254986
              66.47093132               14.47344177              127.33067555                1.00000000              -97.77072470             -105.83927534              356.63774138               -6.99531940                7.39034521              140.14423752
              66.49322407               14.42714620              119.62861337                0.58541439              -88.16403342              -88.77299713              294.56775197               -3.82354297               12.49718315              106.00959113
              66.70765065               14.28928765              112.08874450                0.00010000              -68.81132054              -71.26137407              231.90175580               -3.67423624               27.56617634               81.09471777
              67.11699766               14.10043501              104.71858712                0.00010000              -49.34455163              -54.13746409              169.26051235               -1.97856950               42.99118441               58.55543679
              67.72075961               13.88426766               97.49168604                0.00010000              -30.25767925              -36.75635584              106.89137095               -0.62360342               55.82945534               34.37959276
              68.51184407               13.65293863               90.36389246                0.00010000              -12.00718534              -18.31196199               44.83837359                0.53922739               64.13759418                7.01593557
              69.48061591               13.41520458               83.27601691                0.00010000                5.61241066                0.91747725              -16.93562000                2.74007094               66.38272178              -24.25340129
              70.62409229               13.17696295               76.15498442                0.00010000               23.64594181               19.30771982              -78.48953868                6.24020393               61.37341377              -59.85904415
              71.95353474               12.93038518               68.91638542                0.00010000               43.27877338               34.72506849             -139.83909081                9.05642334               48.17709145              -99.54859107
              73.48966775               12.64162594               61.46661411                0.00010000               64.53704306               46.41747718             -200.92314894                7.21714935               26.93100032             -143.23046944
              75.24427560               12.24751385               53.72618109                0.40073859               75.46078514               57.04978754             -261.36440056                6.54551984               16.50645250             -189.88858383
              66.36782865               14.44872511              125.55398454                1.00000000              -89.76317472              -98.71891176              330.71158989               -5.94412506               13.07986213               83.02310699
              66.47019690               14.58513676              117.71302966                0.49224981              -80.47048532              -79.48171579              265.54793714               -1.74564585               21.92957816               58.28799085
              66.75841894               14.63247936              110.12271682                0.00010000              -62.22114273              -60.51586702              202.00543960               -1.43917362               42.24190816               44.43062645
              67.22577405               14.62542837              102.73116400                0.00010000              -44.42882688              -41.89185189              139.70396636               -0.04967340               59.00354299               32.73007407
              67.86984241               14.59122093               95.48712017                0.00010000              -26.73840658              -23.47577263               78.18178742                1.63047958               71.92421055               20.41659757
              68.69100592               14.54552891               88.33797282                0.00010000               -8.91325204               -5.05172415               17.11611655                3.42381569               80.13836848                6.28146506
              69.69157737               14.49525221               81.22102606                0.00010000                9.30846254               13.26148051              -43.78064455                5.51898828               82.26039188              -10.13808551
              70.87717517               14.43699719               74.06043705                0.00010000               28.27711929               30.92059576             -104.80285324                7.54127749               76.70505142              -28.93691641
              72.25711975               14.35184054               66.76427036                0.00010000               48.29238365               47.37678463             -166.31822518                8.04878433               61.45298694              -50.16036016
              73.84302284               14.20533245               59.21794267                0.00010000               69.13475004               62.84220330             -228.95072713                5.33468327               34.69173570              -74.28779070
              75.63981475               13.96231761               51.29610530                0.40147151               79.67919118               80.05781736             -293.54869298                4.85485826               20.78221082             -107.52302202
              66.07922552               14.49906354              123.15140090                1.00000000              -80.46686223              -94.96615747              300.40293766                4.98452197               29.26845911               46.10036208
              66.27455690               14.83751189              115.29521368                0.70044798              -72.03249786              -74.76248708              234.93491325                9.43133794               41.54039512               28.52542344
              66.63857556               15.07897031              107.78243887                0.36625542              -55.86471356              -55.35090570              173.01735900                9.26996605               66.38349969               21.71310192
              67.15726263               15.26259797              100.47981201                0.36242726              -40.26534465              -36.28303974              112.61500095                9.93795258               84.27541913               16.20158748
              67.83326867               15.41475221               93.33295872                0.36112786              -24.04867598              -17.64687225               52.92968879               10.80793484               98.94462872               10.45104976
              68.67628911               15.55190414               86.29032028                0.36186151               -6.68706386                0.63752382               -6.49436292               11.81241788              109.44572105                3.78881761
              69.69952739               15.68043419               79.28972341                0.36550034               12.10201998               18.51819773              -65.92157301               12.96853862              113.90957066               -4.04190401
              70.91832951               15.79537487               72.25290471                0.37115668               32.33238851               35.83776781             -125.55509395               13.98976793              110.05573807              -13.14957138
              72.34617516               15.87792087               65.08123473                0.37964875               53.37774181               52.60803306             -185.69900666               14.06029802               95.03627566              -23.60564082
              73.98588434               15.89847001               57.64677566                0.39189088               74.06136445               69.31375503             -247.05648476               12.82361675               61.81971020              -35.67696330
              75.82740245               15.84867020               49.71328610                0.70086847               84.15181092               88.63525871             -312.35044373               13.77878944               42.03483279              -59.40056789
              67.68516282               20.70865346              142.02177595                1.00000000             -143.57106805             -155.96794585              519.86078587               -6.22140336             -112.17159983              101.73185144
              67.24945214               19.18908582              135.70606014                1.00000000             -120.24349585             -141.29840584              469.25212716                5.67250381             -163.28650064               32.81931917
              67.28029290               17.61892209              128.51444515                1.00000000              -69.59381284             -115.10000343              336.22784361              -34.04900215             -190.36440772               11.75408282
              67.85757588               15.25347206              121.56894390                0.69687928               -5.38577124              -32.02291632              240.43372855               34.19119557             -115.08976392               17.39409108
              69.17257748               13.50859376              115.23540549                0.53988297               26.01480017               -5.03658098              147.95809420               45.45438235              -17.28527861               23.11680561
              70.37787188               11.99755508              109.11964540                0.27313997               16.94169944               -1.30537419              120.82659500               39.00599032               17.90253202               48.61422563
              71.51141146               10.53347568              102.83186248                0.00010000               22.12275479               -2.25321175              104.18804052               43.75151922               10.54085161               85.63681629
              72.82032698                9.38389565               96.64707955                0.00010000               35.64660911              -34.73378459               79.70075992               35.23488428                2.87988360              -31.59052003
              74.22434365                8.36759518               90.56223949                0.00010000               47.02457724              -41.76546395               44.77472176               -0.40694347               34.35925209              -17.91263694
              75.76081852                6.70762770               85.48166447                1.00000000               26.66248086               -2.31330028                7.76763015              -18.52321088               23.02760327                2.88173115
              76.75759326                5.37214575               79.91351406                1.00000000               -0.32252604                2.03208594               -5.64080066               -1.97917944               -1.30064743               -2.74872563
              69.14251642               20.14897400              139.80843132                1.00000000             -129.14735639             -155.49548498              493.63457221                2.47950160              -47.29749774              144.04827610
              68.85104286               18.77610176              133.53161865                1.00000000             -111.74533327             -140.99142466              442.06893859               16.48558544              -66.14974861               72.93253352
              68.90760976               17.46792206              127.02566270                1.00000000              -29.81954290             -109.84262568              336.49162068               17.51561203              -52.06258987               30.56721126
              70.25465200               15.93324290              121.12956371                0.90479697               17.37350161              -16.02655990                0.07444506               43.12917103                5.29073530               15.61076946
              71.25507979               14.45822795              115.12693654                0.78949707                0.04194120               -2.52555324                0.00852771               30.41832521               -0.00542928               32.08507472
              72.25549083               12.98450133              109.12373140                0.54336513                0.03382899               -0.66375591                0.05739721               20.22389745                0.01349070               37.70942995
              73.25575637               11.51094356              103.11910235                0.18340257                0.00626215               -1.15019770                0.08217605               13.52796867               -0.04714141               51.98817824
              74.25561607               10.03655780               95.76471929                0.00010000               15.13259067              -17.38130741               35.77877833               17.44420489               17.93943091                2.45487120
              75.55840818                8.94994054               89.97600064                0.00010000               40.88475306              -43.98143407               51.53419607               16.62424482               61.06746037              -22.21041726
              77.07331113                7.68449470               84.92869857                1.00000000               25.74376163               -2.12581126                6.46705415                1.26026150               27.38975300                3.85472227
              78.07328342                6.39246661               79.33859371                1.00000000               -0.00277133                2.16219917               -6.52814026                0.24762383                0.26414457               -3.76525528
              70.48049733               19.59874376              138.54162297                1.00000000             -122.02815381             -154.38733247              475.70547714               -0.51058232              -29.62778411              211.02240102
              70.26021579               18.36925733              131.97160117                1.00000000             -100.35166622             -136.64300553              420.98948093               17.08312014              -31.61527738              134.22162901
              70.47346401               17.42206958              125.60154454                0.00010000              -26.51811916             -119.90847667              318.17993700               68.56640980               27.04577032               66.81564212
              71.72985341               16.93294086              120.38019474                0.00010000               12.81107684               -0.05392324                0.19455613               49.28720039               39.12591733                0.18494354
              72.72968554               15.45808269              114.37771273                0.00010000               -0.01095948               -0.01736593                0.04762651                0.03600034                0.10922462                0.07149163
              73.72963422               13.98427996              108.37498200                0.00010000                0.01144140               -0.05115881                0.12120067                0.03514401                0.05653595                0.04477190
              74.72991437               12.51047172              102.37052203                0.00010000                0.02899369               -0.04547634                0.34199086               -0.02818610               -0.29935583                0.32281706
              75.73021409               11.03626950               95.01109795                0.00010000                8.94886372              -38.22594890               35.37401768              -45.62802241               -2.98986249              -98.76119282
              76.90889165                9.48796650               88.91271211                0.00010000               30.66417960              -56.88069539               63.65565265              -13.26706613               77.43785088              -82.97632548
              78.34349769                8.66511148               84.38884928                0.00010000               21.88551331               -1.78511347                5.14193801               21.23544917               55.51212166                4.09626862
              79.34660191                7.41538974               78.75161615                0.39240608                0.31042260                2.44378536               -7.31047893                0.23185592               -0.16435561               -4.21827363
              71.59127765               19.06122735              137.60603631                1.00000000             -122.18981982             -149.12483520              460.71804088               -2.41781186              -13.50988774              240.79419384
              71.36937945               18.04324165              130.77428924                0.57904883              -93.80116130             -131.65936997              408.24461393                0.43829394              -25.88492014              171.18741653
              71.71525442               17.06975252              123.88108893                0.00010000               -8.24982768             -122.47616748              304.22714642               83.46283537               86.78653436               94.97561933
              73.20438289               17.93216443              119.63131893                0.00010000               24.46031412             -117.66676405              231.90077783               16.81474111              155.19167191               -4.85688613
              74.20446070               16.45788063              113.62842467                0.00010000               -0.02891097              -60.83404211                0.18878048              -96.27364320                0.23095403             -166.66076860
              75.20380468               14.98347816              107.62506423                0.00010000               -0.06287973              -50.65788172                0.39805120              -91.50499250                0.32798069             -192.58473245
              76.20320311               13.51003403              101.62380094                0.00010000              -41.91219160              -69.61354451              202.30524715             -133.58252103              -77.28392500             -167.57526245
              76.36556084               11.27203882               92.41121515                0.00010000              -26.94891117              -75.08394902              115.63091551             -132.35878894              -84.44208944             -170.92180829
              77.66422488                9.81232664               86.53901750                0.00010000               60.25180182              -60.98693637               49.78275846              -37.39767114              188.51395030             -190.03875001
              79.57059688                9.64879243               83.83823420                0.00010000               45.65695645              -50.84943313                4.08087774              -29.17907025              150.30169979             -304.87314659
              80.57736401                8.44134232               78.17558384                0.39265711                0.67671344              -12.19136052               -8.34243130              -48.64504290                2.23246391             -334.81102697
              72.46811250               18.61624706              136.79259796                1.00000000             -120.76559949             -140.45952508              448.01148386               -8.03060554              -10.02230389              250.44684427
              72.26045650               17.73606993              129.57803041                0.48746186             -110.71572819             -125.22764008              393.54528933               -1.44807331               -8.44470172              181.61973878
              72.25379793               16.97254623              122.53138059                0.00010000              -79.12181884             -111.72764705              327.79846043                6.43008068               -1.28035494              124.27683101
              72.67802013               16.57960558              115.55067402                0.00010000              -25.04494898             -185.84701867              256.47430065              -30.20438881               49.60041066              -32.03538716
              73.75289895               16.24140185              109.54224117                0.00010000                8.46804198             -147.36084647              212.87742266              -90.41987422               85.28439979             -144.47197786
              74.84738096               14.97112232              103.02293732                0.00010000                0.84021657             -122.65949878              168.11532737             -168.33070220               15.34255267             -230.11823908
              75.76970329               13.11820083               95.80695639                0.00010000               -3.33176263             -111.75145401              110.98374636             -182.84600745                7.94179485             -275.70417769
              76.78074571               11.53459052               89.25575007                0.00010000                0.72406658              -63.26144668               73.31011318             -111.05997473               54.33549613             -197.34051499
              77.78418462               10.26822777               83.00407969                0.00010000               17.50774424              -41.10412847               14.19790047              -70.93529907               68.40853598             -271.99415983
              79.13090060                9.64812281               77.11585644                0.00010000               50.22083276              -71.62578425              -36.99623074              -59.40700692               59.04809818             -516.32359937
              80.78860127                9.17156253               70.98221813                0.39320158               65.77006748              -42.08410367              -69.24373654              -22.98401610               43.75411250             -643.21660807
              73.19101979               18.25203685              135.90398623                1.00000000             -120.69009823             -131.87893915              433.28020367               -5.47554975               -3.73968406              241.58562449
              72.98411881               17.53868885              128.36258054                0.50290675             -109.53497069             -116.85731912              377.27412503               -2.03811246               -6.83234736              179.23955670
              73.00032038               16.83519958              120.85189215                0.00010000              -82.63396587             -109.57922086              315.66128074                6.34442229                4.11647948              120.07546439
              73.33143950               16.21522406              113.57928781                0.00010000              -49.78869524             -121.58820935              255.85917509                1.30041152               23.44619501               62.87064343
              74.00454648               15.51066370              106.42915232                0.00010000              -18.55239237             -139.30940236              196.13392159              -40.64735079               36.07868350              -33.34342613
              74.96039165               14.53028818               99.42400677                0.00010000               -1.08658561             -116.54117524              137.31373129              -82.19720408               44.58498485             -101.40822838
              75.98281476               13.27500495               92.48120906                0.00010000                1.69713800              -70.03762764               79.42954493              -94.43294029               44.94733944             -133.68358954
              76.99433441               12.00680989               85.54711133                0.00010000                7.45859218              -37.81280353               19.78855412              -79.08215555               46.94395479             -196.28163386
              78.13198661               10.99024407               78.74988794                0.00010000               24.23937909              -17.62917743              -36.30474899              -43.71960080               48.39024983             -281.09138811
              79.47912199               10.21627674               71.94282093                0.00010000               46.94088289              -24.89177731              -89.43634475              -19.82131581               33.31392814             -396.17658860
              81.07080427                9.59966025               64.87905680                0.39400495               59.16822764              -39.32125784             -129.72514922              -11.03244414               23.33227201             -523.73623801
              73.78529751               17.97866827              134.85794649                1.00000000             -114.87659826             -124.19780033              415.49172820               -4.97093421               -0.78097180              220.44620752
              73.63653152               17.39892355              126.99913739                0.54010930             -104.05731677             -109.98702145              355.36347394               -0.67987289               -1.58963995              164.07479881
              73.70415117               16.78096181              119.20095444                0.00010000              -80.39836426              -99.10952614              293.03888524                2.35547655                7.11583609              116.01335548
              74.02856424               16.14784139              111.54416090                0.00010000              -53.96316778              -94.36076338              229.76707607               -0.14313556               21.81906430               64.84589610
              74.62488781               15.45521380              104.05823300                0.00010000              -29.47343042              -87.68966741              167.12896523              -13.86344800               35.42879330               13.70136273
              75.43909563               14.64029882               96.68563810                0.00010000              -11.01825212              -70.12818837              104.38950356              -33.90939287               43.44422746              -40.71121478
              76.40452277               13.71744828               89.38148462                0.00010000                2.23839292              -41.32592097               41.16230412              -43.30814578               47.20046567              -97.16705839
              77.48386349               12.77833445               82.12044684                0.00010000               14.79014868              -12.84883996              -21.34784507              -34.93520418               46.63287765             -157.00630984
              78.70032575               11.91564423               74.83462745                0.00010000               32.05973068                3.35978672              -82.55977787              -18.30964162               39.97818608             -230.96051745
              80.12505810               11.15028727               67.43776714                0.00010000               55.04298189                6.96997727             -139.81162638               -5.33757182               25.54618078             -318.11989138
              81.80118538               10.38513737               59.80836969                0.39462883               67.61272824               -0.97099992             -189.51833759                2.26703071               17.78752445             -410.26460836
              74.25109057               17.76808084              133.57234181                1.00000000             -108.28627494             -117.93394412              394.68624335               -4.52814010                2.83602676              188.92714960
              74.16822782               17.33894842              125.44697400                0.57723417              -97.62892526             -101.56854449              330.61322010               -0.48023886                4.20960384              139.81665814
              74.29851206               16.85300906              117.41844203                0.00010000              -75.69515144              -86.49168674              265.80119638                1.17330352               14.56909648               99.62405037
              74.65432479               16.32800879              109.53734386                0.00010000              -53.18459858              -72.94980494              200.88855416                0.91143015               28.35789898               61.93589866
              75.23482009               15.75687035              101.80055803                0.00010000              -31.71777392              -58.31922721              136.11931460               -3.70595261               40.76691179               22.43323817
              76.01996931               15.12772441               94.17723041                0.00010000              -12.81019363              -39.33315928               71.51029096               -9.73546670               49.03560537              -19.20621213
              76.97861622               14.44848653               86.61371327                0.00010000                3.87325332              -16.48652879                6.95552634              -12.20861316               51.62785519              -64.24978259
              78.09743438               13.74983309               79.04348911                0.00010000               20.76123682                5.89895124              -57.51046811               -8.43715535               48.19820960             -115.48581482
              79.39384096               13.05743980               71.39570441                0.00010000               40.27215153               22.94641422             -121.21644639               -1.26789940               38.66183877             -174.45324208
              80.90287741               12.35567629               63.58883965                0.00010000               62.63018594               32.37588368             -183.14200618                2.24376926               22.65447391             -241.74252943
              82.64644467               11.58024025               55.54339263                0.39537410               74.35672654               36.93817233             -241.19944044                4.78931049               15.29463227             -313.55928988
              74.55299955               17.61998939              131.96975481                1.00000000             -101.10010200             -111.42745371              371.63909843               -4.45739736                7.31031057              146.77200389
              74.54199853               17.36755266              123.62485361                0.62471312              -90.72213407              -92.62549306              304.41208175               -0.32919754               11.77098054              105.14246164
              74.73855687               17.05112807              115.44083288                0.00010000              -69.95334917              -74.49709452              237.72001727                0.92496650               26.35660739               74.67912198
              75.14293155               16.68884529              107.42914872                0.00010000              -49.37518658              -56.93193943              171.76097072                1.96223075               41.46056778               48.19921127
              75.75105314               16.28882926               99.56548613                0.00010000              -29.50807179              -38.86593616              106.44572819                1.79226428               53.80709312               21.70070853
              76.55277011               15.85363563               91.80329675                0.00010000              -10.64056526              -19.35792601               41.49753161                1.12486811               61.39140236               -6.94123546
              77.53824183               15.38771770               84.08195380                0.00010000                7.66985005                1.31954018              -23.38372971                1.68443646               63.00253865              -38.88295899
              78.70616711               14.89631347               76.32895943                0.00010000               26.54413625               21.43821877              -88.37264154                3.92087623               57.72039683              -75.13890196
              80.06912456               14.37457251               68.45932815                0.00010000               47.04829631               38.97123311             -153.49868779                5.91960818               44.85622151             -117.07307677
              81.64713304               13.79780494               60.38227002                0.00010000               68.93595585               53.48488038             -218.47794306                4.58844188               24.92192617             -166.18517528
              83.44784368               13.12390082               52.02511836                0.39604577               80.07106360               67.21753969             -282.52681116                5.09532916               16.05064597             -223.41717270
              74.66681609               17.53953177              129.93942202                1.00000000              -93.63109087             -104.36747501              346.74664224               -4.38353207               13.82074425               87.29351886
              74.73050519               17.48643856              121.42916275                0.52966774              -83.55486703              -83.64038739              277.36607427               -0.06598448               23.21630221               57.80555916
              74.99571875               17.36306717              113.18562291                0.00010000              -63.73184820              -63.84462035              209.89414003                0.79325763               44.75796803               40.83932528
              75.45586822               17.18937000              105.15410494                0.00010000              -44.49218568              -44.47474941              143.98700399                1.85619916               62.21961529               27.13255022
              76.10587504               16.97955163               97.27834671                0.00010000              -25.61449968              -25.19095710               79.08067024                2.66302743               75.26648291               13.64532128
              76.94357823               16.74056589               89.50210958                0.00010000               -6.81239657               -5.69734977               14.67387472                3.38822687               83.20856319               -0.97532606
              77.96962711               16.47487734               81.75927151                0.00010000               12.27094349               13.89455689              -49.67661716                4.42392516               84.82750818              -17.50723797
              79.18899710               16.17859747               73.97065711                0.00010000               32.05572711               33.05421289             -114.35593595                5.54795015               78.70937417              -36.61363962
              80.61074165               15.83686446               66.04145953                0.00010000               52.81604217               51.28183752             -179.69793513                5.62339682               62.87436270              -59.00484877
              82.24531794               15.42537390               57.85226482                0.00010000               74.27089279               68.78544178             -246.11779025                3.48203824               35.42037675              -86.09783904
              84.09615951               14.92459104               49.27163457                0.39669021               85.08415656               87.76684186             -314.04915384                4.03095248               21.71934384             -125.88904788
              74.57151533               17.53263989              127.25271805                1.00000000              -85.43718881             -100.68918788              319.68953610                6.68042542               32.43335210               48.91363249
              74.71714344               17.69474491              118.72484347                0.71742477              -76.00123763              -79.16936517              250.14639620               10.74361468               46.38810545               28.40791521
              75.05149058               17.77423567              110.57287964                0.36549549              -57.67861864              -58.88315003              183.88926795               10.80745257               73.49171181               20.09249232
              75.56357107               17.79935031              102.64666206                0.36212097              -39.91863924              -39.00196953              119.40244312               11.30900744               92.05113942               13.61074075
              76.25311780               17.78501012               94.88387094                0.36076731              -21.91810660              -19.45415109               55.81456072               11.74119199              106.51359141                7.36086431
              77.12520894               17.73968864               87.22763165                0.36189130               -3.22145149               -0.08772571               -7.50353889               12.19300747              116.39571359                0.50919853
              78.18868877               17.66560884               79.61263311                0.36472255               16.49650253               19.07315053              -70.97013399               12.79162030              120.23178356               -7.36255746
              79.45513899               17.55739773               71.95875245                0.36987795               37.30636489               37.88002646             -134.85114361               13.34421014              115.97674098              -16.57362615
              80.93481606               17.40020926               64.16506050                0.37775366               58.69541177               56.33447974             -199.38009667               13.21324354              100.71932484              -27.58338384
              82.62904723               17.17351378               56.09835221                0.38827063               79.76061856               74.81398795             -264.99290804               12.32434809               66.34272843              -41.08808825
              84.53002843               16.87923765               47.49831783                0.69867278               90.09812088               95.46466115             -333.68297502               13.95928049               46.33497741              -69.01171540
              72.93659281               24.10684603              148.36598708                1.00000000             -152.35912224             -163.87321348              557.22397973              -16.13695068             -139.65806072              106.07481712
              72.41300159               21.81904644              141.35210156                1.00000000             -126.90486062             -139.14564977              475.34324701              -20.78848483             -230.44870707               36.83819150
              72.39849560               19.25634249              132.78190323                1.00000000              -56.84802323             -106.48393413              341.29941469              -37.17149273             -305.64402919                7.59393735
              73.27604112               16.27379574              124.43001954                0.69877868               30.47416171              -59.04931407              192.84727529               49.24730465             -232.34024173             -137.37905002
              75.00797883               14.27941401              117.12971379                0.55911287               59.40251750               -7.17103377               84.72758793               51.29915875             -106.31841440              -23.13125945
              76.46409147               12.80018880              110.78312538                0.32805583               39.97119341               -6.67458244               54.24012925               34.97524525              -39.50375121               11.79243259
              77.80740270               11.38881157              104.44876914                0.00010000               25.91260680              -12.87195446               49.18621838               15.90442023              -24.99397213               44.27493390
              78.98234361               10.21355594               98.14581987                0.00010000               15.42405941              -24.38865977               42.68480948               15.67284013              -19.06487458                1.01936796
              80.11588389                8.85961117               92.04784309                0.00010000               20.01375849              -25.41615891               41.97660867               -9.51676735                7.43458728               -5.75929299
              81.38261878                7.29285791               86.55265992                1.00000000               13.17879961               -1.98388751                6.57495261              -11.93909256                8.51659029                2.52909131
              82.37945988                5.92566322               80.86290880                1.00000000               -0.31588983                1.65248573               -4.60273218               -1.61897678               -1.15272380               -2.45982090
              75.06302290               23.46811390              145.86830507                1.00000000             -143.26543913             -159.47423041              525.37434887               -5.44269333              -68.11969569              147.68405547
              74.63036851               21.42758994              138.92289026                1.00000000             -113.18084429             -133.62000066              446.67244716               -9.05863664             -129.65803031               70.08190706
              74.79940602               19.19150315              130.98883563                1.00000000              -18.66950499              -95.04506434              298.38086289              -24.59823213             -239.21391564               10.82682327
              76.25697841               16.68330260              122.12980627                0.91639163               22.91839373              -29.54234752                0.05061161               23.66037284             -142.97555054              -77.45089447
              77.25777389               15.20770367              116.12661294                0.81557801                0.10833667               -3.59284179               -0.09417737               38.77022815               -0.14568509              -12.71936663
              78.25914514               13.73344298              110.12322368                0.60862282                0.09947204               -3.34669236               -0.13265246               16.10103476               -0.03664437                4.41059022
              79.25976333               12.26009202              104.11971843                0.31733353                7.22635325               -6.46871532               -0.03665445                8.09959149              -31.72499292               21.07121106
              80.40367221               10.96966934               97.47996424                0.00327086               11.06509489              -27.55325076               67.46048356                6.77962232              -32.71614447                3.83956491
              81.48106523                9.60544958               91.45605663                0.09089802               16.32648101              -28.19966663               39.79873975                0.45251509               15.99910675               -9.06506679
              82.73020183                8.27301904               85.98839103                1.00000000               12.46997884               -1.82052798                5.49608102               -0.18196724               12.29876204                3.50998592
              83.73046481                6.94218807               80.27905653                1.00000000                0.02629766                1.77554320               -5.41541491                0.21222162                0.14671208               -3.45889994
              76.90878687               22.91736143              144.39471572                1.00000000             -140.03472626             -150.78117030              500.74595938               -6.72102267              -45.96102160              215.23810107
              76.50843960               21.14664642              137.16130319                1.00000000             -112.89842885             -123.29058407              425.01714412               -2.42221177              -91.31693309              131.66875148
              76.65081829               19.35544120              129.31385214                0.00010000              -38.76957724              -81.22297572              270.70950465              -11.17215739             -156.91511245               47.70692208
              77.73304806               17.68294879              121.38099911                0.00010000                4.12123660               -0.03738235                0.05057455               -9.80536525              -96.49182999                0.10868823
              78.73324302               16.20755717              115.37814629                0.00010000                0.03378768               -0.02788335                0.02136041                0.05986362                0.06534451                0.01904130
              79.73372381               14.73325495              109.37584799                0.00010000               -0.00374298               -0.04581773                0.06767089                0.05908039                0.10372159                0.04210020
              80.73316816               13.25943726              103.37302490                0.00010000                1.94273427               -0.11370847                0.31062768               -6.17072490              -32.42079313                0.17434590
              81.77257850               11.66249093               96.71925865                0.00010000                4.42081675              -40.13506918               68.51600803              -19.63313895              -42.21208419              -64.15117027
              82.82158450               10.29561784               90.51944917                0.00010000               13.48312212              -42.01840143               58.92829764               -6.32189676               27.28751228              -85.00244042
              84.04224094                9.25644735               85.43703620                0.00010000               11.18908691               -1.50003568                4.32747639               12.67708781               33.41257402                3.94937164
              85.04536624                7.96117408               79.68277629                0.38826830                0.31252946                2.06185070               -6.36188995                0.19047265               -0.18583580               -3.99271494
              78.47003246               22.45249049              143.31139509                1.00000000             -132.61879593             -142.61232141              482.68422945               -3.97043320              -29.69646136              245.57323644
              78.14384450               20.96177826              135.78109740                0.60339966             -121.51859793             -116.31616047              404.55343766                5.09244285              -56.92070955              167.32875772
              78.03966050               19.56704364              127.96641327                0.00010000              -46.75446793              -85.31620774              308.11323354               27.62626153              -75.86380513              109.32783182
              79.20875514               18.68255496              120.63252478                0.00010000                8.45022528              -35.96760048                0.12143378              -13.02916909              -66.40851139              -31.84617498
              80.20866500               17.20714600              114.62968380                0.00010000               -0.01542387              -25.19237392                0.14940371              -48.45626117                0.20910245              -89.19769913
              81.20844666               15.73252662              108.62857695                0.00010000               -0.07760713              -23.81285544                0.31397313              -48.62613752                0.25041529             -136.66613435
              82.20711286               14.25781786              102.62617346                0.00010000              -11.68089027              -27.74518979                0.54994895              -78.31759594              -96.27586568             -193.40605101
              82.97482886               12.16696796               94.69381206                0.00010000              -22.32209963              -45.18714321              161.76722552              -81.07564694              -86.19273349             -179.48590108
              83.76067087               10.76508155               88.05450987                0.00010000               17.16792436              -45.97226081               53.97035436               -8.90930329              126.80301861             -232.39342819
              85.31818734               10.24301832               84.87493415                0.00010000               28.20749658              -43.01015367                3.17429944               -1.85373970              132.19668267             -327.60602031
              86.32482080                8.98342509               79.09612964                0.38848709                0.66334570              -30.51929762               -7.38877557               -5.59535595                2.21869583             -369.48321664
              79.81080268               22.06511500              142.34445061                1.00000000             -131.50673580             -135.23547329              465.31717157               -0.24988854              -14.86200485              253.97887091
              79.49573532               20.82032321              134.50997625                0.51979469             -116.41179279             -113.93384515              394.61077827                6.91153120              -26.99706559              181.01059918
              79.48256682               19.64911705              126.63009989                0.00010000              -83.16865045              -93.84507733              304.69905330               38.72406552              -11.98818764              117.35793361
              79.83236231               18.96359678              119.24426379                0.00010000              -38.42103442              -97.63834365              241.39826944               -8.38753923               12.07367194               17.71344623
              80.71414613               17.70370969              112.09710392                0.00010000               -6.09165500              -73.58419389              135.84442185              -64.78045807                0.87421288             -126.41526596
              81.71052921               16.25699784              105.14710639                0.00010000                0.91143860              -62.22994788               90.01426669              -86.56026725              -12.85913524             -220.66120578
              82.73237490               14.70453347               98.00946782                0.00010000               -3.33636741              -61.89681256               85.73386923             -113.56437161              -21.59290098             -289.16460590
              83.64380186               12.75874806               90.86557379                0.00010000               -8.25134181              -30.55951821               37.63963187              -93.55561868               -5.11696726             -277.19482495
              84.56734807               11.37617262               84.12715952                0.00010000                7.15103746              -27.18637291                5.18469628              -30.06632717               25.14391567             -334.38968625
              85.78682261               10.39624428               77.68530303                0.00010000               44.26487577              -58.52511302              -52.28694435              -23.40961376               27.30638757             -572.91007547
              87.45264558                9.35078813               71.19783303                0.38934727               66.58229728              -54.59295928              -93.04282044                4.76872078               29.52622602             -718.31757443
              80.95461826               21.74778103              141.31286553                1.00000000             -125.65451861             -129.80594866              449.07969692               -0.43389654               -6.14910866              245.44274852
              80.69807307               20.68310135              133.13756869                0.53842011             -114.18750087             -111.78659502              379.05764290                9.11721934              -10.91934884              174.78051343
              80.67086824               19.69014209              124.98874756                0.00010000              -85.58306798              -97.33129476              308.86502584               17.25360824               -4.43565466              109.56732552
              80.98641171               18.72978808              117.03439890                0.00010000              -52.56067283             -107.22934431              236.08818015               14.65216063               10.61131108               25.38965973
              81.61965478               17.73546213              109.34208803                0.00010000              -25.49970837              -91.44232227              172.79617952              -15.68061735               17.23560220              -61.17098512
              82.47641754               16.48792766              101.73005897                0.00010000               -9.27897851              -71.93232815              111.79966631              -50.09695164                8.94809544             -139.68349419
              83.43407521               15.01988160               94.14340733                0.00010000               -2.21701076              -52.43948904               53.71324047              -65.44921401                7.49265011             -194.58581851
              84.43207733               13.55577760               86.67234570                0.00010000                4.38864484              -15.02557351               -0.28586879              -51.50742421               15.28213351             -250.22091231
              85.52184811               12.22135409               79.30513593                0.00010000               22.16511168               -3.96890888              -59.86629230              -20.65562551               17.92247361             -335.31531109
              86.87537956               11.07251606               71.94411459                0.00010000               49.46297032              -12.39594822             -116.51408099               -1.10857908               13.14480787             -451.33494219
              88.51110751                9.89156590               64.43979645                0.38957075               63.57279535              -21.92841484             -165.51099158                0.44131166               12.75217492             -595.03754028
              81.93148410               21.46899602              140.08760833                1.00000000             -119.57654503             -125.77678671              430.48404439               -0.04138179               -0.76551405              223.22257559
              81.73571864               20.58459131              131.57959071                0.57700126             -107.52659189             -107.59438529              360.33508789                6.80137772               -3.06976327              159.26969277
              81.78095226               19.70249115              123.12468637                0.00010000              -82.78165791              -93.99163392              290.49230009               13.48774465                3.59657121              102.30408138
              82.08008549               18.81900990              114.82208296                0.00010000              -56.92790261              -83.39401401              222.11438347               11.56639072               15.35841573               43.72035423
              82.64239421               17.87486325              106.68204424                0.00010000              -32.79573940              -73.38512219              154.84633643               -0.50218095               24.12452289              -19.06903291
              83.42417070               16.81835128               98.67354477                0.00010000              -14.34267561              -53.89712017               89.49243686              -15.84109739               27.98034336              -77.38945965
              84.35554069               15.65574369               90.74127068                0.00010000               -0.59949056              -26.42218876               24.96287163              -23.35456142               27.68967303             -131.78718228
              85.41218089               14.45823659               82.83625135                0.00010000               14.09781995               -1.15818448              -40.01938594              -17.07509144               25.63588584             -192.82419162
              86.63749709               13.29679444               74.91867411                0.00010000               34.11291671               16.11097666             -104.66559020               -3.16094340               21.88890738             -268.06700214
              88.09443922               12.14832531               66.92109523                0.00010000               59.29375216               21.25566910             -168.37493103                3.06278100               14.10074718             -360.65814910
              89.82337213               10.91221983               58.76413624                0.39032866               72.89329134               22.09107465             -226.60407743                6.70741989               12.73964036             -468.83611692
              82.72260004               21.23224529              138.59511771                1.00000000             -112.19945502             -121.35971965              409.63567482               -1.33037321                3.20816240              191.25143265
              82.60060549               20.53121365              129.79171338                0.61459528             -100.81977487             -101.83923128              337.76733449                4.99555374                4.02761322              135.79453403
              82.70620455               19.81030941              121.08967551                0.00010000              -77.76190317              -84.34009710              267.23795179                9.01147908               13.78443107               89.44090586
              83.04536743               19.06190780              112.53940784                0.00010000              -54.79673839              -68.56758704              197.87261625                9.94602772               26.45833531               45.92843639
              83.61026978               18.26775968              104.14278555                0.00010000              -33.33261370              -51.71850508              129.70460451                6.42183507               36.99391178                2.64965225
              84.37871516               17.40998526               95.85992889                0.00010000              -14.15855530              -31.45582638               62.16939021                1.13559462               42.57428054              -41.46253526
              85.32709867               16.49143783               87.63447256                0.00010000                3.54047920               -8.18782657               -5.27985740               -0.89540250               43.02354178              -87.39865453
              86.44952474               15.53261391               79.40426662                0.00010000               22.07209223               14.43901639              -72.95950706                2.05403921               38.72439850             -138.09827351
              87.76854052               14.54357363               71.09897430                0.00010000               43.58425264               32.31870350             -140.99019540                6.24335150               29.89805453             -198.09336291
              89.32120979               13.49762944               62.64772390                0.00010000               67.44631793               45.30859720             -208.56616539                5.88453082               17.16424160             -270.51952720
              91.11746688               12.33338740               53.99400125                0.39066231               79.62570825               56.93543110             -273.93051607                6.38678075               13.04559386             -355.13212027
              83.30693992               21.04180163              136.76345752                1.00000000             -104.93743202             -116.03065249              386.91881402               -2.29139270                7.93999997              148.73717051
              83.25756560               20.54780669              127.71685501                0.66431790              -93.82261192              -94.49777846              313.40986921                3.08020767               12.67462041              102.23603183
              83.43048768               20.01568921              118.84314485                0.00010000              -71.80049161              -74.65451489              241.84160569                6.11415185               27.96138713               67.47272614
              83.82155577               19.44765816              110.15380654                0.00010000              -50.38671177              -55.56708863              171.96994673                7.84395265               43.26363169               37.73848157
              84.42275345               18.84049315              101.62060061                0.00010000              -29.91756634              -36.10085728              103.28685148                7.92371239               55.11411783                8.96235849
              85.22320444               18.18923475               93.19384310                0.00010000              -10.38747258              -15.41488912               35.22675570                7.35156186               61.68114881              -20.60611677
              86.21500400               17.49198715               84.80834231                0.00010000                8.89607147                6.14951568              -32.80914108                7.51317474               62.00404106              -52.42341361
              87.40112587               16.74701692               76.38753159                0.00010000               29.11722931               27.11587352             -101.33639101                8.54156215               55.64315084              -88.52407534
              88.79734858               15.94316851               67.84641167                0.00010000               51.05950988               46.12187936             -170.61946598                8.59695554               42.40288778             -131.40180487
              90.42231607               15.05449726               59.09705525                0.00010000               74.11216312               63.48320215             -240.60161592                5.39027423               23.23795218             -184.25777756
              92.27959185               14.05092845               50.07564487                0.39158410               85.72757758               81.89748947             -310.57886334                5.54288249               15.66206118             -250.30389061
              83.66476208               20.91163224              134.48891738                1.00000000              -97.64400131             -109.55287485              362.92915134               -3.20232666               14.89381801               88.61397313
              83.68832207               20.64125808              125.26035115                0.56632654              -86.80629826              -86.67489658              288.19751142                1.50893415               25.38668296               55.97877264
              83.92863611               20.31721911              116.32059962                0.00010000              -65.54397586              -65.46912632              216.21794356                3.27057368               48.83262268               36.65344052
              84.37744255               19.95056603              107.61090407                0.00010000              -45.07343423              -44.89798036              146.41716053                4.71308817               67.40280813               21.27562499
              85.02716743               19.54574254               99.06873357                0.00010000              -25.15950819              -24.47860595               78.01334614                5.54694530               80.67210996                6.87837653
              85.87425239               19.10168748               90.63145031                0.00010000               -5.37937139               -3.90953934               10.25110874                6.04611886               88.12484477               -7.99056318
              86.91958000               18.61442814               82.22749372                0.00010000               14.74611194               16.72363400              -57.55500022                6.56410849               88.82625906              -24.30798027
              88.16917462               18.07493138               73.77331833                0.00010000               35.67096437               37.03473710             -125.99472265                6.79470675               81.61429810              -43.14443415
              89.63299929               17.46601122               65.17031165                0.00010000               57.60403570               56.79413744             -195.55385036                5.79877140               64.67102911              -65.94025115
              91.32125534               16.76729349               56.29558686                0.00010000               80.12314221               76.50181090             -266.61849504                3.12457398               36.22646084              -95.04606464
              93.23546213               15.97133719               47.01512223                0.39196846               91.42067950               98.20704625             -339.39858702                4.13331518               22.52150267             -140.04646657
              83.78364172               20.85074413              131.54519162                1.00000000              -90.14843042             -106.08881089              337.96135101                8.24442614               35.07564369               50.08283974
              83.88215742               20.81430876              122.29814161                0.73522143              -79.85252570              -82.69493229              263.20425936               12.16166254               51.08667958               27.65674716
              84.18659121               20.70630669              113.46022423                0.36504097              -59.74316527              -61.09124268              192.11864420               12.56499887               80.91077730               18.18674145
              84.68729411               20.54969855              104.86786088                0.36200703              -40.20101497              -40.08674807              123.34190404               13.21587322              100.55341897               10.91801710
              85.38257091               20.35092103               96.44924994                0.36086953              -20.59264485              -19.48215081               55.82025201               13.60761859              114.91172479                4.23670381
              86.27544121               20.11104397               88.14024950                0.36164912               -0.47643191                0.93564887              -11.31507889               13.89582318              123.96576228               -2.69219814
              87.37304227               19.82645983               79.87032073                0.36425467               20.49978606               21.20316922              -78.72845896               14.17961141              126.70937681              -10.40642704
              88.68543694               19.48771166               71.55588184                0.36858188               42.39598158               41.27802848             -146.90203152               14.25580246              121.46078936              -19.47493732
              90.22096190               19.07905126               63.09363280                0.37545406               64.70223225               61.30400475             -216.19232547               13.63735186              105.43085650              -30.67996945
              91.97948158               18.58453348               54.34691750                0.38464227               86.66044263               81.72399885             -286.96582467               12.62352995               69.82892714              -45.15290799
              93.95417075               18.01506938               45.03962660                0.69620598               97.46891731              104.37321935             -360.35689001               14.92445229               49.54570623              -76.26201555
              78.91977264               27.82551381              155.16625555                1.00000000             -169.52107978             -175.15873404              599.18883139              -29.00620423             -142.22109066              101.32831224
              78.22456184               24.78427225              147.21292508                1.00000000             -141.51391487             -141.57339801              505.84277961              -32.14990253             -251.56554502               48.98441519
              78.08949434               21.35693604              137.34043344                1.00000000              -68.08006754             -120.44264276              382.28171534             -101.20562435             -380.27858743               10.11010183
              78.86296049               17.10631759              127.42588941                0.69917940               30.18045018              -67.30721545              302.99200443               24.20203113             -332.39977008             -252.18112217
              80.69310334               15.05217027              118.92995725                0.57874228               70.28905112               -9.67621532              115.80115277               78.90901148             -194.87350645              -94.33769015
              82.26874151               13.55320713              112.20444799                0.38796653               47.78670943               -7.32166015               50.64339238               50.53636783              -84.24047290              -32.13702753
              83.64883753               12.07707576              105.81558684                0.12172519               28.56070115               -6.89637452               30.31465085               20.70719907              -53.61904779                1.82337724
              84.83995553               10.73599427               99.50077574                0.00010000               15.86789046              -19.60839504               31.36133708               10.44527000              -36.49630712               15.96589957
              85.96619534                9.43598225               93.40177167                0.00010000               13.80645453              -13.89491222               26.14426224               -2.08553009               -8.97597902               -8.26269467
              87.11608462                7.88674730               87.61316352                1.00000000                7.39228472               -1.64291689                5.30157341               -9.24623414               -0.82976060                2.16676195
              88.11404104                6.49065388               81.82145942                1.00000000               -0.20435890                1.27672400               -3.62311596               -1.52477910               -0.99449380               -1.95708803
              81.67095215               27.07392647              152.31591830                1.00000000             -153.36004486             -168.25490193              564.61639987              -15.12235260              -74.69819790              145.78048886
              81.13735170               24.36853827              144.46506760                1.00000000             -137.72683578             -131.99235228              464.16835703              -31.56189915             -166.23671241               79.97085037
              80.91641543               21.15250961              134.99327996                1.00000000              -43.99940066              -97.91528312              352.87757054              -95.46606749             -390.95982544               28.09918035
              82.25736368               17.43324543              123.13057594                0.93034929               17.11666271              -33.69607334                0.19342878              -16.21696599             -293.25950252             -177.20098737
              83.25874868               15.95540812              117.12505300                0.84556880                0.21443792               -4.83888050               -0.19608388               54.48926571               -0.40898398              -52.95972198
              84.26165244               14.47999053              111.12107835                0.68225831                0.28836342               -3.67192218               -0.27113835               26.03962132               -0.28201308              -16.94784349
              85.26451595               13.00811202              105.11836926                0.46587015                0.16512725               -3.47860743               -0.24202134                7.45850530               -0.14013274                2.41830768
              86.26495499               11.53991032               99.11392896                0.24818188                5.27237854               -9.82980037               31.55868501                9.42568623              -23.81788639                9.42571719
              87.36996352               10.29703313               92.77197544                0.39329756               11.56657418              -12.32589038               32.83383962                5.05384043              -12.39457420               -3.66073861
              88.49628647                8.87031814               87.03862019                1.00000000                6.24615737               -1.45957555                4.86707257               -3.06372995                3.70567330                3.08185411
              89.49488667                7.50342112               81.23028542                1.00000000               -0.13998002                1.39042220               -4.61411384                0.17849704                0.18703864               -3.05859068
              84.02810197               26.46041577              150.55654215                1.00000000             -151.33612567             -152.54846343              532.83923544              -12.24947363              -49.40799926              216.76619785
              83.51474071               24.14442521              142.47194405                1.00000000             -145.63180672             -116.36972659              438.12808701              -31.15950073             -128.55292980              136.57386939
              83.11546583               21.39863038              133.01573463                0.00010000              -88.95090236              -60.62241032              320.76466487              -64.09467890             -284.87590776               93.98228927
              83.73572266               18.43239612              122.38120623                0.00010000              -18.96611376               -0.06345916                0.11736094              -74.38296295             -231.45613349                0.20015002
              84.73614356               16.95539266              116.37813994                0.00010000                0.05536866               -0.02195523               -0.01997567                0.06072336               -0.02040575               -0.01181993
              85.73683004               15.47976869              110.37633542                0.00010000                0.09721451               -0.05467324                0.03474837                0.13909133                0.10224921               -0.00970668
              86.73808785               14.00750361              104.37673459                0.00010000                0.13590534               -0.13209611                0.23672279                0.37821502                0.48865121                0.18772993
              87.73954814               12.53939826               98.38141811                0.00010000               -0.06117560               -0.19523339               33.18479239                6.51878035              -15.92070560                7.26713684
              88.73686434               11.18946445               92.09127807                0.00010000                5.44369482              -37.01427071               44.28193272               -1.63214105                0.67723231              -81.05439770
              89.84842204                9.85755579               86.47539881                0.00010000                5.72703382               -1.09564729                3.01907462                0.28110834               11.51650463                3.59308125
              90.85140501                8.51846232               80.62437835                0.38427260                0.29829723                1.66000686               -5.22084351                0.31366628               -0.13076384               -3.74502531
              86.05794379               26.02295720              149.25972090                1.00000000             -148.19967161             -138.30308656              506.98382474               -7.59538820              -36.12756316              246.61827396
              85.57594707               24.04114374              140.86535799                0.62944048             -135.56964238             -107.23072933              418.38406595               -8.13853009              -70.25045304              171.34068772
              85.34655094               21.94006141              132.04335360                0.00010000             -118.15024659              -55.06298816              302.15582832              -22.24433463             -185.01456222              131.70561996
              85.21294214               19.43197625              121.63374760                0.00010000              -56.69801803                4.98021341              169.61443102              -13.41627594             -142.43790906              141.88358141
              86.21259058               17.95496901              115.63141274                0.00010000               -0.03094134                2.26498191                0.20813017                8.91589382                0.19610993              -31.27941478
              87.21232332               16.47889707              109.63134369                0.00010000               -0.00699517               -1.16762520                0.29305474               -0.42472964                0.46515934             -103.14974457
              88.21245068               15.00547010              103.63479992                0.00010000                0.05232234               -9.49143820                0.67751882               -3.08006997                1.01657219             -168.35071928
              89.21336976               13.53600565               97.64655966                0.00010000               -9.66437520              -26.36189391               97.99200171              -31.37779281              -89.07317373             -213.23052618
              90.01916317               11.55674772               89.61842458                0.00010000               -2.02294994              -42.98282262              130.98947955                2.14344444               35.40223490             -246.86974809
              91.17291076               10.84840519               85.90172019                0.00010000                8.00918831              -36.84074641                2.09043942               36.89031703              110.13174799             -359.26004694
              92.17934694                9.53662125               80.02780833                0.38469292                0.64361771              -52.84590450               -6.04499914               43.95464634                2.12487517             -419.22870355
              87.83982111               25.69435404              148.09894139                1.00000000             -140.49552110             -130.26115479              485.70586996               -1.41996621              -16.99115903              254.81965096
              87.43486590               23.99981062              139.47024598                0.55408540             -128.00372386             -103.82295445              399.75987838                5.84596546              -37.09046170              182.89248156
              87.27974663               22.29737061              130.62536166                0.00010000              -99.11881817              -70.40508933              307.30446323               10.02079529              -34.76651784              124.99107350
              87.45248954               20.53200039              122.37863941                0.00010000              -70.61030095              -14.33890788              192.01319215               34.03523935              -26.76213258              122.46826509
              87.86754062               19.00069230              114.25912961                0.00010000              -38.73275884              -12.63326664              115.36218135               18.27118311              -28.41468508              -41.52373809
              88.67783436               17.45641619              106.82322266                0.00010000              -12.40813772              -13.43585732               57.64450601               -2.86532527              -20.36937055             -178.36360836
              89.61937786               15.81767485               99.52163377                0.00010000               -5.85598482              -17.69921853               34.46611832              -23.31627190              -37.90222349             -288.69161233
              90.56071466               14.01216039               92.00854271                0.00010000               -7.60220862              -25.21457826               12.38232255              -28.14940704              -19.47385082             -376.70103632
              91.46733369               12.32980799               85.10777361                0.00010000                2.28200898               -3.21622325              -31.72017214               15.40422479                3.41987577             -396.18218845
              92.60635484               11.12074087               78.07011756                0.00010000               44.33660603              -44.73097416              -77.49972277               28.30915501               -1.53581013             -636.42856611
              94.35406581                9.46154423               71.12136173                0.38497908               74.77109654              -70.20075148             -132.97243200               41.83719155               13.86220707             -814.50158626
              89.41863129               25.41773410              146.88558017                1.00000000             -132.87814873             -126.67432180              465.29759925                2.00512209               -6.47056781              245.63904147
              89.08984981               23.96468465              137.94373340                0.57504929             -120.19271050             -103.48189575              383.56529595               10.87089157              -12.68997451              175.04763149
              89.01477708               22.53195962              129.02919267                0.00010000              -94.97622806              -78.56275641              300.52380661               21.71785764               -8.95054685              114.52447006
              89.19032524               21.14519809              120.30105141                0.00010000              -68.05893185              -50.73804262              220.02578313               24.81146022                2.08165378               30.25116698
              89.65359845               19.70230368              111.88507592                0.00010000              -42.61454934              -36.37783382              142.53718362               22.66788374                6.85532962              -49.69656608
              90.33803426               18.21017992              103.66000009                0.00010000              -23.16087034              -24.68882412               79.00610256               10.54118701                1.24773308             -139.31207096
              91.19038104               16.65148572               95.55547387                0.00010000               -9.98928905              -11.35177230               23.95956370               -0.11170207               -4.02366641             -216.73270938
              92.13824848               15.03171409               87.54139396                0.00010000                1.41430760                8.88846531              -32.58765658                4.97003162               -4.94612798             -281.00246266
              93.21866719               13.49242325               79.55256210                0.00010000               23.45545748               21.53289082              -92.25551678               25.39989710               -1.67913093             -383.59915901
              94.60735763               11.95378571               71.61253931                0.00010000               55.79084238                5.63870515             -157.40439847               29.77195222                0.40637819             -503.62901975
              96.33448404               10.13260622               63.56883697                0.38549674               72.71264124               -0.36669994             -220.48646738               18.67356950                7.20545101             -664.58199018
              90.78602245               25.16086760              145.46762738                1.00000000             -124.79642336             -125.02369000              445.01567545                2.10206979                0.04072288              223.54487613
              90.53805822               23.93017271              136.20583915                0.61562781             -112.62160490             -102.35549243              364.85099048               11.48101836               -2.02247910              157.78341307
              90.53359035               22.72611549              127.01080044                0.00010000              -87.98417670              -80.42954621              286.81560328               19.93979872                4.70296614               98.36507746
              90.77837468               21.51723954              117.98644856                0.00010000              -63.88369448              -61.51720766              210.70962836               24.35381725               16.11268902               38.06370247
              91.25591646               20.27313562              109.15515973                0.00010000              -41.94493126              -41.54983263              138.05724549               22.29894982               23.51908958              -27.14284038
              91.93947606               18.96263970              100.47548684                0.00010000              -23.01534047              -21.60022706               68.68526570               17.96187204               23.96279428              -90.39302460
              92.79560965               17.59063940               91.88074205                0.00010000               -6.01491438               -0.90219585                1.44644811               16.58291390               20.76821313             -150.94502163
              93.81917777               16.18992969               83.32005912                0.00010000               12.88251806               20.24366445              -65.71912868               21.94992682               16.92544047             -215.43228953
              95.05326001               14.76046581               74.74131565                0.00010000               37.12165740               33.77058684             -134.99954264               28.66314237               12.23799131             -291.30583726
              96.56161092               13.23351497               66.07026852                0.00010000               65.83180750               40.77700079             -206.31084170               21.87610453                7.39296328             -389.65640674
              98.36989616               11.45421023               57.27628814                0.38622147               80.82852464               51.67414937             -278.25190485               16.08541766               10.14718660             -511.45870217
              91.92206247               24.91726030              143.76505530                1.00000000             -116.78401862             -122.99672342              423.69356375                0.98055679                4.46677936              191.44545240
              91.75422229               23.91757481              134.20232069                0.65471918             -104.77781222              -99.32685902              343.81443417                9.19268954                6.15494111              133.45521453
              91.82650623               22.92336869              124.76320107                0.00010000              -81.19204173              -77.82285021              266.88815748               16.22609328               17.31053871               84.42529833
              92.13038145               21.91485394              115.49479619                0.00010000              -58.61644776              -57.25604225              192.43352791               20.01560369               30.32360545               38.45076278
              92.65417727               20.87130703              106.39465012                0.00010000              -37.53067686              -36.55036077              119.96590166               21.03519578               40.18280863               -7.18298749
              93.37976792               19.77817538               97.42061822                0.00010000              -17.97139735              -14.63239127               48.99385297               21.06550533               44.35243045              -52.76645553
              94.29474933               18.63344181               88.50811612                0.00010000                1.38263451                7.77944345              -21.38052526               22.37182541               42.70848825              -99.10543471
              95.40742061               17.43658738               79.58429897                0.00010000               22.67977177               28.34252814              -92.35083571               24.80880954               36.47063970             -150.01251133
              96.74834476               16.16783499               70.57590050                0.00010000               47.18573442               45.73666243             -164.84332026               24.35684922               26.80595861             -210.89985803
              98.35113530               14.76932572               61.41751634                0.00010000               73.32285501               61.56357291             -239.31181980               15.96510917               14.84993137             -286.10446456
             100.21480186               13.16608921               52.06478230                0.38676942               86.36665683               82.12458953             -315.19737922               11.37682365               12.39377336             -379.17487193
              92.80500458               24.70093313              141.70813109                1.00000000             -108.92009636             -119.35915850              401.33031374               -0.74163806                9.37534782              148.93421740
              92.71580361               23.94363553              131.89305099                0.70615879              -97.20857462              -94.64236957              321.11306333                6.05298319               15.51335263              100.03618534
              92.86083308               23.16965848              122.27766500                0.00010000              -74.25275950              -72.21560486              244.34263563               11.18976071               33.04024916               63.04226537
              93.23074842               22.37211869              112.86854765                0.00010000              -52.37670745              -50.70128875              170.28194084               14.89394531               49.62906170               31.61539979
              93.81329894               21.54212841              103.63122315                0.00010000              -31.60485206              -29.14185988               98.09916008               17.12334578               61.68600715                1.89670869
              94.59865138               20.66999188               94.50783186                0.00010000              -11.43323869               -7.19135785               26.90255243               18.58234649               67.49044176              -27.94127707
              95.58463416               19.74622827               85.42577098                0.00010000                9.11546976               14.66487538              -44.22918274               19.81616613               66.46309466              -59.43796925
              96.78096078               18.75678026               76.30223161                0.00010000               31.15122455               35.53855754             -116.19663674               20.00076517               58.48423565              -94.92087928
              98.20765865               17.67519906               67.04693883                0.00010000               55.08490502               55.15016579             -189.80823749               17.07775523               43.70023798             -137.72720041
              99.88265888               16.46478643               57.57023770                0.00010000               79.81235017               75.26323172             -265.56683634                9.77021270               23.61348248             -192.32297378
             101.80390566               15.09670202               47.81354109                0.38707387               92.12467786               99.67953853             -343.47914655                7.82740836               16.10105220             -263.44765013
              93.42182492               24.53007713              139.19800505                1.00000000             -101.52683198             -113.95924624              378.13646040               -2.42878861               16.62329940               88.82813059
              93.40655660               24.02472741              129.19311298                0.60340987              -90.00033207              -88.56682954              297.47383135                2.85101413               29.05986825               54.46241704
              93.62181828               23.47905660              119.50998178                0.00010000              -67.53830839              -65.54685962              220.81691989                5.76272603               55.53362009               33.82314658
              94.05579044               22.90082816              110.08244815                0.00010000              -46.15236391              -43.41608214              147.15922494                8.21392763               75.96078870               17.55963181
              94.69877100               22.28846983              100.83861363                0.00010000              -25.42377279              -21.67084683               75.39342842                9.95923933               89.88268590                2.76523011
              95.54731498               21.63434822               91.70713175                0.00010000               -4.72433653               -0.08727949                4.47961171               11.15357475               96.97063113              -11.97629572
              96.60428427               20.92673932               82.60817150                0.00010000               16.55750722               21.27990024              -66.55746778               11.78100539               96.51136031              -27.77890894
              97.87846512               20.14735853               73.45076265                0.00010000               38.88047122               42.29958501             -138.62164585               11.20904601               87.59862948              -46.03833842
              99.38189370               19.27083831               64.13038253                0.00010000               62.32857307               63.23842594             -212.49333369                8.59853572               68.65509708              -68.64683673
             101.12503659               18.27459036               54.51989492                0.00010000               86.28125698               85.15039627             -288.74518410                4.29073850               38.16749508              -98.55387097
             103.10751884               17.15967998               44.48366283                0.38764554               98.24822516              110.41432871             -367.60679387                5.08989758               23.59946904             -146.23643552
              93.76712824               24.42174821              136.01194507                1.00000000              -94.32838094             -110.83289241              354.16211760                9.58540457               37.82225213               50.68273676
              93.82384443               24.17229894              125.98892866                0.75186726              -83.35706915              -85.24284776              273.58018612               13.57743677               56.44493870               27.11120902
              94.09998686               23.85872129              116.41525252                0.36434336              -61.91153430              -62.03353084              197.60441316               14.39176305               89.83692093               16.94758922
              94.58561374               23.50379705              107.11350014                0.36176086              -41.05115970              -39.70311153              124.67632427               15.48183992              111.26781206                9.20823634
              95.27896366               23.10871147               98.00027598                0.36097664              -20.10801766              -17.97583596               53.48761252               16.24172793              125.93879626                2.33802195
              96.18345339               22.66824629               89.00133008                0.36162159                1.41401505                3.38980655              -17.11152799               16.76958155              134.21970032               -4.53133618
              97.30724396               22.17182628               80.03806393                0.36359785               23.87946580               24.50869625              -88.09820323               17.02225246              135.52941773              -12.00043131
              98.66104271               21.60277196               71.02071182                0.36737526               47.25767877               45.54134271             -160.28851260               16.66482332              128.52831352              -20.76945052
             100.25239754               20.93996758               61.84121399                0.37338357               70.92946318               66.91292724             -234.34854242               15.30150398              110.62629499              -31.86571463
             102.07963197               20.16779435               52.35903571                0.38131550               94.15634084               89.32039949             -310.78257444               13.71058949               72.89751843              -46.72788662
             104.13552436               19.30498860               42.29118003                0.69395026              105.58923852              114.53086146             -389.90108294               16.51997647               51.56342555              -79.31337257
              85.99883194               31.83408678              162.34976370                1.00000000             -179.13191452             -184.06497113              633.08135636              -26.77086860             -120.47751323               97.45935880
              85.20751279               28.29444970              153.46895715                1.00000000             -170.94362123             -152.64617260              533.68663466              -41.98578463             -235.64336195               44.77543049
              84.57995951               24.15285148              142.42753754                1.00000000             -108.44954396             -107.46659200              460.91820832              -50.20830751             -315.95947484               96.00058910
              85.03852191               19.82080024              132.48985962                0.69833318              -12.40046952             -263.68342094              351.00343455              -85.36979784             -388.64556204             -497.28382653
              86.33195012               16.00246870              121.44573684                0.59890115               42.75652516              -30.21421671              268.31763579               17.88353215             -349.86077177             -141.99981902
              87.89365242               14.32418753              113.79599323                0.45098004               55.33719360              -10.15888514               90.16702858               77.51589936             -153.69538413              -85.68780519
              89.43869400               12.81971428              107.05506215                0.25500922               38.62901127               -7.24038486               35.69375177               31.66060560              -82.66971565              -19.69200902
              90.66623264               11.30656749              100.77304661                0.07447733               19.26412638               -2.90261778               21.08077134               17.45933857              -45.70595603               -0.84004665
              91.82397652                9.95394974               94.57072834                0.25165843               14.00515877              -11.12213262               12.42439465                7.38621481              -20.25669504               10.37834275
              92.94633582                8.48527981               88.65869139                1.00000000                5.95008464               -1.28589789                4.03840277               -4.28706413               -2.66743613                2.99426574
              93.94297822                7.06886946               82.79044648                1.00000000               -0.33576021                0.92278702               -2.76345586               -0.85134462               -0.43015951               -2.10766643
              89.27076034               30.99343707              159.16063307                1.00000000             -164.24877433             -176.26020026              597.01737098              -17.99535285              -81.62568040              142.87940585
              88.62827260               27.76798797              150.20625740                1.00000000             -147.80295868             -140.83081397              495.50180615              -32.22878856             -152.03397563               87.01156210
              88.31470117               24.07818556              140.04638704                1.00000000             -118.41286352              -98.39190640              394.57250828             -155.99717489             -507.57105578               86.15236396
              88.26001533               18.18396603              124.13367485                0.94965194              -52.78046822             -131.85100568              391.03570924             -133.74304291             -410.64595570             -137.54009911
              89.25909180               16.70032654              118.12269126                0.88089510                0.00866477              -15.07538386               -0.11066675               72.21941224               -0.83703980             -128.94747016
              90.26018862               15.22259868              112.11780091                0.76263407                0.25091341               -5.06960262               -0.29784244               44.52528161               -0.66673511              -46.90794169
              91.26411007               13.74731044              106.11487801                0.62163742                0.67598409               -3.64765437               -0.30444435               17.70535688               -0.79329850              -10.18536105
              92.27370830               12.27754132              100.11113794                0.49961986                2.21862212               -1.56822663               -0.41524751                8.44031189               -0.47381625                3.66663639
              93.30848251               10.84272841               94.11273342                0.69523280                3.61485074               -6.29344994               16.70713047                5.60257204               -6.43813826                3.42003103
              94.34600532                9.47242083               88.08573248                1.00000000                2.11963076               -1.00354188                3.31037767                1.42519233               -7.42424603                2.72250326
              95.35087513                8.07809733               82.18677425                1.00000000                0.48698097                0.99406014               -3.57153373                0.65833183               -0.85214496               -2.62806703
              92.08982308               30.30888278              157.05150043                1.00000000             -161.16345558             -157.54901684              562.36299320              -19.83260242              -56.07193147              215.99060428
              91.47818853               27.47783342              147.92386493                1.00000000             -152.28925656             -118.88489427              461.77252904              -39.84696369             -118.58612027              152.83225714
              91.04403795               24.18501336              137.72914544                0.00010000             -186.83342230              -74.33282781              373.47808438             -151.88874062             -386.11269779              107.48679287
              89.74152008               19.18378013              123.38334633                0.00010000             -115.31661151               66.94136857              298.14024739              -98.60649222             -273.47573120              333.19729505
              90.73770572               17.70096103              117.37774677                0.00010000               -0.21729659                0.01207492               -0.00927438               -0.25426686               -0.31661938               -0.00249787
              91.73717415               16.22279548              111.37654295                0.00010000                0.00763861                0.00229060                0.00578106               -0.00128915               -0.09434654               -0.03516218
              92.73785850               14.74676120              105.37775936                0.00010000                0.12233779               -0.07030758                0.08482363                0.02628767                0.06885168               -0.03520320
              93.73962091               13.27520296               99.38295449                0.00010000                0.16449754               -0.11542405                0.12175638                0.86759789                0.94878068                0.35166108
              94.74114845               11.82808074               93.40508782                0.00010000               -0.00750786               -1.57686836               15.89229115                4.75392675                5.16919302               -4.86601196
              95.73947075               10.46520898               87.49741769                0.00010000                0.18217115               -0.46611009                1.32812699                1.30515787                1.39071391                2.82057716
              96.74479187                9.08875066               81.57835942                0.38040847                0.53211196                1.18851582               -3.65386040                0.56751301                0.40323916               -2.78694057
              94.53620701               29.84245673              155.45107158                1.00000000             -158.10042703             -138.66170113              532.03316622              -13.28930304              -33.29878855              247.91639576
              93.95520274               27.39029008              146.14877872                0.65752472             -148.26136859             -103.90179873              435.81578662              -25.08052184              -84.38829577              183.22705565
              93.57097964               24.59152901              136.00952984                0.00010000             -159.16324663              -51.09569537              333.23020809              -51.63458015             -141.79761626              152.22368952
              92.77193781               21.52279340              126.02481340                0.00010000             -167.79942628               78.09390767              309.87416966                1.54353261             -163.42154607              337.40768054
              92.21499112               18.70056804              116.63384640                0.00010000              -77.87875711               45.93053662                0.22964692               33.17072756             -169.25987827               25.85696754
              93.21436267               17.22264449              110.63443804                0.00010000               -0.13813884               21.91368994                0.27544401               67.43998688                0.37820019              -79.63202649
              94.21222834               15.74590428              104.63972384                0.00010000               -0.23109738               13.16330366                0.43922576               55.18701162                0.90811457             -160.11085373
              95.20974072               14.27523283               98.65365210                0.00010000                0.06633471                2.73450374                0.62877361               49.69254277                1.40691787             -239.99055126
              96.21355503               12.81119104               92.67429946                0.00010000               -4.91510830              -15.48446983              102.92456779               51.04440437               22.49858923             -297.06981661
              97.11143855               11.46309863               86.91674294                0.00010000               -4.92065059              -25.41775674                0.97673727               64.68620735               11.02652305             -406.59906001
              98.11514202               10.10186764               80.97522966                0.38095093                0.37034668              -78.45114477               -4.15711800              108.00737701                1.78321230             -494.57654143
              96.72837032               29.53564875              154.05856800                1.00000000             -150.08645058             -127.52904306              505.52334921               -4.95045999              -18.83935025              256.26944370
              96.22750582               27.39979744              144.50517382                0.59181500             -142.47636466              -97.09146355              411.21485867               -1.35454850              -37.17516808              190.09827915
              95.87884303               25.16309945              134.77618916                0.00010000             -128.20770554              -49.81681492              319.88227649               -4.52897563              -60.35551411              160.47891779
              95.66335171               22.74565828              125.08452764                0.00010000             -108.87869210               10.21044336              201.31071787               42.83480191              -39.13493975              136.43851010
              95.70126919               20.61957176              116.40434755                0.00010000              -81.13570337               57.24663264              121.14632732              104.91162845                7.17223955               64.75086858
              96.04063764               18.66106928              108.29999651                0.00010000              -45.61294027               41.33887860               44.10156580              100.35335447               -7.81134703             -130.29580450
              96.78901038               17.01002727              100.69879019                0.00010000              -18.62263181               29.01074258                1.61058408               96.44017204              -10.94468101             -276.30058308
              97.66818500               15.32989304               93.11322024                0.00010000              -10.74198232               17.44895477              -21.07129231               81.73449480              -22.71629667             -403.65684883
              98.57417074               13.51839134               85.49275608                0.00010000                3.71666470                5.23189181              -74.22668602               91.52629558              -11.61858893             -534.47026693
              99.74251830               11.95685384               78.13530858                0.00010000               52.66153263              -23.16569639             -127.13058870               87.85650576               -8.10760251             -715.47825620
             101.62740139                9.51972776               70.53838439                0.38132564               88.48830914              -82.84339785             -209.10551527               87.66135135                1.16430609             -942.74630531
              98.70890044               29.29187587              152.61881751                1.00000000             -140.82393613             -123.76151722              481.21063936                2.03372827               -5.65736862              246.46546961
              98.30066108               27.44846081              142.80887461                0.61511620             -128.71805754              -95.90625824              390.24125901               11.39535092              -12.84511315              181.05193821
              98.13453929               25.59519271              132.99922369                0.00010000             -106.42497703              -61.36575720              299.34905092               24.70502965               -9.57114709              128.63703587
              98.17216154               23.72700227              123.43491456                0.00010000              -86.83632990              -17.95595574              210.45141797               42.24681269                6.17306842               77.72534386
              98.39781269               21.84550069              114.19283170                0.00010000              -67.05936454               10.14302386              124.83578950               62.24441624               17.38963904               -7.97820337
              98.83097425               20.04942206              105.31018102                0.00010000              -46.28023354               29.44016941               53.27004315               80.89125336               22.01208560             -106.78010459
              99.47220802               18.32611914               96.62259860                0.00010000              -24.74538503               33.70868689              -10.44637705               85.60560798               11.75561798             -210.11817882
             100.33606655               16.62421193               88.02059257                0.00010000               -2.75439397               38.83963739              -72.98911642               90.58204199                6.00769878             -300.84981870
             101.41712014               14.91582888               79.46002559                0.00010000               26.55828510               46.44739766             -138.36195024               96.67247788                2.02455020             -400.04294621
             102.86723225               12.99978470               70.79602662                0.00010000               66.27505315               29.66831526             -215.24597117               74.69892527                0.56066450             -539.04729230
             104.74262120               10.44499969               62.03006710                0.38167499               87.53889552               33.36863468             -303.28339675               43.86526005               10.92231448             -714.17686473
             100.45587501               29.06041841              150.98792183                1.00000000             -130.37790090             -123.56126195              458.40126175                3.55060728                1.39255086              224.12000950
             100.15209600               27.48167228              140.87661052                0.65519541             -118.07364214              -96.76773581              369.59012234               15.01316854                0.97614883              160.71304395
             100.09440216               25.93578430              130.86099843                0.00010000              -94.70580088              -68.16209433              284.41122411               26.51337139               10.32122624              106.27091177
             100.25797998               24.38653917              121.03627552                0.00010000              -73.53322215              -38.90891502              201.95814571               36.74384409               23.56769489               50.09991348
             100.62373772               22.82243224              111.44318915                0.00010000              -54.00678611               -9.87320923              123.16609492               47.68123650               34.37683581              -10.89780007
             101.17784426               21.24987266              102.04725008                0.00010000              -34.87025241               13.64445339               48.41976983               59.15461458               36.93604962              -77.34800051
             101.92633267               19.68420101               92.77019964                0.00010000              -14.38640796               31.90905353              -22.68348352               70.10963914               33.21763604             -144.09942748
             102.89011610               18.10668578               83.52186877                0.00010000               10.28574230               46.29896307              -93.73785945               76.91124467               25.54704661             -213.81147575
             104.13204752               16.44733929               74.21868326                0.00010000               40.86049486               55.20622025             -168.43610631               74.89282728               17.68214808             -295.61605897
             105.70732600               14.55022015               64.79487839                0.00010000               74.11145538               63.78931337             -249.11178985               50.09277658               10.23799621             -395.58486436
             107.61427663               12.18710046               55.19909814                0.38235463               90.69506303               88.38186599             -338.78043088               30.09749169               12.48575081             -523.28133239
             101.93740485               28.82065063              149.06898899                1.00000000             -121.18462978             -123.64410886              436.15259000                2.68214928                6.42894172              191.88258176
             101.72555855               27.51310610              138.66800207                0.69507781             -108.87325127              -96.19670847              348.86592526               12.87514676               10.49980954              134.47477651
             101.75993983               26.23195082              128.42743866                0.00010000              -85.25840333              -70.30152476              266.09487263               22.85558578               25.06189499               86.55863898
             102.02039049               24.94882397              118.38807840                0.00010000              -63.59179516              -44.71124896              186.81551169               30.93422727               40.61856019               42.36156237
             102.48810392               23.64803650              108.54210358                0.00010000              -43.40463603              -19.39842157              110.25561949               38.34694109               51.88854197               -1.90866835
             103.15229777               22.32231113               98.83980595                0.00010000              -23.52581203                4.70115061               35.78270434               45.84424487               56.49698207              -47.29438562
             104.01758768               20.96430021               89.20686205                0.00010000               -2.05723065               25.94856887              -37.82883074               52.57067651               54.11167832              -94.52238429
             105.11115315               19.55019119               79.55724990                0.00010000               22.69273207               43.77249346             -112.22064083               55.75898558               46.03689594             -146.18708880
             106.47144232               18.01995328               69.80210790                0.00010000               50.90867319               59.34015922             -189.41150857               49.83397557               33.42845494             -207.09186512
             108.12932662               16.27557097               59.86148751                0.00010000               79.96840456               77.77195265             -271.44250411               30.66705921               18.21840221             -282.77813101
             110.07081041               14.21263701               49.69005366                0.38293610               94.14837974              108.79972335             -359.82388518               18.74307742               14.42161416             -376.71598804
             103.12460707               28.58753623              146.79006380                1.00000000             -112.63083223             -121.81348807              413.93428385                0.50055531               11.70346588              149.35557785
             102.99829874               27.55773811              136.13911627                0.74682416             -100.44055302              -93.92386714              327.29374608                8.71008647               20.49698371              100.11007618
             103.11579601               26.52975381              125.72999756                0.00010000              -76.88599497              -68.79281528              245.69045112               16.23047988               42.04122187               63.16348838
             103.46057885               25.49231419              115.55944535                0.00010000              -54.93033109              -44.60088974              167.81919622               22.61729877               61.27504499               32.15463818
             104.01718938               24.43446381              105.58258381                0.00010000              -34.10566960              -20.80210972               92.44837123               28.18075572               74.72520327                3.07515639
             104.77846545               23.34389568               95.73189414                0.00010000              -13.36616216                2.31761091               18.41062699               33.02589770               80.71054045              -26.01312715
             105.74986614               22.20317239               85.92375866                0.00010000                8.55886401               24.11284042              -55.50024887               36.34143014               78.71107213              -56.77900737
             106.94964273               20.98213565               76.06359885                0.00010000               32.67405547               44.27466037             -130.65838981               35.93765646               68.68164302              -91.61472493
             108.40334725               19.63414248               66.05024692                0.00010000               58.91703634               63.94230195             -208.48204735               29.45250920               50.99756836             -133.80553658
             110.12798346               18.10565920               55.78571852                0.00010000               85.58294287               86.59235419             -290.25284742               16.54753816               27.41213285             -187.71958825
             112.11500611               16.36309492               45.20606194                0.38321076               98.70226480              117.81662658             -377.01410203               11.19883663               17.96694413             -258.49261448
             104.00701221               28.38438087              144.05164659                1.00000000             -104.94695026             -117.55086998              391.34904757               -1.89958579               19.24228843               89.26079845
             103.95754271               27.63462875              133.20982778                0.63843591              -92.85194326              -89.64182623              304.86369189                4.05818184               34.67188611               54.27873669
             104.14997334               26.85609452              122.73693802                0.00010000              -69.47581198              -64.75184163              223.88394260                8.25697773               65.60225706               33.45048573
             104.56802647               26.05680618              112.55408857                0.00010000              -47.49178974              -41.02774449              146.81823820               12.14739196               88.90435102               17.27432830
             105.20013755               25.23199431              102.57660214                0.00010000              -26.19596633              -18.00535188               72.17635294               15.40923436              104.17926494                2.82855240
             106.04410714               24.36866335               92.72104255                0.00010000               -4.69806202                4.40624616               -1.39774751               17.90722637              111.26915289              -11.38107326
             107.10617631               23.44655702               82.89634436                0.00010000               17.74145250               26.17469853              -75.19570693               19.07018957              109.60798363              -26.53483306
             108.39893619               22.43568440               73.00088541                0.00010000               41.53963268               47.51443355             -150.46456902               17.77263597               98.42449980              -44.09033183
             109.93696896               21.29879932               62.92044498                0.00010000               66.61943730               69.29657836             -228.36852710               13.17751548               76.32205985              -66.02138829
             111.73132494               20.00741806               52.52068318                0.00010000               92.14733677               93.30174825             -309.80742032                6.48263306               42.13469666              -95.36485176
             113.77991570               18.56896954               41.66298635                0.38370297              104.85907615              122.53363041             -395.26026968                6.46237427               25.31960285             -142.38956560
             104.58611959               28.23651883              140.62843397                1.00000000              -97.83708512             -114.78620390              367.71646588               10.74901288               41.18185313               51.50732499
             104.60774874               27.76490158              129.76974533                0.76774031              -86.36807241              -86.97271713              281.39168698               14.93051027               63.12360404               27.30521387
             104.85875814               27.23471698              119.41231249                0.36371825              -64.00609221              -62.13775402              200.97076418               16.22136536              101.23389121               16.92351478
             105.32762689               26.67175930              109.36138736                0.36177069              -42.26206196              -38.50468783              124.45393227               17.94203216              125.37229078                9.11509442
             106.01351690               26.07435677               99.51900219                0.36108721              -20.27898086              -15.76375417               50.21796688               19.35100028              141.03347223                2.31504784
             106.92204727               25.43202060               89.79801894                0.36137984                2.53659909                6.33572515              -23.18629903               20.40949299              148.86206521               -4.34640370
             108.06424888               24.72666636               80.10835667                0.36316644               26.54029350               28.01093413              -97.07817852               20.82744363              148.53834061              -11.52042922
             109.45285314               23.93242432               70.35011159                0.36654488               51.54575113               49.67399249             -172.67723988               20.06208000              138.94170303              -19.96482827
             111.09516390               23.02007405               60.40666195                0.37122011               76.73063818               72.12747223             -251.06163993               17.78298628              117.69178893              -30.74577422
             112.98746591               21.97169416               50.13126601                0.37813572              101.29933633               96.42761082             -333.02271810               15.29877160               76.26108444              -45.34316904
             115.12115063               20.81376753               39.24160494                0.69207737              113.36847225              124.47979951             -418.25106520               18.33083024               52.54900113              -77.30944269
              94.27183548               36.15296225              169.82788267                1.00000000             -183.79147124             -192.31843896              653.79518647              -27.24274637             -106.22583886               85.79563571
              93.43392077               32.20518037              159.88665777                1.00000000             -176.12165540             -155.13186320              550.52081769              -27.98592657             -180.38182395               56.09919444
              92.74940237               28.03924882              148.55879761                1.00000000             -168.10354117             -146.52998243              505.90453159               -7.79103873             -298.04083456               29.92851766
              92.07184994               23.87301061              136.44595810                0.69716112             -117.98240325             -108.40538648              388.84712851              -69.42014689             -310.82970462               34.24100775
              92.38975430               18.85826506              126.29630996                0.62000486              -24.31707118             -241.38162730              345.29501822             -147.04599505             -334.39264137             -385.01212471
              93.58550852               15.19583566              116.00778856                0.51476989               31.43177652              -23.45536926              229.13562165                2.32918850             -265.21849786             -123.60382998
              95.01838983               13.56360388              108.52946188                0.38714950               41.23308566               -8.18962830               73.53988342               66.05106338             -120.98551603              -65.04566630
              96.41017023               12.04301069              101.92239116                0.29293043               32.85134139               -3.96755221               14.02426715               34.54205546              -65.01569117              -11.86887500
              97.67541666               10.55953895               95.65025956                0.51535193               21.64237645               -2.84646779              -15.13098754               11.59594200              -21.17031976               -0.64839797
              98.84301776                9.09255043               89.69393158                1.00000000                8.32555026               -0.65085345                2.73248867               -2.11040095               -2.04532606                2.00620934
              99.84192767                7.65584501               83.76619030                1.00000000               -0.10900925                0.71018253               -2.09128061               -0.28728509               -0.53653375               -1.43713249
              97.94718989               35.22977786              166.25626571                1.00000000             -173.62716724             -183.15864525              623.04734157              -13.08666826              -63.84389475              136.64844388
              97.21091821               31.65386174              156.37510372                1.00000000             -155.48065115             -147.33156730              520.96220519              -31.21881670             -152.38266749               95.74168524
              96.83757686               27.57394899              144.88473013                1.00000000             -162.13889316             -122.70126890              440.14561761              -34.02884458             -277.72624781               82.28534145
              95.96814035               23.78895674              132.95129012                0.97365752             -178.98475189             -133.39035699              623.55715909             -179.18717216             -431.51630770              147.56074966
              95.25788183               17.44444878              119.12283966                0.92183060              -85.60046790             -120.70387473              338.88499907             -174.04072654             -256.31493519              -86.72336806
              96.25613099               15.96128197              113.11512150                0.84764527               -0.12844349              -11.67036761               -0.21895617               59.33404063               -1.08219135             -107.75985546
              97.25531296               14.48170759              107.11228037                0.77819978                0.07461291               -4.08250788                0.00448568               37.83583503               -1.35191215              -34.14999094
              98.25762325               13.00333517              101.10562401                0.74371594                0.56466277               -1.95466825               -0.23401901               18.51958674               -1.98320514               -4.49997877
              99.26660621               11.53107427               95.10611805                0.97711419                0.80687342               -1.44803914               -0.31559059                6.65375314               -4.41583135                6.61087183
             100.27376072               10.08604190               89.10482774                1.00000000                0.45770146               -0.47967729                1.36337373               -0.40902395               -3.14493325                1.95491330
             101.27576024                8.66294683               83.15885474                1.00000000                0.19995208                0.92115469               -2.34633865                0.47342705               -0.36247965               -1.75749082
             101.16193434               34.48978934              163.80380202                1.00000000             -169.65610474             -162.77801593              588.33221761              -20.65583871              -48.13471624              214.94112957
             100.46537330               31.25854903              153.70739463                1.00000000             -161.41019348             -126.47428872              486.94249553              -39.28806074             -112.70346442              159.20479412
              99.93373047               27.58522344              142.48529632                0.00010000             -192.38832960              -81.82287578              410.82192976             -112.81792407             -231.28865702              164.08195584
              98.61760670               23.20520347              130.34401118                0.00010000             -259.85579642              -65.50040962              529.54607414             -189.44907833             -257.41021149              262.91355986
              96.73661455               18.44418756              118.37795445                0.00010000             -144.13380914                0.05294021              242.32602381             -164.14443056             -107.29774411              190.14861195
              97.73493052               16.96242831              112.37645104                0.00010000               -0.17806027                0.07605046               -0.04841300               -0.21774784               -0.39279941               -0.07911525
              98.73305334               15.48195372              106.37843106                0.00010000               -0.18676147                0.02572992                0.13601828               -0.12125151               -0.13383483               -0.00797093
              99.73119529               14.00391732              100.38385324                0.00010000               -0.36341721                0.12968560               -0.01074332               -0.10331573                0.69569527                0.42965712
             100.72578500               12.53057816               94.40912389                0.00010000               -1.41152878               -0.16955691                0.41492533                0.92387355                4.27361524               -1.41530048
             101.70296472               11.08295688               88.50196135                0.00010000               -1.40993295               -0.37543955                0.60390829               -1.87798767                4.01256774                2.50586693
             102.69758634                9.67426810               82.55130114                0.37707586               -0.53783796                1.10593161               -2.09818273                0.24499644                1.38404253               -1.87324009
             103.99655374               33.97421754              161.90038423                1.00000000             -166.68308378             -141.88961800              555.26202685              -14.58975023              -32.67707880              248.93291521
             103.32972290               31.12437597              151.58167372                0.68724211             -168.09949006             -105.84343547              454.11829329              -26.41789869              -68.49274644              192.58994359
             102.63456394               27.93749148              140.70795776                0.00010000             -200.47641223              -53.39841596              381.60735265              -54.29376784             -113.25273676              192.28743949
             101.32019466               24.47894855              129.83123100                0.00010000             -320.83977842               32.27329803              299.62505656             -103.39791186             -187.92442511              238.87749293
              98.21776837               19.44550759              117.63600568                0.00010000             -205.30923892              114.62684025              203.15125172               77.13782088               -5.81388569              329.56742515
              99.21400988               17.96280298              111.63685257                0.00010000               -0.31847288               60.61644026                0.25858762              176.44744316                0.27444100              -59.61900788
             100.21139891               16.48222219              105.64358444                0.00010000               -0.35386935               41.34173530                0.26592326              144.86665316                0.83715626             -167.68812839
             101.20693249               15.00592888               99.65913513                0.00010000               -0.26773961               28.40828096                0.43381250              131.33442412                1.27909778             -267.02878685
             102.20604412               13.52768313               93.67691594                0.00010000               -5.72107324               16.20491825               -0.13054712              127.98464028               12.49312124             -367.48422314
             103.09251103               12.07853310               87.92125494                0.00010000               -5.40031916               -7.55324120                0.08982142              142.64960524               11.99716298             -487.66579880
             104.09803774               10.68506546               81.94466597                0.37756347                0.55267099             -106.12437080               -2.03119911              204.33393492                1.00137101             -621.82618244
             106.56982248               33.65199698              160.20940838                1.00000000             -159.60810974             -127.82639369              524.03648977               -4.59086723              -15.08063315              256.63389491
             105.97374139               31.14168032              149.69454315                0.63114734             -153.82699753              -95.50446268              425.15089630               -0.59617002              -29.89803203              199.89300562
             105.49328253               28.51725512              139.02300719                0.00010000             -146.60545157              -45.88002065              332.84030186               13.58696826              -43.26728640              174.28995128
             105.04163235               25.85066943              128.40485377                0.00010000             -134.88829989               13.45042653              245.58975792               50.97265957              -16.13996258              164.87263450
             104.79551653               22.73672437              118.68205616                0.00010000             -140.72337859              152.91952115              125.43825316              211.62220401               30.08651453              221.24045813
             104.22716478               20.17475712              109.70525397                0.00010000             -110.41280141              118.22606383               39.65143173              235.32816231               87.09374184              -24.55446669
             104.58726051               18.30878843              101.55384545                0.00010000              -45.73709719               94.77452510              -43.90973781              245.05043832               67.87323333             -239.26320518
             105.31242284               16.57208294               93.58711686                0.00010000              -18.71934651               80.00701533             -103.29777724              237.99655347               52.84296078             -400.03319674
             106.21287358               14.85467653               85.62323989                0.00010000                4.30758244               61.89770090             -158.23125936              231.87445698               41.33774347             -563.68872173
             107.39857449               12.93189206               77.52750578                0.00010000               67.91633711               21.73684705             -238.41143366              182.65612681               16.47410620             -775.35144606
             109.57120032                9.55178068               68.93925142                0.37775706              117.26258311              -74.83551461             -368.50769317              161.32944339               35.77088376            -1059.71511038
             108.92536972               33.41768966              158.50979295                1.00000000             -147.28283583             -122.94503331              495.73477385                2.99338518               -3.20646631              246.79600312
             108.45254137               31.21428671              147.74855858                0.65679849             -136.40277658              -92.81870938              397.73538366               15.64823031               -6.69899231              186.85155897
             108.19731419               29.01989106              137.01617369                0.00010000             -116.61813827              -54.69681833              305.28013908               31.03688563               -0.78076471              144.50689656
             108.12017860               26.74795708              126.51007977                0.00010000             -103.55947143              -14.22977318              212.62847395               55.49562300               18.84306119              110.74380143
             108.12612476               24.50389801              116.38179171                0.00010000              -88.58347655               48.45916842              123.70551096               85.81646303               47.34900265               42.53056260
             108.34850907               22.32732426              106.72540096                0.00010000              -70.55214548               85.56488227               37.11525662              149.89182281               59.87487352              -48.58520771
             108.71508186               20.37771269               97.34654633                0.00010000              -46.37668043               90.77994887              -37.93805461              183.84140506               60.35999225             -163.05050217
             109.42097546               18.60606919               88.08161163                0.00010000              -11.56788552               90.24799474             -109.22423812              197.85683473               47.67113477             -276.41608947
             110.48372414               16.76563715               78.78532309                0.00010000               31.37769735               82.56929007             -185.65709764              191.41103197               36.15194396             -395.01963969
             112.04852941               14.51327005               69.30761988                0.00010000               80.05626077               66.22323652             -274.69258930              140.50497472               24.09960225             -539.78583175
             114.08484936               11.18835517               59.50316904                0.37829788              103.63199514               88.84081697             -391.55335017               79.50708054               23.92155177             -710.18458013
             111.03649609               33.19309632              156.63565261                1.00000000             -135.19914961             -123.24598447              469.85999234                5.58325272                4.10446893              224.06945066
             110.68450459               31.28530613              145.59764160                0.69736508             -122.80731072              -93.48610647              374.30970110               19.17249397                7.29733265              165.21130712
             110.58034988               29.42331875              134.69902492                0.00010000             -100.84833645              -61.71743581              284.53694752               34.55607217               21.57969485              118.06699104
             110.66753786               27.56607397              124.02561148                0.00010000              -82.39356276              -25.45208637              198.43382353               49.52490571               40.30857236               72.49581403
             110.93247862               25.70590774              113.61848163                0.00010000              -65.81756541                9.49204935              115.18426180               71.70382963               55.94718076               21.09371783
             111.35118656               23.88605476              103.44388224                0.00010000              -47.35674702               41.01596726               35.66997831               95.74598430               65.09701544              -42.32722598
             111.98534368               22.12438740               93.42707238                0.00010000              -23.47757380               60.58612046              -41.33924442              121.77225802               64.06489495             -111.65751321
             112.88163508               20.37704284               83.44530193                0.00010000                7.42748377               68.25231680             -117.85301141              134.68060740               56.18913267             -186.07377702
             114.13389335               18.50606233               73.37259352                0.00010000               45.21604384               71.43984423             -198.62763230              125.41330346               42.50414890             -270.91186854
             115.78595596               16.25635679               63.08803272                0.00010000               83.86391614               80.48264632             -289.69487212               80.07814293               24.48457767             -370.88130841
             117.81117168               13.32859702               52.50067952                0.37856403              102.52157208              121.82252418             -397.62104697               45.28664697               20.83348410             -487.93656069
             112.85261515               32.95276998              154.48810710                1.00000000             -124.68463406             -124.38546143              446.16124781                4.40310318                9.44805030              192.19282434
             112.60576881               31.34456458              143.17963920                0.73466448             -112.24736748              -94.06473936              352.74768027               16.70386504               17.41733419              137.59482093
             112.60766780               29.78554235              132.08509852                0.00010000              -88.88405392              -64.99449337              265.67054401               29.76646698               37.65218193               93.49244657
             112.82808773               28.23891536              121.23110642                0.00010000              -68.37236199              -35.84363444              183.02137277               42.21609317               57.41804902               53.91259312
             113.24022056               26.69373900              110.59976251                0.00010000              -49.15693204               -6.83873800              103.47283434               55.58019186               72.45345463               13.89240124
             113.84494909               25.14764360              100.13627230                0.00010000              -29.03408099               19.12189888               26.03154803               70.80984443               79.56556680              -28.60861901
             114.65953894               23.58943510               89.75153950                0.00010000               -5.60182032               39.83892068              -50.49715508               83.26395670               78.12428077              -75.30799017
             115.73291268               21.97111552               79.33988616                0.00010000               22.65686602               55.19037060             -128.32796083               87.57346140               68.21529064             -127.76802449
             117.11267626               20.19443403               68.78767033                0.00010000               54.73224445               68.73444571             -210.26172573               76.17022233               51.01979083             -188.79168160
             118.82755757               18.12292297               57.98866626                0.00010000               86.67127870               89.74210967             -299.58453599               45.97510884               28.03259330             -261.36628750
             120.84610183               15.62480566               46.86830460                0.37911086              101.85442623              131.26600115             -399.70128666               25.75756961               19.09816248             -346.65899568
             114.34096894               32.70538709              151.98681676                1.00000000             -115.51594135             -123.79235265              423.70971406                1.74708420               15.01664348              150.15106853
             114.18580952               31.40401134              140.43892591                0.78598132             -102.98202466              -93.24457445              331.62904617               11.34879413               27.84489782              102.11785886
             114.28132844               30.12342888              129.19147402                0.00010000              -79.10732238              -65.98954828              246.24415201               21.35623797               55.23930267               66.99492444
             114.60366308               28.84920128              118.22493158                0.00010000              -57.29871168              -39.72713169              165.55732277               30.59148486               78.62976080               38.17018246
             115.13535421               27.56913298              107.48019058                0.00010000              -36.59878673              -14.25582499               87.88246574               39.72366166               94.67749398               11.28699359
             115.87168734               26.26849274               96.87604440                0.00010000              -15.41016572                9.64791774               11.74009479               48.00197835              101.88459898              -16.17901370
             116.82715089               24.92116582               86.31576600                0.00010000                7.82090195               31.10047718              -64.40092744               53.47098238               99.45635009              -45.91654723
             118.02810538               23.48085025               75.68906381                0.00010000               33.91697279               50.39618171             -142.25823603               52.47636226               87.13839007              -79.92329126
             119.50549035               21.88075124               64.87729789                0.00010000               62.34905653               69.97807362             -223.79461129               42.31047981               65.05445529             -120.67372035
             121.27508651               20.05119898               53.76518075                0.00010000               90.85336768               94.94114323             -311.01624455               23.53986901               35.07836802             -171.37214034
             123.32255770               17.95391705               42.27325905                0.37943039              104.74711939              132.57700082             -405.91178060               14.43194251               21.41744919             -235.72915732
             115.49030832               32.47692292              149.02498600                1.00000000             -107.56054275             -120.35335731              401.53762659               -1.36629987               22.87718067               90.15727482
             115.41470289               31.47967309              137.29038682                0.67052499              -95.03528482              -90.27216167              310.06557774                5.27284646               42.43627354               55.40566134
             115.58960262               30.46575138              125.98766063                0.00010000              -71.02447789              -63.84931192              225.64600637               10.81969158               79.40125608               35.30799065
             115.99421334               29.44437272              115.01881292                0.00010000              -48.71001471              -38.88499581              146.04578283               16.27889545              106.67108705               20.04216239
             116.61540233               28.40862250              104.28214069                0.00010000              -27.06287594              -14.94603186               69.35679434               21.19382754              124.11183426                6.53062356
             117.45295582               27.34060196               93.67917680                0.00010000               -4.94006259                7.94363375               -6.09880921               25.12375113              131.68271316               -6.82267425
             118.51660108               26.21144465               83.10425736                0.00010000               18.49493425               29.81136354              -81.91131058               26.86022162              128.85694034              -21.26170867
             119.82285450               24.97903916               72.44147127                0.00010000               43.59680220               51.20863913             -159.66435294               24.80084791              114.83715043              -38.09544949
             121.38853712               23.59399550               61.56301199                0.00010000               70.11673235               73.59334533             -240.88201823               18.11476152               88.35361587              -58.93537976
             123.22518915               22.02174584               50.32374652                0.00010000               97.03837191               99.42831680             -326.81423473                8.85871643               48.54737692              -86.29688501
             125.32930456               20.27634567               38.57845744                0.37982713              110.41154120              132.38227579             -418.30763493                7.62342400               27.87927912             -129.30197167
             116.30814259               32.29831994              145.36627439                1.00000000             -100.57046007             -117.86029817              378.21848067               11.80824419               45.42047557               52.77590143
             116.30243799               31.59856811              133.61676240                0.78268564              -88.75599731              -88.11049850              286.98133224               16.17964526               71.52685639               28.26386102
             116.53302265               30.84644265              122.43466781                0.36298336              -65.80340640              -61.93087345              203.05858387               17.98866491              115.69107640               18.04715589
             116.98636987               30.07150136              111.60257879                0.36159726              -43.50105621              -37.28713598              123.91599995               20.40413761              143.58028186               10.49510374
             117.66300152               29.27021234              101.00463532                0.36107797              -20.75148249              -13.84101601               47.58572439               22.55312203              161.02372324                3.99586670
             118.57134022               28.42736542               90.53760409                0.36111668                3.14583028                8.67634580              -27.68942793               24.19747722              168.83541776               -2.39090558
             119.72591813               27.51739309               80.09650036                0.36264716               28.51156326               30.59484400             -103.56919874               24.81458592              166.76285677               -9.30798782
             121.14157148               26.50502303               69.56716702                0.36550672               54.95803852               52.59838772             -181.65951584               23.63295098              153.74335763              -17.44422975
             122.82507890               25.35261815               58.81998119                0.36944669               81.41695952               75.86226454             -263.44572371               20.39129207              127.56136528              -27.71886838
             124.76991067               24.03976532               47.69858135                0.37515854              107.03738075              101.80194835             -350.04409160               16.91937286               80.55174068              -41.40905328
             126.96582651               22.60156256               35.92615873                0.69015370              119.59158434              132.52168906             -440.85625702               19.83191954               52.94036888              -70.76807082
             103.75676497               40.69323341              177.42566743                1.00000000             -188.78035893             -194.27468086              661.43743262              -25.42502721              -80.04612650               79.22134340
             102.86896138               36.43954168              166.47937350                1.00000000             -184.84612405             -157.74568696              556.42048561              -21.36448578             -131.43180741               46.50241449
             102.05984249               32.09955679              154.54562817                1.00000000             -189.22729583             -130.21631157              496.24076016              -34.81453487             -205.09561583               41.86636314
             101.08441546               27.49495635              142.26680219                0.69530328             -198.87878267             -125.78284052              475.35505166              -41.80308197             -220.27316516               18.13723397
             100.08226684               22.64916681              130.35163721                0.64015933             -136.41424608              -76.49521252              372.88450481             -104.20607661             -186.21794674               39.83652919
             100.35613054               17.63744505              120.37870566                0.57492553              -48.89428826             -193.87059592              312.75683450             -225.50278782             -205.48833948             -324.96563807
             101.10438107               14.35316397              110.52585982                0.50877343               -5.55047026              -13.78225362              197.40597326              -32.51721217             -126.98613452              -90.34302426
             102.24512114               12.70272431              103.05353195                0.48769229               26.23243219                2.33553599               42.65080844               33.31358012              -35.32546766                3.18297316
             103.62902972               11.02926480               96.26810859                0.73912969               27.21887104               18.68167141              -32.67801605                9.23761111                8.76459592               31.77217573
             104.78949856                9.70361167               90.71334116                1.00000000                7.93501915               -0.01223349                1.39308532                5.36379567               20.08897432                0.98455303
             105.78773010                8.25479792               84.74862087                1.00000000               -0.17684608                0.30387456               -1.47128138               -0.09723064               -0.30010909               -0.88122396
             107.75620643               39.75048660              173.62157990                1.00000000             -180.40515992             -186.48232785              640.57041399              -10.68125159              -54.90158103              129.15367260
             106.95215483               35.86208481              162.62550150                1.00000000             -178.61083133             -149.20911929              531.98066124              -13.97146856              -99.75051332               92.02716993
             106.18398981               31.79739368              150.84929939                1.00000000             -178.02875983             -122.80659759              484.49204828              -45.15755453             -180.95700977               94.05645059
             105.39157964               27.23712795              138.60481803                1.00000000             -210.75140424              -96.64229498              459.94129486              -64.84683685             -182.65318562               78.12168478
             103.96896172               22.88421469              126.90039124                0.96603989             -257.12377764              -82.91997824              544.79651613             -203.06723540             -233.71898020              164.56896813
             102.24910408               16.69873909              114.11342179                0.93258889             -136.11962004              -96.89814748              280.50328944             -214.80811181             -108.29935104              -45.37409744
             103.24656932               15.21534144              108.11496772                0.92755518               -0.44487798               -6.89331310                0.39846371               32.53695538               -0.49407659              -83.74146773
             104.24020652               13.72607967              102.10645756                0.96512605               -1.28035863                1.37803355                0.14085422               23.92304618               -0.68660749              -10.64975667
             105.22096215               12.21608152               96.10642161                1.00000000               -0.49182833                9.98560156              -66.81344756                2.84462943               29.77570493               25.60897820
             106.23036996               10.70348933               90.11299996                1.00000000                0.73046953               -0.23562728                0.72947260               -3.50992804               -1.00774124                1.05881405
             107.23557154                9.25783667               84.13984748                1.00000000                0.52015804                0.53383529               -1.54258065               -0.26211523               -0.11027054               -0.86910429
             111.31994353               38.96358686              170.81814478                1.00000000             -177.73185918             -166.74889632              607.94531779              -12.62875586              -38.64212113              204.51241585
             110.54262494               35.45535929              159.66271484                1.00000000             -176.91476321             -130.35721873              502.09372338              -24.72712823              -72.40207720              162.15650187
             109.78164826               31.64342484              147.94558403                0.00010000             -192.09836079              -94.89133753              443.13317908              -51.04355081             -123.08839374              160.92557857
             108.70065772               27.56211045              135.97426781                0.00010000             -261.11686404              -49.88136366              435.02368031              -97.94179245             -107.83170894              207.89150283
             106.55931098               22.99076725              124.22426725                0.00010000             -348.59080823                5.18000734              439.79193648             -176.92491220              -29.93530888              252.80696828
             103.72884156               17.69948210              113.37557469                0.00010000             -191.57656912                0.13611534              180.48477527             -190.61504439               88.32668874              265.17411173
             104.72777960               16.21529771              107.38047972                0.00010000               -0.29997871                0.06929424                0.43063296               -0.45387677                0.83269654               -0.05389989
             105.72284198               14.73028498              101.38273963                0.00010000               -0.96334799                0.26569010               -0.60884299               -1.22681135                2.29630759                0.71256669
             106.70851264               13.22897684               95.41338633                0.00010000               -2.26485653                1.56545289             -147.52958149               -2.55251780               93.57756864               36.91180852
             107.67754485               11.69889912               89.50949586                0.00010000               -1.73597578               -0.96255565                0.70637930               -5.51201933                4.51775517                1.66121352
             108.67379313               10.26547463               83.53639577                0.37390367               -0.37517255                0.97785251               -1.59382138               -0.70365794                1.47052353               -1.01127677
             114.52008644               38.41550868              168.55631212                1.00000000             -174.23121578             -145.23344650              572.50539350               -9.22959525              -21.17494507              241.26066972
             113.77777428               35.25494044              157.23114459                0.71934596             -173.18594038             -111.22932957              468.83082419              -12.13101615              -38.11143070              194.45202489
             113.05636763               31.89956693              145.64167689                0.00010000             -184.61864492              -65.13711479              392.45614403              -24.69506720              -50.42301332              186.67665953
             112.08540138               28.23950067              134.01731453                0.00010000             -238.16379024               -9.89241249              324.84444726                3.45468357              -13.12755367              209.59582547
             110.29309183               24.98781483              122.69687143                0.00010000             -443.65643265               65.39138259              356.02854374              -54.73754907              155.82310820              306.66032927
             105.21227273               18.70146140              112.63960980                0.00010000             -304.32014612              169.09747287              100.94884972              170.53970573              328.68219297              270.49150107
             106.20668891               17.21672732              106.64504230                0.00010000               -0.51407783              115.32517806              -72.60929118              328.33823155              432.73812026               -4.98849306
             107.20199117               15.73139347              100.66232835                0.00010000               -0.26956273              108.82338114             -195.50136193              298.17355249              343.38065156             -201.99763987
             108.20129765               14.24739058               94.67168852                0.00010000               -5.91796965               95.36164602             -273.00331206              285.24343959              308.46702698             -341.10175772
             109.08363178               12.68423822               88.91853936                0.00010000               -5.64751405               68.22804260             -370.14771703              305.42235917              321.04373523             -572.64702029
             110.08834737               11.27739372               82.93460568                0.37414680                0.47155885              -74.92760677             -582.06367687              401.59228295              442.92250463            -1012.50609768
             117.45648811               38.05891793              166.53929780                1.00000000             -164.05417451             -130.69784895              538.14119384               -0.45685105               -7.07003147              250.75362042
             116.81594636               35.23077270              155.00819174                0.67352214             -157.66507125              -98.62734437              434.02706196                8.21454185              -11.09800014              199.26625180
             116.30318668               32.34068255              143.43299520                0.00010000             -156.72214383              -54.51270105              344.55547811               21.72623338               -6.47943280              173.68725278
             115.68150349               29.36426220              131.99632280                0.00010000             -165.02937034                4.08099595              264.87466176               52.79578543               15.83351928              163.81543826
             115.00259928               26.29859490              120.91311261                0.00010000             -138.53901530               38.59358201              160.63511916              127.67745420               79.12814896              179.40347677
             114.91072318               23.08143156              111.09302514                0.00010000             -136.89935588              231.88141234               45.37597085              403.73253668              162.46555419              120.39325130
             114.26461216               20.52180127              101.82059543                0.00010000             -112.75367013              198.75774208              -59.80350061              447.09146655              178.71832280             -121.65568060
             114.65564978               18.90675260               93.04726470                0.00010000              -40.20377368              175.31558005             -148.16484230              463.15648954              175.34708697             -340.87603711
             115.46053669               17.13620976               84.32813089                0.00010000                5.01695583              150.93459402             -234.81824573              443.47802416              159.76591669             -562.88065688
             116.75598889               15.06345997               75.36707991                0.00010000              102.93955523               97.96514558             -342.16741396              358.92296494              114.35334711             -849.51386003
             119.51932779               10.76692249               65.16823052                0.37469659              176.33388951              -29.87568673             -497.55270509              307.42657973               66.95147730            -1180.02485861
             120.16723987               37.80155170              164.53351299                1.00000000             -150.69393677             -124.77123270              505.97713719                5.95910036                2.45008118              241.42643369
             119.66030050               35.28239355              152.76358228                0.70079927             -140.49185325              -93.79774533              403.23449369               21.32425927                6.44535392              187.65106043
             119.35740280               32.80931291              141.10482647                0.00010000             -123.84478790              -55.62416274              310.88680599               41.67832696               22.03812307              151.10766930
             119.18340474               30.32112059              129.68748404                0.00010000             -111.39656229              -12.44167043              221.73435151               70.67824028               48.21009388              126.01868382
             119.12947156               27.75968647              118.66694192                0.00010000             -105.98438255               36.38704457              131.42056919              116.98901783               82.03205048               96.55785848
             119.06371709               25.33908964              108.05248615                0.00010000              -90.31371819               95.55126189               39.71326290              159.63331608              110.92327955               19.22868851
             119.32319719               23.19188216               97.86383751                0.00010000              -60.65023036              126.21281498              -48.74123700              242.01070724              128.08379431              -77.05076226
             119.85071248               21.23770507               87.83610780                0.00010000              -20.45232138              111.00915560             -132.31700424              274.34640627              124.30336626             -195.26074512
             120.91415076               19.26608246               77.74688364                0.00010000               39.03329315               94.52724649             -220.60338828              264.23495402              106.17308556             -328.49732055
             122.63137835               16.64354113               67.30217483                0.00010000               95.79015826               69.40438152             -325.14541084              186.33700907               65.65336074             -479.76944617
             124.82995393               12.67987998               56.19900010                0.37522281              119.85755837              114.81555949             -465.43764660               87.95013116               50.88977623             -608.85638380
             122.61398642               37.56349327              162.38512168                1.00000000             -137.93160770             -124.41043647              477.41015228                7.93554240                8.73353014              220.37967855
             122.23467034               35.35481780              150.36280454                0.73918280             -125.79801193              -92.93376747              377.25347673               24.06596716               18.04954039              167.12426530
             122.09802618               33.22819929              138.55173738                0.00010000             -104.49878073              -59.99811240              285.69736769               43.23622178               40.12926862              126.43466486
             122.14469473               31.11542879              127.00495199                0.00010000              -88.68077996              -24.66824281              198.92098757               63.44096170               65.06089583               90.40282938
             122.32441058               29.02633579              115.74687438                0.00010000              -73.67504574               15.22445507              114.44069167               88.97817904               88.09825673               49.25259866
             122.67119381               26.99245680              104.76064965                0.00010000              -55.90998518               48.94434708               31.79095293              127.39184003              104.47315038               -1.55937879
             123.20621088               25.04605757               93.94341475                0.00010000              -30.14080999               68.87823091              -49.39856122              159.38705863              109.56040108              -68.10167440
             124.06837761               23.12693571               83.16480855                0.00010000                6.65944155               75.66818749             -131.68869214              178.46563855              102.70588599             -145.86772534
             125.33939971               21.02675469               72.24613061                0.00010000               50.02769699               73.66664170             -219.47283232              162.67595818               82.10833040             -234.45823746
             127.06893155               18.45154760               61.00098095                0.00010000               93.31265016               86.37780310             -319.93899907              100.72224301               47.75056250             -329.71404520
             129.20565271               15.06323368               49.24667720                0.37531837              113.67211591              141.34987907             -440.31357986               54.34576015               30.53712866             -421.87247466
             124.74330167               37.31334297              159.99221394                1.00000000             -126.63878449             -125.49072840              452.18278913                6.37428377               13.81641080              190.37203829
             124.47691382               35.42371820              147.72295567                0.77406475             -114.08927133              -93.27350657              354.50557622               20.59383969               27.34134465              139.92542004
             124.46151624               33.60935066              135.74084954                0.00010000              -91.14131725              -63.05545518              265.13210513               37.02938767               55.40869475              100.48713347
             124.65408748               31.82775574              124.04850585                0.00010000              -71.47545534              -32.37087258              181.10631664               52.72938449               81.14739087               66.51271229
             125.03200713               30.06417558              112.61156027                0.00010000              -53.11276848               -2.42551482              100.38759931               71.27183564              100.97693724               32.45385238
             125.59183211               28.31797659              101.36043691                0.00010000              -32.77738443               24.24770539               21.42270539               90.73297032              112.02490582               -6.07101522
             126.37645944               26.56944678               90.19691895                0.00010000               -7.62519831               44.30330040              -57.35565088              107.64275446              112.47298739              -50.55293745
             127.43932814               24.75106882               78.99069069                0.00010000               23.32992971               57.75744982             -138.13155012              111.62347743              100.97548221             -102.46488128
             128.84305804               22.73941529               67.59687338                0.00010000               58.50080351               70.92858649             -224.20232758               95.44740400               77.42395788             -161.86643683
             130.60934421               20.37109719               55.86979679                0.00010000               92.52194696               94.57942648             -319.34180524               56.60601879               42.77851326             -227.59389110
             132.69349698               17.50687756               43.69602793                0.37578179              108.41527671              143.75626297             -427.62328401               29.65532630               25.90339274             -295.51589298
             126.52072164               37.05367870              157.26425808                1.00000000             -117.01821903             -125.26371129              429.30367116                3.08952216               19.40498688              150.02300191
             126.35053945               35.48934766              144.77169720                0.82143889             -104.30726197              -92.94063509              333.42043645               14.00456063               37.59148583              104.33494145
             126.43457640               33.96709019              132.65488060                0.00010000              -80.30409726              -64.51450589              245.78483326               26.33599009               72.62649736               71.92151842
             126.74445750               32.46801134              120.87059181                0.00010000              -58.74749771              -37.38767616              163.70929091               38.18079857              101.40503432               46.02981984
             127.25962644               30.97782549              109.34023312                0.00010000              -38.19377452              -11.30067679               84.99550279               49.97013884              121.09711543               21.89498017
             127.98058201               29.47741090               97.96669604                0.00010000              -16.68263559               12.63367908                7.81406362               60.90553559              130.22024897               -3.35836017
             128.92597373               27.93212358               86.63574011                0.00010000                7.51483213               33.55708518              -69.63455015               67.46175037              127.65158807              -31.78561929
             130.13087865               26.28208471               75.21843413                0.00010000               35.11728434               52.23016903             -149.37516081               65.53996352              112.59903903              -64.66390732
             131.62831942               24.44532642               63.57435469                0.00010000               65.13555014               71.89965663             -233.64221289               51.98797091               84.78631092             -103.03855943
             133.43358966               22.34313613               51.56539363                0.00010000               94.94395391               98.84912823             -324.83991351               28.52576670               45.94797858             -148.07160790
             135.52719850               19.93835894               39.08782633                0.37631687              109.36088399              141.15764331             -425.43001998               16.25140358               25.97799085             -201.33537112
             127.93375419               36.80806874              154.08239912                1.00000000             -109.01606392             -122.21093060              407.53431863               -0.67475257               27.48463491               90.85414947
             127.84359355               35.56490550              141.41113933                0.69836492              -96.20909121              -90.59600093              312.59140761                6.51723977               52.28370376               56.96157236
             128.00957237               34.31906054              129.24985815                0.00010000              -71.83127036              -63.27222253              226.05071921               13.36417973               96.78291469               38.12655861
             128.40696814               33.08000221              117.47500423                0.00010000              -49.37810085              -37.69408552              145.10463736               20.19545066              129.05159008               24.17323457
             129.02201035               31.83816204              105.96373803                0.00010000              -27.56617058              -13.42703241               67.46436307               26.49937861              149.35082024               11.85773197
             129.85564473               30.57065017               94.59906636                0.00010000               -5.04948519                9.49685006               -8.85304978               31.43675151              157.79276065               -0.58600930
             130.92102064               29.24058849               83.25811815                0.00010000               19.06399228               31.19485153              -85.70563167               33.44956984              153.78415816              -14.33262252
             132.23692458               27.79567220               71.80759835                0.00010000               45.03726957               52.50317629             -164.92109407               30.50903745              136.40527286              -30.36880955
             133.82176604               26.17740842               60.10280462                0.00010000               72.49512220               75.32159260             -248.28362598               21.95325078              104.41956946              -49.64995381
             135.68682702               24.34807976               47.98439849                0.00010000              100.31567003              102.53536483             -337.30292397               10.56777689               57.23654254              -73.80298044
             137.82807944               22.33003043               35.29683365                0.37640910              114.12524154              138.23223006             -433.18188661                8.07530545               31.27870462             -110.28266343
             128.99355308               36.60946009              150.19280359                1.00000000             -102.36606352             -119.86086520              385.06396727               12.77664433               50.52834126               54.17157194
             128.96989244               35.67742765              137.50937197                0.79485165              -90.33949016              -88.74778510              290.43515219               17.23917165               81.70590454               29.58327379
             129.18676328               34.70164574              125.47348417                0.36249531              -67.03137141              -61.74148035              204.35618551               19.55419031              133.28549688               19.74275808
             129.62926502               33.71412963              113.83970736                0.36132838              -44.38986086              -36.58725812              123.83969040               22.61164263              165.93772399               12.59509023
             130.29896606               32.70928485              102.47071667                0.36088067              -21.11872113              -12.88771937               46.58750279               25.35648473              185.91229565                6.44674249
             131.20689059               31.66734790               91.24423039                0.36135493                3.54885169                9.66977369              -29.44418517               27.46137447              194.09138782                0.32544012
             132.36994309               30.55602061               80.03697269                0.36251334               29.86744361               31.54321254             -106.20780729               28.13226142              190.14880147               -6.40754745
             133.80423946               29.33214824               68.71692127                0.36434320               57.25168930               53.64760347             -185.61824504               26.51837158              172.95976718              -14.26863727
             135.51497688               27.95175827               57.13774748                0.36768688               84.40418612               77.43498444             -269.45463177               22.40584389              140.47408207              -23.86866026
             137.49232319               26.39384343               45.13038418                0.37240846              110.49131905              104.57636729             -359.08725885               18.11188030               86.15954610              -36.10448496
             139.72480326               24.70300354               32.42447980                0.68837609              123.24800722              137.29731119             -453.98623139               20.58839345               53.32616669              -61.52312242
             114.56350080               45.34556417              185.05663133                1.00000000             -187.81769247             -192.51902145              655.41074801              -22.47772362              -49.59901569               65.24198212
             113.68532388               40.84297267              173.01506748                1.00000000             -185.17197205             -153.19088640              542.29535253              -23.53006930              -69.16788277               42.12952431
             112.86006136               36.26923363              160.48361281                1.00000000             -191.24731396             -121.41114921              477.73683087              -26.25657494              -88.36227031               34.34510388
             111.86037760               31.55972362              147.95305913                0.69322165             -215.32847297              -91.57987964              443.32816194              -45.22658366              -65.52022722               37.60905224
             110.55349190               26.55748758              135.75400006                0.65796488             -227.94292429              -69.42894692              414.80620519              -64.49099220              -16.42392546               42.54090904
             109.30151911               21.22709065              124.26292525                0.62785056             -137.48255267              -17.01596610              316.36454952             -141.54316109               31.97546714               64.83438374
             109.80384085               16.57852760              114.47758135                0.61193483              -67.00534994             -162.62692567              253.33853653             -416.45810470               23.45476859             -183.00973352
             109.96141212               14.00081895              104.77540733                0.64693041              -80.64707387              -53.96865884              111.95205968             -223.90604884               18.06772880               38.02626560
             110.19089937               11.51835642               96.99669924                0.91080493              -59.85635745               37.96196709              -10.97816745              -17.92689887              112.31609288              -63.14465208
             110.76428497               10.31292390               91.72179328                1.00000000              -21.27666467               -0.18604198                0.51824361               12.46005039               35.36285775                0.50602488
             111.76536608                8.85576731               85.73676467                1.00000000                0.10811131                0.20225365               -0.86586859               -0.26628780               -0.06486963               -0.62621374
             118.84131507               44.42037396              181.06767399                1.00000000             -185.31266138             -185.01293667              642.08755434               -4.10846499              -26.96164344              113.70833784
             117.98818846               40.31106381              169.01471695                1.00000000             -180.10974657             -147.34683469              530.29002150               -8.03415991              -45.41351927               85.00501822
             117.23912014               36.05512214              156.57457109                1.00000000             -186.21018330             -112.89380601              460.12584835              -18.33953614              -59.49589694               78.29451711
             116.26398479               31.64392482              144.15011602                1.00000000             -208.21108373              -80.45932966              424.76833475              -43.50061614              -43.46336981               96.80175677
             115.07489847               26.86319811              132.01876998                1.00000000             -269.42086489              -42.68204198              385.73711461              -70.19421242               29.61007294              104.64779580
             112.87556749               22.05693099              120.72518729                1.00000000             -391.12514053               25.63159433              435.69336942             -193.36035295               76.74951121              193.69989465
             109.25239565               15.95225834              109.12024965                1.00000000             -231.15651387              -81.38632284              180.51019835             -332.85485717              229.52932978               66.94143759
             110.25243722               14.46113236              103.10844109                1.00000000               30.15911271              -26.92605414              -11.07395647              -63.57397636              314.64136118              121.41682834
             111.85557791               12.89797609               95.76984910                1.00000000               -1.61285951               59.25955002             -119.86602849               56.48059420              221.35688788              -48.19945179
             112.22018003               11.31106348               91.11941720                1.00000000              -31.78590571               -0.11410750                0.38993548               -6.70804159               67.21095955                0.56691031
             113.21985979                9.85778984               85.12800313                1.00000000               -0.03202314                0.17585285               -0.80583306                0.06418190               -0.08569387               -0.71031474
             122.69995181               43.64530544              177.96270837                1.00000000             -181.00593093             -167.10480225              613.34673203               -5.82320466              -16.63972569              185.50883169
             121.88989250               39.89603598              165.74926910                1.00000000             -176.97710926             -132.15621237              503.31693895               -7.00034336              -24.68498275              147.42202141
             121.16040963               36.01135751              153.34795990                0.00010000             -185.38015954              -93.57543178              429.32918872              -17.23426797              -22.68248276              141.91210531
             120.18228931               31.95053703              141.04448479                0.00010000             -221.19040689              -49.75573719              383.03710579              -28.45232618               20.88740056              155.14814884
             118.73660149               27.70384674              129.17379318                0.00010000             -291.85187434                1.33353533              349.25919925              -28.68888411              132.94356010              208.88112427
             116.34525182               23.73972254              117.98614654                0.00010000             -499.70295751               79.91257810              313.41447477              -89.45651101              316.69811360              273.90796105
             110.74254234               16.95080114              108.38704372                0.00010000             -330.05184922              199.50391426               56.21291628              165.68112200              473.74413508              268.41455182
             111.74421484               15.46229787              102.37167638                0.00010000               86.40189002              142.01593249             -135.19392628              377.41041850              384.60396174               55.50612756
             114.47058014               14.70354742               93.45853226                0.00010000               -3.69522293              144.64636616             -274.12445517              255.59698108              376.40430787               -4.91765795
             113.67031038               12.31064175               90.51608893                0.00010000              -89.86915733               72.84725867                0.17187702              259.30127487              153.21758657             -368.77374308
             114.67319699               10.85928436               84.51942472                0.37132131                0.28866104             -152.73405433               -1.28913912              440.08903192                0.67861048             -581.39960674
             126.22338991               43.07827791              175.35049210                1.00000000             -174.12603864             -147.77184599              578.48835316               -1.49972764               -5.15437946              221.88468877
             125.48212952               39.66793956              162.95829021                0.75437493             -169.17280868             -115.07341596              469.21360656                3.67635375               -2.52075826              180.18874252
             124.83993373               36.18361350              150.55708064                0.00010000             -173.98402381              -74.17534586              385.82213497                9.80118585               14.81632753              166.22868510
             124.00244904               32.64881008              138.32811994                0.00010000             -206.39992308              -24.68641689              322.36045512               20.10756620               74.52033481              174.62882110
             122.71193527               28.88986881              126.75657656                0.00010000             -208.14830860               32.54383403              265.07338554               77.55740760              185.43517926              163.96566155
             121.83948287               25.65518255              115.65582957                0.00010000             -193.42462519               71.50116240              174.31211544              163.81045172              495.93192949              294.99249453
             120.84344277               21.94233662              106.19139861                0.00010000             -189.57917819              285.30392343              -85.77456673              455.55567637              527.49430719              166.10347636
             120.04789931               19.30145101               97.74910789                0.00010000             -136.21345600              255.92424406             -293.82294800              520.80905321              539.24834847              -74.92361052
             120.11917365               17.79090341               90.21684970                0.00010000              -39.87153646              190.91604269             -457.26508256              404.21771047              524.22961492             -159.60764833
             121.25046858               14.76800865               82.51830060                0.00010000              140.25907792              162.36688222             -698.54783604              309.37183815              415.74469984             -609.90285694
             124.92435521                8.80310876               72.30339244                0.37142247              267.38866270               -8.61976359            -1061.37574198              235.24659236              367.51023709            -1172.12944422
             129.49063397               42.68986852              172.97223225                1.00000000             -163.25499815             -133.89417286              542.26046761                5.01205641                4.15032127              233.37101333
             128.85808399               39.59456766              160.37508439                0.71853624             -155.75355725             -102.76222197              434.48149247               18.29937590               14.00895546              188.10048709
             128.37556282               36.52785059              147.91411675                0.00010000             -148.99493308              -63.01556213              345.35329114               36.82410991               39.09161353              163.45179704
             127.87818533               33.45680869              135.70234701                0.00010000             -154.70928291              -19.45542586              267.43941564               67.33444043               84.56174853              151.18644269
             127.28137717               30.35472342              123.89475854                0.00010000             -165.45961391               35.57122978              192.39399611              120.13827431              145.49967537              130.64759888
             126.56899305               27.16974579              112.61277339                0.00010000             -153.69948792               69.45454866               78.58969288              191.63761959              208.88395305              122.23349586
             126.20738741               24.65687961              102.35777544                0.00010000             -112.85819655              138.57707515              -34.40524706              303.03651433              303.02342022               24.67808255
             126.31182912               22.58078275               92.62382002                0.00010000              -55.95053515              164.09297137             -149.89033832              392.05430067              313.49498135             -144.86630979
             127.08837670               20.52186827               82.92687498                0.00010000               26.68563414              124.33938006             -268.62716980              399.95709144              287.77374118             -359.76737055
             128.84554180               17.55797939               72.68415750                0.00010000              110.97759639              125.79857121             -414.45678829              291.20162039              213.74939849             -624.56821426
             131.30792863               12.68688909               60.98819732                0.37162326              146.23868328              206.48360283             -591.67907188              132.12292707              137.53822988             -801.76064428
             132.51423276               42.40039446              170.62933570                1.00000000             -150.40977964             -127.39397947              508.34840957                9.48841608               10.60240917              227.62717558
             132.01013496               39.61269512              157.81324845                0.74524908             -140.00289298              -96.30748055              403.08616625               27.18517583               24.74918785              180.84253040
             131.71417490               36.92330226              145.23390980                0.00010000             -124.39349674              -60.59308064              311.44957274               50.61157081               54.04782030              147.90319454
             131.52226503               34.25970156              132.94476680                0.00010000             -115.62056211              -22.18499741              226.32685197               78.67123015               88.44767088              122.91367668
             131.40176366               31.60129341              121.01020309                0.00010000             -107.60929783               19.58089707              139.85234484              122.09704503              127.71412290               99.77352632
             131.37007907               29.04427353              109.51966621                0.00010000              -95.43137831               68.85853218               50.97511113              189.38504336              170.94445963               60.87760118
             131.49313609               26.71387813               98.37172159                0.00010000              -67.30412080               88.61964324              -41.99267286              255.20211540              196.31047179              -25.00303605
             132.02399666               24.58331044               87.43527154                0.00010000              -17.60086317               86.21613495             -136.70674661              294.25103531              203.96757979             -142.32483228
             133.14111883               22.27769101               76.37325533                0.00010000               44.27417546               72.25197835             -239.76436750              277.60902467              178.01210225             -281.85522529
             134.90948017               19.28398008               64.80471167                0.00010000              108.39377608               76.82372686             -360.16183879              177.49843090              107.29176460             -420.61078096
             137.30899435               14.93278081               52.19441611                0.37183388              139.95141846              135.36153034             -506.55074086               96.00972916               62.67972165             -512.02801832
             135.25580097               42.14198893              168.18385566                1.00000000             -137.69212658             -125.96600564              478.32605442               10.30426894               15.18677265              210.67401273
             134.87887970               39.66841805              155.14271113                0.77877983             -125.75065833              -93.92573947              376.00225502               28.39125973               32.61867410              163.75641993
             134.74078780               37.31598898              142.41297228                0.00010000             -105.26304593              -61.55802317              284.66146519               51.04036536               65.78301650              127.64948663
             134.77361878               35.01310874              130.00403123                0.00010000              -90.10208485              -27.80858876              199.52717328               74.42060814               98.18743667               97.74531252
             134.93874610               32.74634136              117.90729546                0.00010000              -76.47547925                7.40819491              116.85460829              103.99361391              128.11370136               66.16375468
             135.24410920               30.54691643              106.07970129                0.00010000              -58.31766494               38.79516897               34.24228198              140.64702840              150.88117059               22.86464286
             135.77239280               28.42927247               94.43910116                0.00010000              -30.55361296               58.60864344              -49.23566521              177.18989181              162.46402430              -35.37201631
             136.63303694               26.30510545               82.81152809                0.00010000                8.37473773               64.24409353             -135.98059672              193.30533042              155.33622886             -110.93449453
             137.93988756               23.96690784               70.98313688                0.00010000               55.36918401               67.55951033             -230.00646130              171.51394885              126.11693899             -195.98107378
             139.74042062               21.09445393               58.68925274                0.00010000               99.53170931               86.13261960             -336.65158242              105.08524917               72.52588447             -279.16306717
             141.93052174               17.39411970               45.69440792                0.37210192              119.01011268              147.02789296             -460.89323279               50.10222947               41.35295568             -336.53769304
             137.66745991               41.88107434              165.53176289                1.00000000             -126.34998002             -126.31634924              452.18694163                8.23007189               19.44890360              184.50363722
             137.40396011               39.73418033              152.26975072                0.80927523             -113.85841965              -93.29457664              352.58309526               23.96022351               40.04781842              138.91203851
             137.39029152               37.69214180              139.38774062                0.00010000              -91.18176467              -63.15691700              262.89476232               43.17627184               77.79932519              103.73623301
             137.58032481               35.70352979              126.85323276                0.00010000              -72.12316345              -33.49047211              179.41077875               61.50539838              110.65017600               74.13911059
             137.94782825               33.74945731              114.60751450                0.00010000              -54.01181441               -4.57432679               99.31385279               81.95466519              135.83413597               44.74239273
             138.50008853               31.82017690              102.56472641                0.00010000              -33.45416673               20.78898294               20.47788353              103.65349134              150.86315152               10.81165201
             139.27874491               29.88605100               90.60442649                0.00010000               -7.38103140               39.74908794              -59.11276806              120.20335822              152.63966057              -31.18495040
             140.35246790               27.86819231               78.57725515                0.00010000               25.16522044               53.27794966             -141.79472042              122.56324331              138.79332441              -80.98220489
             141.78204932               25.62888122               66.30362378                0.00010000               61.57526953               67.35704903             -230.55550576              102.64048370              107.44061031             -136.39323015
             143.58397329               23.00663247               53.60183015                0.00010000               96.48290419               94.03555967             -328.81777439               59.23056399               59.40100506             -191.49623287
             145.71170740               19.87333867               40.31583892                0.37262096              112.77341150              146.61421019             -439.85549608               30.00713956               32.53285907             -238.90220281
             139.71419043               41.61566195              162.57289019                1.00000000             -116.71737156             -125.78069720              429.14545071                4.43949147               24.75135632              147.40620874
             139.54701672               39.80252651              149.10733464                0.85238056             -103.96133258              -92.64752818              331.60771638               16.30732642               49.38845565              104.79270119
             139.63496378               38.05285064              136.10717068                0.00010000              -80.03027383              -64.12314069              243.48403763               30.59386433               93.53998296               75.16738023
             139.94641124               36.34329930              123.49911739                0.00010000              -58.68857468              -37.24039621              161.55109783               44.15223123              128.62488165               52.00147071
             140.46119229               34.65485482              111.18010064                0.00010000              -38.29129529              -11.70818595               83.20369568               57.49625747              152.46082634               30.35744361
             141.18058533               32.96269609               99.03232567                0.00010000              -16.63738613               11.55852610                6.24208868               69.18708952              163.64273967                7.01494212
             142.12844456               31.22425423               86.92307500                0.00010000                8.04431230               31.87543097              -71.38039641               75.64878447              160.77015372              -19.83785675
             143.34147158               29.37066444               74.70156060                0.00010000               36.29062532               50.24917582             -151.79692493               72.18000921              142.36634516              -50.93485794
             144.85425707               27.31404882               62.20445363                0.00010000               66.95514322               70.43612105             -237.28807404               56.12898706              107.78590393              -85.66127908
             146.68057444               24.97516512               49.26838248                0.00010000               97.14975294               98.70316076             -330.19370357               30.21363791               58.56329530             -123.26292709
             148.79725213               22.32640390               35.76465865                0.37291849              111.66776851              143.03501300             -432.93237169               16.03892402               31.12423635             -163.25184952
             141.38252060               41.36546040              159.17567237                1.00000000             -108.96026612             -122.73597491              408.06396075                0.14604750               32.84698480               90.37513775
             141.29291794               39.88122977              145.54221497                0.71748245              -96.05622919              -90.43791067              311.70664221                7.65386855               63.79409050               57.80096841
             141.46139602               38.40967898              132.50867501                0.00010000              -71.57763418              -62.94024361              224.64261862               15.54627567              117.02010900               40.37280270
             141.86136526               36.95872186              119.92090566                0.00010000              -49.15197072              -37.46511952              143.70968518               23.35476025              155.07000215               27.68086481
             142.47835660               35.51529359              107.63142795                0.00010000              -27.34671748              -13.48324613               66.34232190               30.40788451              178.70287138               16.40953550
             143.31443091               34.05134743               95.50211581                0.00010000               -4.73021773                9.04250404               -9.67511116               35.72963245              188.19058647                4.75759388
             144.38375225               32.52355962               83.39014473                0.00010000               19.59212930               30.36394135              -86.39708467               37.47935523              182.84124149               -8.36190718
             145.70627349               30.87317582               71.14304939                0.00010000               45.81880632               51.51700034             -165.79928565               33.62822413              161.62515591              -23.45270509
             147.30012838               29.03760364               58.59733947                0.00010000               73.48087349               74.56551998             -249.75710771               23.71802143              123.31353344              -40.73083661
             149.17589096               26.98069568               45.57768804                0.00010000              101.49399762              102.52695606             -339.89412692               11.11150596               67.53486309              -60.86107781
             151.33000833               24.73403893               31.91481971                0.37339893              115.41173643              139.47019567             -437.65235837                7.67964839               35.28132003              -89.83682907
             142.68557265               41.16094245              155.06755373                1.00000000             -102.96971459             -120.45179520              387.29635409               13.58778979               56.23839782               55.14736352
             142.65587550               39.99376830              141.42546544                0.80263302              -90.85877251              -88.74614662              291.32323750               17.95092216               93.31342401               30.69252950
             142.86839720               38.79404577              128.52179152                0.36213242              -67.39918312              -61.56332150              204.68789988               20.71154825              153.46739040               21.27515384
             143.30789184               37.59399691              116.07937260                0.36113730              -44.58363937              -36.47249548              124.17716042               24.20986477              191.72836128               14.49842164
             143.97672441               36.38518990              103.93638538                0.36099510              -21.04899429              -13.01036879               47.25813218               27.31424375              214.79095283                8.61976243
             144.88691195               35.14354617               91.94872039                0.36120270                3.97394298                9.21987421              -28.33986597               29.56526252              223.56098219                2.64275905
             146.05620327               33.83153306               79.97234421                0.36185375               30.65400412               30.79734426             -104.78142959               30.11801592              217.58838044               -3.96940137
             147.49999204               32.40100445               67.85480212                0.36384698               58.24471840               52.78286215             -184.15803442               28.06316228              195.66279770              -11.53336303
             149.22109764               30.80535922               55.43088856                0.36620852               85.31886172               76.77555784             -268.38319891               23.33191622              155.95713065              -20.28422441
             151.20636927               29.02570425               42.51683617                0.37019230              111.15304814              104.50085613             -358.94162009               18.57026054               93.13474963              -30.73363827
             153.44415860               27.11580782               28.84643410                0.68673019              123.77893298              138.17688838             -455.64766844               20.42538427               54.25875296              -51.78093928
             126.84791235               49.97598772              192.53388239                1.00000000             -178.92901047             -185.74114036              630.39813776              -21.81791669              -15.54853019               49.17586759
             126.05862224               45.28283324              179.32528056                1.00000000             -174.66534586             -145.48496815              512.38631842              -20.73576004               -4.75996736               32.80375024
             125.35460543               40.60454230              166.10036479                1.00000000             -177.74992859             -110.56053761              438.34213315              -21.08374464               22.68861683               29.88777751
             124.50362367               35.85302362              153.13336543                0.69210682             -195.53416096              -77.12861939              387.24822225              -24.25589040               80.22292956               31.48027900
             123.44392221               30.97044514              140.64776131                0.67525012             -211.57825354              -41.30676616              345.47434062              -37.95377865              160.26828445               45.14272193
             122.27205860               26.00960865              128.70599665                0.67183455             -219.14639251              -16.00929571              296.39436113              -37.08501733              247.34404611               90.24616164
             121.06099436               21.40763270              117.59263055                0.69107203             -209.23503904               23.70751151              189.64020398              -21.33055180              251.95145372               86.75021792
             120.08735782               16.79718211              107.29257315                0.76209939             -206.60143693               76.09650874              115.92451434              -79.77038466              273.76071211               16.75695281
             118.92896562               12.22007205               98.04854524                1.00000000             -266.53337683              157.01874124                1.62059482              -23.11907042              443.11564295               -3.14901221
             116.75669028               10.91848434               92.72370604                1.00000000             -158.62378457                0.20475499             -231.44627295                7.96071733              581.03046501              -53.63104190
             117.75648993                9.45979673               86.73130349                1.00000000               -0.02003521                0.11735969             -667.94344449                0.15082540              651.16400747             -278.31039350
             131.32288766               49.11857631              188.46333099                1.00000000             -178.59003129             -179.25211649              625.28550934               -0.75351535               -2.22006423               93.12170571
             130.53698735               44.82798356              175.23130193                1.00000000             -173.21074354             -141.13033888              506.64264294               -0.72939384                9.68730566               71.41672472
             129.85867279               40.49893693              162.05181636                1.00000000             -172.94370002             -105.26924504              427.57302170               -3.40343179               35.18824943               67.06869845
             129.07811335               36.08173743              149.10018472                1.00000000             -193.62904397              -68.29770580              369.56926969               -7.63053344               90.10523408               72.97491740
             127.98609191               31.55737748              136.61513353                1.00000000             -219.77493511              -26.99309902              322.09421995              -19.98117599              172.55230400               95.86634680
             126.68261465               26.84951569              124.82728918                1.00000000             -226.60948988               11.86951984              259.55614258              -16.75874859              309.23639847              137.29851444
             125.45390211               22.64470782              113.72517169                1.00000000             -239.95901742               55.24035394              245.24023394               23.23848056              535.67101747              226.36558358
             123.88343430               18.55814719              103.88497843                1.00000000             -290.83891567              120.12793129               -5.19487361               20.08132510              569.45715295              109.00580293
             121.63712380               14.79025946               95.70910104                1.00000000             -383.34995910              223.17755119             -117.30586233               26.28026591              729.47310772               -8.96437300
             118.21643512               11.92053189               92.12079867                1.00000000             -221.02190029                0.30282594             -307.40736567              -70.24876457              830.58879828               76.85883517
             119.21668579               10.46097033               86.12373082                1.00000000                0.02506785                0.11482273             -744.21154768                0.25403559              845.51076652             -102.72024992
             135.41402756               48.39094539              185.08507942                1.00000000             -175.03538075             -163.74488709              600.63079342                0.85385525                4.51090371              155.81213711
             134.66367375               44.46022646              171.72905362                1.00000000             -169.06223189             -129.75417803              485.66537352                4.59976206               21.02405937              126.41011942
             134.03278292               40.49915740              158.53216781                0.00010000             -168.55506503              -92.04765742              402.52546721                7.55173519               56.58168672              116.21836279
             133.29257245               36.48706951              145.63500993                0.00010000             -187.81312465              -50.37612763              336.94706536               11.48122846              118.86552869              122.72888997
             132.27652043               32.43058316              133.20945123                0.00010000             -222.15095800               -0.56073871              275.79054514               22.39617085              226.04152731              137.10691654
             130.84955329               28.24699904              121.64386419                0.00010000             -222.96939793               56.25843759              205.80766859               54.76656175              374.79623366              135.32920066
             129.81713247               24.51243978              110.50473805                0.00010000             -225.30603082               96.16786556               87.66924302              108.10681479              696.21898507              279.64135363
             128.34343268               21.19974073              100.67886110                0.00010000             -286.24731135              171.13152135             -170.36156937              212.46280277              714.00305181              158.25785063
             126.09218624               18.68362307               91.93089723                0.00010000             -533.12142739              239.83177137             -203.09423886              200.21867859              977.02619060              -43.69535937
             119.68100413               12.92454086               91.51293340                0.00010000             -370.57462372              219.87903087             -501.96625813              493.70090178             1200.12566017             -437.31525161
             120.68069377               11.46209318               85.51061299                0.36850003               -0.03103587              -54.74690494             -974.82126042              786.33936452             1098.61290345            -1003.34869463
             139.20140263               47.84367857              182.12607918                1.00000000             -168.06320512             -147.17253979              567.95285479                4.91027706               11.26210768              191.53516738
             138.52077057               44.23289999              168.61541672                0.79240521             -160.92690890             -116.12011278              456.10635982               15.24362144               32.19084721              157.56517798
             137.98286445               40.65798378              155.35811959                0.00010000             -157.22292067              -78.31340414              369.09954130               28.31441492               75.33164705              140.80682393
             137.37631216               37.07421488              142.46452363                0.00010000             -165.43893291              -35.78626528              296.36025130               49.38515708              138.24891261              132.71811693
             136.67408579               33.54616271              129.99833914                0.00010000             -184.01114497               11.36685916              214.68044037               81.30577692              231.66972191              134.82483981
             135.69608926               29.97468444              118.12585210                0.00010000             -200.53945332               70.76328915              133.93775888              139.88672366              314.03133668               96.81951195
             134.66329672               26.56806513              106.92955097                0.00010000             -186.72911012              116.13000834               -3.05812942              225.14973215              424.55241001               97.58257657
             133.96150706               23.98077762               96.78586939                0.00010000             -137.32997397              156.17610122             -161.45876845              351.59234772              540.84438535               11.32770755
             133.91669724               21.58689489               87.52638687                0.00010000              -32.47620092              155.04168222             -348.65038947              470.04113333              521.02371739             -184.43511446
             135.31198304               18.31811251               76.94758264                0.00010000               97.58355946              268.05718793             -567.54128968              653.38938680              321.40475876             -774.07036780
             137.86836843               11.36603223               63.70709084                0.36869949              155.63853922               68.92963749             -807.65852028              553.85792158              141.22345900            -1114.67768576
             142.73379026               47.44749459              179.38450715                1.00000000             -157.95492837             -135.06033834              533.15014885                9.53595692               16.43723167              206.30542060
             142.15424097               44.13782420              165.69782159                0.76379807             -148.80169591             -105.06412890              424.68722628               25.76671501               40.22129996              169.06855940
             141.75775634               40.93288932              152.34006102                0.00010000             -138.10721528              -69.47312535              335.00380442               47.87482035               84.79082226              144.51119414
             141.39209667               37.77134420              139.34511111                0.00010000             -137.77949695              -29.82524873              255.85733009               76.23918675              138.10472949              124.96585824
             141.00216640               34.65792034              126.76099253                0.00010000             -138.33556630                9.82286887              178.17703882              116.28447175              203.51979174              107.66651100
             140.62538534               31.66226483              114.66481900                0.00010000             -134.40662322               55.75146604               94.81318621              180.10590600              283.03856402               86.80826949
             140.31403394               28.83503995              103.13249049                0.00010000             -113.44677376              102.12152999              -21.09003648              266.57512507              348.75979787               22.40172583
             140.35644987               26.32326276               92.04945793                0.00010000              -57.91799570              111.13613672             -149.78188706              345.82200288              379.13906473             -103.48171340
             141.15567402               23.78445672               80.95558750                0.00010000               30.66023292               99.29105817             -290.39130794              357.53386517              345.56981853             -291.73551564
             142.96965453               20.28568462               69.07794414                0.00010000              125.31693684               95.40588832             -455.91570559              235.01495156              214.58079085             -439.31892066
             145.66201276               14.84068593               55.33464908                0.36879482              169.23582334              218.35383903             -645.53111387              127.28868422              127.41590031             -493.12485404
             146.01146254               47.14247181              176.70048118                1.00000000             -146.07523963             -128.64741276              500.02413759               12.22559437               19.90476404              205.89837602
             145.55071015               44.13161742              162.82530561                0.78729950             -135.23108424              -98.21901411              394.94879011               31.48678484               45.22442769              166.66213795
             145.30684086               41.26852127              149.33381793                0.00010000             -118.73226366              -65.27655562              304.57238389               57.03512775               89.81815684              136.58929903
             145.17606487               38.47770990              136.21402108                0.00010000             -109.89931304              -30.47375571              222.58585682               84.80612095              135.00474242              111.59370066
             145.10885460               35.74262008              123.46398882                0.00010000             -102.74885475                4.71895670              142.70013217              121.04260025              180.40734096               86.47146358
             145.12108778               33.08971376              111.07198838                0.00010000              -88.75266501               37.12123135               57.21522512              169.97509136              225.33759740               49.49291090
             145.33380130               30.61049573               99.02398405                0.00010000              -59.62787167               63.54362033              -34.01284648              226.17086111              260.45568356              -16.02661153
             145.92853035               28.20350035               87.10197287                0.00010000              -11.44243060               72.14997290             -134.88670629              261.84184644              264.15642628             -115.18230174
             147.10495269               25.57271605               74.95159629                0.00010000               51.37612556               69.61540199             -246.38685282              242.55348667              223.77276642             -230.66100500
             148.95605286               22.22623027               62.09893805                0.00010000              109.95933992               89.27415782             -373.26560598              149.94583112              133.97369665             -332.36802602
             151.30413948               17.73310901               48.06798528                0.36922489              134.80866272              168.51855352             -511.00219539               68.70730841               70.75663910             -363.80303461
             149.00001092               46.87454634              173.95164277                1.00000000             -134.20837207             -126.40453100              470.29286454               12.13183442               22.69734165              194.61403173
             148.65792720               44.17344392              159.88284964                0.81640486             -122.38222573              -94.71409793              368.49036907               31.19970894               49.29835869              154.36517198
             148.55236641               41.62735821              146.24496669                0.00010000             -102.19034630              -63.93221800              278.83253195               55.78025090               95.06698407              121.94885330
             148.61412028               39.16186909              132.99549546                0.00010000              -87.06759335              -33.11290592              196.29171052               79.80967589              136.20605164               94.17848196
             148.81101454               36.75229948              120.08396655                0.00010000              -72.85543765               -2.82009147              116.60115254              108.55809832              172.07306477               65.56649216
             149.15701152               34.40468945              107.44549529                0.00010000              -54.36749876               24.59357431               36.45696906              142.23541216              199.49058193               28.58839922
             149.72366457               32.10591235               94.95870145                0.00010000              -26.29725275               42.56391027              -47.10087452              172.22476874              211.89451822              -25.15467446
             150.63106647               29.76626221               82.44519661                0.00010000               13.01746339               51.89459316             -135.91602413              182.91596987              201.91361446              -93.88141708
             151.98401384               27.17676476               69.64600139                0.00010000               58.85558616               60.87589418             -233.12052759              158.36240611              162.72949671             -168.29307647
             153.80817819               24.07116777               56.26794930                0.00010000              101.91938109               86.79062600             -340.90487164               93.16942793               91.83919847             -230.17361288
             156.02240146               20.21105700               42.02881255                0.36972677              121.42232644              146.27368857             -460.95943177               44.58878013               47.91547524             -258.02213435
             151.65630406               46.61438119              171.03595278                1.00000000             -123.44116096             -125.83264738              444.34916213                9.63787344               25.90424164              173.79723193
             151.42189245               44.23733546              156.77461758                0.83833855             -111.11416764              -93.03532402              345.41530239               26.07982920               54.42513121              133.42462469
             151.43402071               41.98987691              142.99874478                0.00010000              -88.72876661              -63.89274036              257.17415383               46.96716084              103.17868527              101.68763399
             151.64731712               39.81545178              129.63672143                0.00010000              -69.84122578              -36.07506201              175.68760887               66.31231218              143.60426479               74.94910711
             152.03719620               37.68621825              116.59783733                0.00010000              -51.75669881               -9.56192854               97.66205637               86.53768081              173.90526589               48.38098051
             152.61218315               35.58158525              103.76999458                0.00010000              -31.02361411               13.78154480               20.36885925              106.45032968              191.70167600               17.11280348
             153.41672391               33.46177393               91.01466359                0.00010000               -4.80929042               32.18679242              -58.49219669              120.41421401              193.61874585              -21.45682915
             154.51599734               31.24139222               78.15479628                0.00010000               27.52856667               46.56655511             -141.32063388              119.71102313              175.83511546              -67.10152660
             155.96729525               28.79023394               64.98576327                0.00010000               63.45759155               63.08101936             -230.43853235               97.69261753              135.91847954             -115.02542409
             157.78514917               25.96204279               51.29344130                0.00010000               97.44206887               91.54259665             -328.22668256               55.24105937               74.82358848             -157.54251543
             159.91613662               22.65858278               36.89891801                0.36987300              113.09874555              143.16420795             -436.56437630               26.39046998               38.35821660             -185.15153739
             153.94685985               46.35789339              167.84716709                1.00000000             -114.28317889             -124.67366168              421.82076090                5.54963655               30.66646518              141.38638137
             153.80402806               44.31273744              153.40385153                0.87401925             -101.66332738              -91.72706957              325.07730434               17.80951393               62.43321923              102.23277994
             153.91359330               42.34950340              139.52456135                0.00010000              -78.00014398              -63.89905757              238.24394262               33.24467722              116.54589974               75.12716733
             154.24402518               40.44036785              126.10161377                0.00010000              -56.89793051              -38.10437376              157.89583677               47.49278138              158.40976426               53.93373870
             154.77563469               38.56106091              113.00430704                0.00010000              -36.67813713              -13.80751228               81.21513653               60.88069708              186.41911675               33.97839843
             155.51046244               36.68032035              100.09153781                0.00010000              -15.17464060                8.39110383                5.76449742               71.85719161              199.33629438               12.22419360
             156.47214188               34.74964820               87.20813218                0.00010000                9.31822447               28.11535988              -70.69613798               76.87304704              195.48440984              -13.01794593
             157.69682693               32.69759332               74.18249563                0.00010000               37.25368648               46.59921806             -150.28300421               71.74862830              173.08669985              -41.53185600
             159.21721561               30.43838515               60.82859321                0.00010000               67.39118046               67.30614130             -235.06213453               54.52646018              131.19771942              -71.60252348
             161.04465054               27.90201971               46.96151956                0.00010000               96.99576372               96.01808575             -326.99321971               28.54254456               71.32069981             -100.96568389
             163.15713088               25.07434116               32.42917889                0.36998595              111.24803468              139.64678106             -428.09939729               14.39743944               36.12379082             -128.51872488
             155.85760869               46.12090795              164.24367834                1.00000000             -107.11359719             -121.46243713              401.96216058                0.97049984               38.59103118               88.00978158
             155.78647272               44.40279407              149.64527217                0.73046052              -94.31624216              -89.39800726              306.55780576                8.44414434               76.21618125               57.08556044
             155.97128385               42.71189576              135.74271052                0.00010000              -70.04287387              -62.42937978              220.69021422               16.95904330              138.85635238               40.97300502
             156.38561524               41.05336431              122.34919793                0.00010000              -47.82131089              -37.66018226              141.16393268               25.16927231              183.12984485               29.27032429
             157.01485763               39.41006801              109.29058447                0.00010000              -26.24377803              -14.46478292               65.32947640               32.29228235              210.30211283               18.72786245
             157.86073968               37.74940733               96.40556414                0.00010000               -3.89728716                7.33367839               -9.15581715               37.28510424              220.78542550                7.63558169
             158.93691189               36.02408113               83.53017646                0.00010000               20.07466381               28.12927096              -84.45226798               38.37281730              213.85978647               -4.82468104
             160.26223296               34.17337658               70.49161264                0.00010000               45.82430847               49.01911040             -162.57357847               33.71998903              188.43459143              -18.73437654
             161.85339806               32.13635676               57.10766246                0.00010000               72.89055410               72.02952270             -245.34538779               23.19488783              143.38619943              -33.62913227
             163.72004404               29.88240451               43.18651595                0.00010000              100.30222201               99.94273418             -334.33703156               10.49918692               78.51018299              -49.52302026
             165.85944250               27.45151840               28.54378648                0.37045911              113.93984571              136.49074041             -431.07452456                6.59396863               39.59772762              -71.46272748
             157.40249762               45.92864465              159.93873067                1.00000000             -102.05744800             -119.22633053              383.75268028               14.10215731               62.10515439               55.23737424
             157.38192314               44.52477730              145.33583672                0.80761148              -90.01468455              -87.80167710              288.77727474               18.15859960              105.63742285               31.13105375
             157.60220393               43.10091581              131.56724217                0.36137368              -66.63423787              -61.09799558              203.27827158               21.21135296              175.08741211               22.10111092
             158.04923838               41.68716420              118.32325057                0.36108259              -43.83833038              -36.62001064              124.15158323               24.90478581              219.51951127               15.55892488
             158.72543732               40.27176525              105.41587932                0.36099555              -20.35434902              -13.83027591               48.80017771               28.04945460              245.99417253                9.79372958
             159.64215140               38.82699392               92.67743307                0.36112372                4.50958268                7.75865924              -25.16327481               30.16459031              255.41876932                3.86620495
             160.81562897               37.31223362               79.94134410                0.36160635               30.83998375               28.81524907             -100.01801558               30.42078863              247.23742289               -2.66268040
             162.25895108               35.67797552               67.03376059                0.36278598               57.82282311               50.45989449             -177.90708578               28.00891051              220.26343399               -9.85692818
             163.97208544               33.87897560               53.77008350                0.36483217               84.02607807               74.26188366             -260.71598970               23.01368103              172.99123871              -17.64880866
             165.93947264               31.90087439               39.95155177                0.36793795              108.93485178              101.84698817             -349.89896101               18.20187814              101.17446440              -26.22776291
             168.15078247               29.80415597               25.31152643                0.68501195              121.13098339              135.26375707             -445.71146051               19.46215536               56.00832990              -43.35014172
             140.66973388               54.47018433              199.66459408                1.00000000             -164.60917382             -173.85732881              587.95263600              -19.19413781               15.57762555               31.25311483
             140.02364214               49.68700492              185.26279385                1.00000000             -158.19925269             -135.13796850              470.63927327              -18.32420857               50.91976589               23.76591982
             139.50574882               44.96408604              171.25045547                1.00000000             -155.31012353              -99.93929478              389.64136424              -14.74036419              113.05861633               21.39495345
             138.91743967               40.25569062              157.69802358                0.69446902             -165.97612234              -65.39119409              326.09685138              -13.39115988              188.68003596               23.40160284
             138.18622638               35.52559757              144.66348687                0.69185004             -180.69544355              -30.67624511              266.25213629              -12.05171700              275.31329159               31.99972229
             137.30353080               30.78942884              132.19081247                0.70533720             -196.49664737                7.56049051              204.58814802               -9.18474302              363.21391148               41.78971464
             136.25629343               26.04844969              120.27038542                0.74483708             -216.14095606               51.90128304              125.65280942              -16.73073700              456.44184860               40.30575623
             134.98071167               21.15114745              109.09389762                0.82891501             -231.71070411              110.38130178               30.74908569              -28.01533044              566.80940869               44.31877251
             133.62207935               16.13426457               99.02911114                1.00000000             -163.92878325              170.20720671             -107.57223973              -76.53743487              683.26372797               63.09157124
             133.70213601               10.44611780               89.09286782                1.00000000               57.56859826              261.28950223             -502.49577486             -109.95896848              621.76755376               -1.56878031
             136.77345131                4.50470479               74.37789578                1.00000000              207.13153011              351.93705576            -1062.61665707              -59.06534798              453.38909778             -210.92332701
             145.26097191               53.73161104              195.57338418                1.00000000             -166.75227053             -168.56921718              588.22939563                2.02580061               20.76726770               69.67827663
             144.59344920               49.33562524              181.14756980                1.00000000             -159.34847853             -132.34406741              470.89506058                3.63626048               54.99641688               56.71660215
             144.07400233               44.96469309              167.12603153                1.00000000             -154.53384499              -96.73322494              385.42204214                7.32458305              114.08957744               51.85939232
             143.50277230               40.60177867              153.54150142                1.00000000             -163.75811198              -60.74573496              317.97632395               10.95094118              184.12989463               53.83697310
             142.79884009               36.21883512              140.46065438                1.00000000             -177.62574956              -23.14090580              253.83726788               16.28032319              271.60388884               63.27896295
             141.95025731               31.86503374              127.91631014                1.00000000             -194.53566714               17.91573928              180.02764924               29.54931407              372.51173833               80.15865153
             140.90812675               27.56746252              116.02505433                1.00000000             -214.63031913               64.53996226               96.77140812               38.27792106              483.09237178               74.32506441
             139.65765093               23.25496046              105.00454362                1.00000000             -234.94534648              128.77082350              -23.53249088               44.31395743              653.14331425               59.78974092
             138.20921982               18.83633664               95.42373185                1.00000000             -162.01623562              193.90449121             -213.51370356               17.95023296              900.31339458               42.40337280
             138.41732621               14.05901282               86.97126988                1.00000000               95.74955044              314.57174734             -698.95232011               28.93552627              892.27012404              -10.10648254
             142.12421083                9.02407535               72.24377218                1.00000000              270.68846174              335.21228266            -1257.33268169               90.33848235              671.00298387             -242.66516395
             149.50222150               53.09879999              191.97532424                1.00000000             -163.89361938             -156.10287558              569.04762565                4.58161296               23.34636384              122.21592930
             148.86328530               49.04012358              177.46257657                1.00000000             -155.80672244             -124.25750482              455.52308500               11.55392029               58.92742682              102.04482721
             148.38608705               45.02942154              163.39846925                0.00010000             -149.04844226              -88.64181581              368.00577225               21.20548827              120.14919150               92.03020002
             147.88231646               41.04077592              149.78342609                0.00010000             -156.87546376              -50.43537192              294.50575832               32.88966800              192.30589908               88.92403784
             147.24857777               37.06277946              136.68960408                0.00010000             -166.82133877               -9.20054049              223.14853614               49.60644233              279.81727349               89.41615955
             146.54588968               33.14774362              124.10229992                0.00010000             -180.83263237               35.27921187              132.89036849               75.75549730              389.96057156               96.18791674
             145.63192513               29.33924893              112.14042858                0.00010000             -197.38864918               84.93866001               44.16989505              117.25836129              493.89322982               75.37148670
             144.59811670               25.72656392              100.96444499                0.00010000             -222.74467368              145.12239327              -85.58542902              164.17028266              672.98156098               18.21091174
             143.17703165               22.01235440               91.39664748                0.00010000             -125.25044380              212.05871059             -261.04439406              258.98518716              919.10131519             -137.58893300
             144.09310782               18.73755274               82.47676377                0.00010000              173.65321182              283.12888699             -918.85138340              213.85648115             1032.97137287             -248.66379387
             148.65009589               13.20895045               67.02299951                0.36582867              355.69880652              283.07217951            -1468.15296638               52.41962885              797.98916588             -440.47280809
             153.46995699               52.60955353              188.70954919                1.00000000             -157.60509316             -142.86125265              541.12675277                8.61857236               25.97418848              156.08352897
             152.89390606               48.85047514              174.08041741                0.83432274             -148.62486142             -113.70368103              431.57464844               21.29870282               62.59840705              131.04421677
             152.49745976               45.19185677              159.93907146                0.00010000             -138.33491578              -79.35226976              343.03874356               39.02993985              124.92967018              114.14957334
             152.12720774               41.59307124              146.25532497                0.00010000             -140.67292616              -41.70737546              264.61900349               58.99997410              193.70767277              102.53139611
             151.68400124               38.03482431              133.05018536                0.00010000             -146.91549804               -1.01877458              189.45910074               88.05170379              269.50456316               87.24995631
             151.18889778               34.57061798              120.33458474                0.00010000             -150.47637770               40.60156411              106.12469701              127.18940469              360.94192409               72.61308904
             150.67447368               31.26623572              108.13023603                0.00010000             -146.04733339               83.56160552                7.48691199              187.64048297              463.58513147               40.60579858
             150.26795111               28.15740833               96.51993252                0.00010000             -114.82694713              123.42405401             -131.47965280              264.23359204              552.94717768              -57.20966174
             150.37793474               25.07751085               85.24384191                0.00010000              -38.50456634              162.47970712             -321.81024927              367.92187217              568.70381397             -258.91133372
             151.49785979               21.72159056               73.16747480                0.00010000               92.59366280              144.13464137             -500.29087370              313.64981473              399.32994484             -521.71728221
             154.22980800               16.68551894               58.15022203                0.36628822              173.19482103              162.72735603             -683.34544029              131.02988155              258.25499229             -424.22518578
             157.19274972               52.24157494              185.63523523                1.00000000             -148.57936026             -132.91635859              510.22715688               12.08361188               27.87741340              173.81609351
             156.70695612               48.76604996              170.86882892                0.80966045             -138.43299851             -104.47826588              404.60624355               29.40909614               64.42173865              145.06835816
             156.42408975               45.44237614              156.61419284                0.00010000             -124.38038595              -72.08370990              315.90264373               53.24706300              125.41406272              121.94421880
             156.21934840               42.20662841              142.81949361                0.00010000             -119.60123227              -37.59400065              236.55228102               78.25045334              186.44402228              101.94762311
             156.03206511               39.04240396              129.45829932                0.00010000             -118.05410146               -1.35378236              159.56021201              111.05442191              249.37621309               79.31203892
             155.85826637               35.95977490              116.50903711                0.00010000             -111.70603369               34.14187403               76.50428764              154.80075409              312.43487991               46.43633319
             155.79794443               33.01048104              103.93597471                0.00010000              -89.33764840               65.04496110              -22.31955096              211.65308398              372.41997980               -6.25511365
             156.07151340               30.19504500               91.62818228                0.00010000              -41.33287827               86.32586974             -141.59610751              268.15146651              401.48539205             -103.67066366
             156.97128687               27.26194854               79.11904882                0.00010000               34.32913116               94.82730838             -279.01707973              283.34374030              353.81235435             -241.42040988
             158.75809603               23.62024557               65.56584339                0.00010000              118.57749404               86.25119182             -428.57787427              208.81271757              202.72030133             -355.17390109
             161.34283675               18.46349757               50.07757504                0.36649219              158.47407217              113.85188567             -572.08186649              112.13643418               89.36929421             -332.92162379
             160.66267919               51.95122636              182.62981845                1.00000000             -138.13924123             -127.13884828              479.93783783               13.69756271               29.07343653              178.77139769
             160.28128677               48.76090983              167.71222425                0.82760721             -127.04283082              -97.98202195              378.05392108               33.17615245               65.03517676              147.28603807
             160.12182257               45.75018257              153.32535748                0.00010000             -109.45488936              -67.61684769              290.10699659               59.28366554              124.13692251              120.08542488
             160.09218899               42.84119122              139.39648393                0.00010000              -98.49396951              -36.63251897              210.45082199               84.84788201              178.21106980               95.10239685
             160.15194318               40.00774866              125.86420573                0.00010000              -88.76766000               -5.92906366              133.51998220              115.52033492              228.43046155               67.91831018
             160.31683579               37.25345546              112.66397072                0.00010000              -73.98389547               23.04516520               53.76473603              153.01529192              272.58558317               31.70105690
             160.67226527               34.56713494               99.69146466                0.00010000              -46.86614207               46.25092019              -35.96874501              192.15538377              300.98407003              -24.86856682
             161.37951294               31.88392572               86.73753742                0.00010000               -2.63281478               58.98043491             -136.38786488              215.97089814              297.96400872             -105.47180511
             162.61960897               28.97405702               73.44551827                0.00010000               54.65260819               65.24653968             -247.26208993              198.15633005              246.58044333             -194.02198172
             164.47256511               25.44661439               59.33939955                0.00010000              108.32118538               83.81164300             -366.85060787              121.23985177              140.60455840             -251.68014280
             166.78603268               20.96255666               43.97437220                0.36701954              131.34675728              146.96233578             -490.83915656               52.80762662               71.00783094             -237.88978150
             163.84733405               51.69879797              179.58971295                1.00000000             -127.58110912             -124.48658499              452.16288582               13.03795236               30.31854837              173.60934890
             163.57152296               48.80640952              164.51251851                0.84912515             -115.89261906              -93.96194414              353.64467332               31.98125850               66.04119040              139.99983130
             163.52948167               46.09003919              149.98962292                0.00010000              -95.63915023              -65.19413814              266.98255264               56.87536567              124.47823637              110.85765164
             163.65873995               43.47397803              135.92986544                0.00010000              -79.96370479              -37.23988009              187.64806663               79.74560425              174.09438947               84.26091532
             163.93020757               40.92382269              122.23931851                0.00010000              -64.97770074              -10.55061171              111.45377866              104.37087053              214.38464307               56.18878951
             164.35918594               38.42067821              108.80884068                0.00010000              -45.98128636               13.14674937               34.22578450              130.60683757              242.84966040               20.94501738
             165.01058184               35.93549944               95.49708367                0.00010000              -18.75883259               32.01743705              -46.96890756              152.40141748              253.35462617              -26.18418802
             165.98400928               33.37465370               82.09320761                0.00010000               18.05714786               45.24685137             -134.64842135              157.49687385              237.06472701              -84.08799069
             167.37172480               30.56687933               68.32072632                0.00010000               60.51920706               58.58619484             -229.87573247              133.19948268              187.45698481             -142.25262662
             169.19439343               27.29647843               53.87115531                0.00010000               99.76899781               85.77987543             -333.02222850               76.52950798              104.45212365             -182.88255236
             171.36710476               23.40274428               38.47521929                0.36718177              117.27113303              140.36924611             -442.56228331               34.72086738               51.27621867             -187.00971662
             166.70821514               51.46149466              176.41874613                1.00000000             -117.85444141             -123.15669783              427.64424317               10.35846914               32.49893303              158.80854814
             166.52967072               48.88167094              161.17805677                0.86025765             -105.82268838              -91.49410005              331.98152032               26.57845166               69.01138952              123.67881480
             166.59176137               46.44629981              146.53122370                0.00010000              -83.81765786              -63.93054690              246.79271579               47.66802740              128.89566935               94.92456517
             166.85331757               44.09639362              132.36698493                0.00010000              -64.95504809              -38.22402317              168.35869697               66.32787543              176.77627319               69.91298472
             167.29266041               41.79673643              118.56075562                0.00010000              -46.80108918              -14.10735199               93.39545356               84.47199138              211.43193150               44.77243203
             167.91729578               39.51639045              104.97210360                0.00010000              -26.31711392                7.54660985               18.95748078              100.75236945              230.57219641               15.76431976
             168.76631813               37.20748368               91.43458255                0.00010000               -0.96126255               25.64415003              -57.61059485              110.45327018              230.66551281              -19.40799206
             169.89807053               34.78886275               77.75084248                0.00010000               29.77278808               41.42786320             -138.38108702              106.85162508              207.81236083              -59.21058463
             171.36177389               32.14578092               63.69485313                0.00010000               63.46098920               59.66099102             -225.05904468               85.04059416              159.58177119              -98.11570430
             173.16729032               29.16221190               49.03729650                0.00010000               95.30722129               88.31491828             -318.72821566               46.80849955               87.25459588             -127.81355675
             175.26791832               25.76994158               33.58455139                0.36746032              110.06280018              135.42083222             -420.22606410               21.63819369               42.79175421             -140.39919472
             169.21415087               51.23566401              173.00930540                1.00000000             -109.58640271             -121.37011037              406.47137606                6.23327091               36.62940748              131.97374283
             169.11828684               48.97652752              157.60888073                0.88641872              -97.30156652              -89.53575823              313.01094029               18.21514472               75.60346586               96.45227189
             169.26811954               46.81142825              142.87204954                0.00010000              -74.17129987              -62.99207700              229.15104891               33.79029925              139.79601187               71.58974644
             169.63486084               44.70949756              128.65703413                0.00010000              -53.42344813              -38.69510386              151.70117888               47.65090220              188.41655556               51.83223995
             170.19965057               42.64167565              114.80440337                0.00010000              -33.56873824              -15.92289368               77.89952865               59.87425439              220.30097874               32.99912566
             170.96348608               40.57161040              101.14761562                0.00010000              -12.62378162                5.08866811                5.22837794               68.99792189              234.34831491               12.48798551
             171.94717494               38.44838245               87.50915224                0.00010000               10.96292360               24.31851993              -68.59982064               72.00909503              228.83548609              -10.74753768
             173.18274455               36.20321096               73.69590051                0.00010000               37.60062962               42.91802954             -145.63393954               65.55627476              201.92683328              -35.96519915
             174.69918753               33.76009915               59.50321094                0.00010000               66.18291033               63.88748942             -227.57648512               48.53704991              152.75700712              -60.70821887
             176.50640275               31.06277680               44.72851809                0.00010000               94.26108726               91.89955816             -315.88372879               24.68710300               82.99280364              -82.37830951
             178.58440928               28.11116093               29.20267071                0.36764248              107.80065228              132.62476339             -412.02382034               11.81358817               40.63005610             -100.06865918
             171.35115355               51.03409245              169.21491559                1.00000000             -103.29441696             -118.00393720              388.44535396                1.65197069               44.24444644               83.58129824
             171.31820938               49.09095578              153.67337109                0.73394172              -90.82781220              -87.06336182              296.40658453                8.70957211               88.60587798               54.54038670
             171.53459731               47.18645827              138.92247930                0.00010000              -67.10605860              -61.22117757              213.43498892               17.30739131              160.71752296               39.62900731
             171.97608821               45.32249154              124.74418432                0.00010000              -45.32823252              -37.62137146              136.67027189               25.33021797              211.31809149               28.65552916
             172.62803266               43.47827856              110.93801748                0.00010000              -24.27703910              -15.56004301               63.62258593               31.92235279              242.03593294               18.59569658
             173.49054743               41.61816381               97.31899946                0.00010000               -2.65665900                5.27610031               -8.04109758               36.09560024              253.36016954                7.98691811
             174.57489948               39.69385408               83.70109937                0.00010000               20.34659457               25.37808610              -80.52137105               36.32544020              244.59509548               -3.71440370
             175.89747932               37.64722334               69.89157782                0.00010000               44.90247888               45.81795161             -155.79946050               31.17266977              214.76439973              -16.18035302
             177.47294906               35.42353071               55.69043171                0.00010000               70.62456412               68.37209072             -235.56073304               20.84617071              162.98806432              -28.55370150
             179.30997060               33.00020307               40.89094741                0.00010000               96.72363797               95.41502717             -321.17678061                9.04595076               89.22354552              -40.53352905
             181.40742181               30.42243685               25.29332921                0.36762774              109.74512124              130.10820788             -414.07709504                5.22170851               43.87430703              -56.91809085
             173.13346363               50.87558527              164.74260734                1.00000000              -99.33511669             -115.85071842              373.40355174               14.19850882               67.60913337               54.21473801
             173.14011246               49.23526028              149.20101094                0.80870122              -87.53660172              -85.56954987              281.79968967               17.76127955              117.72525179               30.69966404
             173.38273160               47.58700470              134.58735695                0.36161921              -64.52337738              -59.94535723              199.08230673               20.90392154              196.60887410               22.01888130
             173.84964492               45.95707014              120.56240426                0.36081783              -42.01531158              -36.54214089              122.64698771               24.52917513              247.45591520               15.61024866
             174.54242536               44.33047479              106.91238893                0.36100341              -18.99111778              -14.78037646               50.06163663               27.44238441              277.48659925                9.85569219
             175.46982256               42.67713241               93.44545489                0.36079116                5.10994228                5.89686023              -21.05062064               29.20098193              287.54680570                3.92125485
             176.64462421               40.95594417               79.97198390                0.36148943               30.33493782               26.20900899              -93.00256697               29.09435223              277.04310607               -2.46591612
             178.07652132               39.11956999               66.29666040                0.36195324               55.92535072               47.23466483             -167.91374256               26.48403968              244.96994789               -9.19383797
             179.76313122               37.12754097               52.21656876                0.36319424               80.59471562               70.40102633             -247.53651402               21.59358424              190.29946590              -15.96826094
             181.68841563               34.97107734               37.51885695                0.36564695              104.06223314               97.08742727             -333.16572717               17.13370854              109.69259443              -22.85868199
             183.84437589               32.71332509               21.93220489                0.68389725              115.59602581              129.08882400             -425.37707764               17.92018200               58.50830592              -36.99455149
             155.96306532               58.78346981              206.29293511                1.00000000             -147.19091530             -158.20581268              532.61142448              -16.80736433               40.35497446               15.25374119
             155.49115617               53.98859972              190.73806602                1.00000000             -139.12586477             -122.60668460              421.93720248              -15.79781031               94.03786057               14.86128874
             155.18054803               49.28128926              175.89319207                0.97666963             -131.34815890              -89.31782629              339.05916118              -11.12651553              180.60549508               14.06513096
             154.86419299               44.63410001              161.65530246                0.70162671             -136.15744389              -56.10256326              269.28000169               -7.06969578              265.22228839               14.63495967
             154.45739915               40.01610456              147.97280404                0.70889521             -146.73773573              -21.92650369              202.70549057               -3.38843880              350.52058897               16.42731709
             153.92943828               35.39440760              134.79775961                0.72978224             -158.53264816               14.67936738              131.07373942               -1.68360731              437.52690206               18.17723959
             153.28674619               30.70441002              122.10568674                0.77177469             -163.23089978               55.67559252               48.54051332               -2.53011379              533.21557359               18.55428385
             152.66482028               25.86226556              109.90755486                0.84807911             -134.57381046              102.11290845              -65.45245822              -12.30712108              637.33320936               22.40554665
             152.59526998               20.69266205               97.89710044                1.00000000              -41.07817842              157.81285241             -255.60619521              -28.45850176              690.22019262               30.05033117
             153.84325671               15.13030462               84.67379054                1.00000000               82.94729981              220.42016760             -524.31218847              -19.30017646              507.55468782               51.90152337
             156.25421597                9.50957740               67.47897035                1.00000000              141.09592600              245.29859204             -699.70708596               21.67976969              273.32344440               92.20475278
             160.58986177               58.20141169              202.22791890                1.00000000             -150.55934292             -154.21854252              536.53018562                3.28136170               38.39525830               47.32797495
             160.08426834               53.76253288              186.64920314                1.00000000             -142.16645205             -121.01621602              425.97450334                5.73102139               90.20290192               42.08570885
             159.74653273               49.38811100              171.76025720                1.00000000             -132.90899782              -87.72838986              340.14993357               12.24553493              172.98937372               38.04574013
             159.42608838               45.07307437              157.45971120                1.00000000             -135.15858834              -54.11866495              267.75091199               19.60455633              253.68851948               36.30739104
             159.04336096               40.79683953              143.69187889                1.00000000             -142.88194563              -19.33645953              198.50200338               28.23599160              336.85048881               36.29027942
             158.56844947               36.54120128              130.42784216                1.00000000             -150.79224453               17.90375859              124.82801064               36.64141885              425.29878432               34.34701678
             158.02751607               32.26116595              117.66059985                1.00000000             -151.04132068               60.51388939               34.54578827               44.41495853              527.77209139               26.45069724
             157.54762306               27.88339464              105.41432861                1.00000000             -117.54253216              109.31522521              -94.39139953               44.58246661              643.48372184               13.58559804
             157.67666543               23.27079057               93.43882697                1.00000000              -15.29128936              170.95361529             -318.36837377               40.88677213              708.05759032               -4.70980179
             159.24179727               18.33450629               80.14175227                1.00000000              120.75377288              231.23777211             -673.05090808               28.12977988              524.98016014              -22.44879164
             162.09174089               12.96256332               62.97707718                1.00000000              184.99436149              261.83048831             -846.88062343               27.49518470              266.11321479              -11.25260394
             164.90645018               57.69909896              198.46603194                1.00000000             -148.73728942             -144.79867623              522.85882328                6.38205383               38.05094407               89.13821556
             164.41907728               53.56827540              182.83951532                1.00000000             -139.57664749             -115.75004469              415.86296022               14.32853027               88.38489738               78.09078853
             164.11491723               49.52672147              167.89228325                0.00010000             -128.57608445              -83.14296746              329.09693340               27.17344319              169.19896339               69.10138683
             163.84755559               45.55172671              153.52512509                0.00010000             -128.04625751              -49.21495453              253.78785950               40.79586184              247.23916471               62.14485308
             163.55399208               41.62937537              139.67242196                0.00010000             -132.48076829              -13.71864633              179.62274439               57.11561921              328.26267606               55.73935589
             163.19794023               37.75248278              126.30167156                0.00010000             -136.05700421               23.95038730              101.16214470               77.58700252              411.49742822               44.14087180
             162.83285199               33.91468781              113.38813595                0.00010000             -132.55476188               66.17345083                5.89613643              100.91113938              510.77750849               20.32184919
             162.54684499               30.04857006              100.96715252                0.00010000              -93.54791133              114.47262279             -125.99469680              127.81341068              616.76381226              -30.49878249
             162.96189377               26.11173435               88.71000934                0.00010000                8.36172847              170.77381525             -361.93484040              133.65279071              681.11357778             -105.54994466
             164.71407956               21.75506006               75.13590573                0.00010000              129.30559222              223.00904726             -698.38742775               89.24286803              488.68456768             -205.71323366
             167.54800561               16.74618717               58.14755366                0.36381817              183.39260505              243.21948277             -824.79470347               47.92435771              211.08366512             -158.19375967
             168.97914997               57.30543816              194.94861424                1.00000000             -143.59335263             -134.77758785              500.65679539               10.09443073               37.94188430              120.34452520
             168.54321644               53.44753198              179.24690969                0.87962141             -133.62998413             -108.04454413              397.47625320               23.22271713               86.83440158              104.01534113
             168.30655029               49.72525165              164.21889446                0.00010000             -120.19323631              -77.06168942              310.87910037               42.08494882              165.18459676               89.26490418
             168.13935172               46.08877528              149.75690370                0.00010000             -116.08165043              -44.12945057              233.95549898               61.32649940              238.53459613               74.90406356
             167.98491728               42.52246660              135.78752116                0.00010000             -115.22373180               -9.96173089              158.76551936               83.87944095              311.81998378               59.11874155
             167.83487708               39.02020902              122.24834604                0.00010000             -111.76328522               25.45613713               78.01902008              113.03178432              385.07350419               35.07721919
             167.74965157               35.58463497              109.07928921                0.00010000              -96.40161754               61.70106124              -17.42808462              148.15372249              457.31178791               -7.00057266
             167.90684473               32.17284710               96.15627633                0.00010000              -55.32101653               99.18372625             -144.22463093              187.89352593              513.64032027              -83.95407900
             168.64323124               28.68626688               83.09018189                0.00010000               24.26785436              132.13189035             -311.79399333              197.71031840              503.97978599             -197.35765800
             170.39220182               24.79468724               68.94176517                0.00010000              121.23712909              162.76108952             -499.42603905              124.60704358              346.33615740             -300.50673396
             173.06797383               19.82695298               52.04018203                0.36407128              167.57720076              180.59580609             -637.32175732               47.12306054              187.39955010             -261.03825429
             172.82415115               57.00354721              191.58905029                1.00000000             -136.04330152             -127.10080606              474.86526841               12.83221612               37.57307076              140.02167025
             172.46371814               53.40738452              175.78994646                0.85433039             -125.43891244             -100.69417002              375.46679721               29.72993377               84.64288404              119.39690577
             172.31537290               49.98548768              160.65811389                0.00010000             -109.34237500              -71.52259785              290.01010957               53.02612576              159.60864739               99.32307599
             172.27687064               46.66913770              146.07615673                0.00010000             -100.76128736              -40.96946396              212.84671882               75.33696887              226.88705063               78.88652848
             172.30014716               43.43014075              131.95219677                0.00010000              -94.02315448              -10.12497519              138.01309639              100.87637953              289.03311090               55.07755644
             172.39640755               40.26160552              118.19490475                0.00010000              -82.84293929               20.18611573               58.92624550              131.46158573              345.52366481               22.93171342
             172.64328837               37.14870904              104.68609947                0.00010000              -59.66619740               48.36902345              -31.97913838              165.04517449              388.91934211              -26.82920626
             173.20308360               34.03224459               91.21753578                0.00010000              -17.45141888               72.80959116             -142.29307028              191.62876537              399.49873551             -102.91035294
             174.29425999               30.75437216               77.37524590                0.00010000               43.12253664               90.21660186             -267.84309592              188.47527219              347.39599268             -196.63193517
             176.06553433               27.01028185               62.50638665                0.00010000              106.58376765              104.63141309             -391.95097271              122.54097033              207.87149563             -262.60477514
             178.42593535               22.35810329               45.89301175                0.36444185              136.04010139              137.53580762             -496.67866529               54.10099268              100.42913685             -205.92774126
             176.42811967               56.76342204              188.29923794                1.00000000             -127.22450193             -122.28707858              448.72753442               13.85363472               37.13421210              149.49298431
             176.15587465               53.43364858              172.38638403                0.86401690             -116.14000205              -94.98882459              352.86917817               32.32502806               82.31964451              125.29664685
             176.10531963               50.29479970              157.13595786                0.00010000              -97.72183137              -67.34213261              268.94893333               57.24743641              154.06723840              101.39689653
             176.20143802               47.26938601              142.42303752                0.00010000              -84.76712891              -39.62756512              192.45527890               79.73046181              215.32184404               77.25442381
             176.40997705               44.31996709              128.13438846                0.00010000              -72.79487540              -12.53076876              118.66127588              103.70651738              266.84268988               49.88953942
             176.74554051               41.42393134              114.14728310                0.00010000              -56.50305254               12.69257010               42.29177661              129.59401847              306.19975854               14.56555297
             177.27991600               38.55201544              100.30460915                0.00010000              -30.58917990               34.52008332              -41.61210626              153.41046858              326.31996487              -33.42462366
             178.13375691               35.62903892               86.37421557                0.00010000                7.73917132               51.94763766             -135.49919187              164.21091162              313.83076470              -95.38922334
             179.43469942               32.49059891               72.00635449                0.00010000               55.27665908               66.40026017             -237.86024903              145.96112092              253.59597683             -158.69582231
             181.23929010               28.88731550               56.76192590                0.00010000              100.98256892               85.26689605             -343.33805131               88.21317926              141.03053065             -193.40529159
             183.45435080               24.57766913               40.25120215                0.36445128              121.50607056              125.12900929             -445.86123423               39.72848903               65.37400256             -165.67732474
             179.76077076               56.55780564              184.99490049                1.00000000             -118.19297199             -119.62311738              424.13629745               12.95732795               37.22060844              149.91936077
             179.57884104               53.50760803              168.95574311                0.87516420             -106.80932777              -90.95495224              331.42824559               30.73037098               81.11490044              122.54057490
             179.62458421               50.63864503              153.58461774                0.00010000              -86.62642854              -64.44290492              249.15696216               54.33323388              150.95292049               96.63087201
             179.84631247               47.87658639              138.74845679                0.00010000              -70.24260199              -39.14216089              173.68842750               74.63764967              207.74394179               71.43538704
             180.21973217               45.17952538              124.31304212                0.00010000              -54.50364491              -15.16925284              101.34455017               94.48048201              251.07949382               44.25540260
             180.75623958               42.51545692              110.13001098                0.00010000              -35.66710044                6.70826806               28.34299996              113.19224791              278.19472985               11.67663608
             181.50639016               39.83911070               96.01932330                0.00010000              -10.37606116               25.47650415              -48.85077130              126.35598562              283.65034074              -28.92040060
             182.54871835               37.07119734               81.75222818                0.00010000               22.44078350               41.27243492             -132.01180003              126.07418619              260.30176580              -75.54686967
             183.95520583               34.08237736               67.04848674                0.00010000               59.70046747               57.74181622             -221.18335140              104.10998279              202.51921008             -118.69173555
             185.74272770               30.71561977               51.60750473                0.00010000               94.22960193               83.05466887             -314.99385942               58.97794190              111.28009279             -142.42049522
             187.83979787               26.86068348               35.17756688                0.36488590              109.70701673              127.27391695             -411.55082537               25.66192649               52.87017440             -132.40437727
             182.78766144               56.37095969              181.58883764                1.00000000             -109.80187644             -117.83034233              402.07198978               10.33531365               38.56115989              140.96517040
             182.68964268               53.61454954              165.41424798                0.87421490              -98.23277518              -88.05697322              312.03813823               25.47470521               82.40194155              110.84931945
             182.82300594               51.00594160              149.93459910                0.00010000              -76.81660070              -62.43011479              231.35303608               45.43845893              152.59574933               84.95545701
             183.15331066               48.48654279              135.00389537                0.00010000              -58.11448877              -38.83865676              157.01935716               62.21652149              207.28572446               61.53468887
             183.66071616               46.01658204              120.46574640                0.00010000              -40.17552585              -16.78719088               86.13048287               77.14472607              245.33668462               37.70540921
             184.34980014               43.55809670              106.14914420                0.00010000              -20.47104356                3.38636362               15.75900102               89.07018842              264.56599233               10.86717504
             185.25129529               41.06154552               91.86245169                0.00010000                3.10869160               21.45349629              -56.67466664               94.52837342              261.69458740              -20.01144300
             186.41197398               38.45448762               77.38717454                0.00010000               31.05906782               38.31783235             -133.12376244               88.82381327              233.23125758              -53.04971621
             187.87247665               35.64543524               62.48458237                0.00010000               61.42844227               57.31324120             -214.58549046               68.92268027              177.47687845              -82.89887201
             189.64054282               32.54840888               46.91887699                0.00010000               90.24926384               84.25914200             -301.31345370               37.00156851               96.50174122             -102.34376193
             191.67746192               29.12314747               30.49439673                0.36491424              103.69191009              125.17533419             -393.24815146               16.55530417               45.91360660             -105.49631795
             185.48029735               56.20119879              177.97659461                1.00000000             -102.69441037             -115.58638552              383.01648380                6.42323669               42.10258286              119.93364973
             185.45335325               53.74646856              161.66407033                0.88819650              -90.94686058              -85.65389719              295.09316378               17.51139185               87.78071338               88.05876400
             185.66136014               51.39004273              146.10758233                0.00010000              -68.66753917              -60.83865509              215.73169489               32.25799180              161.44254024               65.35602624
             186.08000246               49.09981326              131.13563734                0.00010000              -48.51436804              -38.27190137              142.39230820               44.84335288              216.46825809               46.88063751
             186.69107278               46.84378156              116.56229761                0.00010000              -29.36612999              -17.12928317               72.67665131               55.17079592              251.85847175               29.07147550
             187.49267986               44.58318419              102.19610537                0.00010000               -9.52530336                2.66048564                4.16276435               61.97300549              266.49068798                9.98822908
             188.50056671               42.26818063               87.83613577                0.00010000               12.43125170               21.27079385              -65.47013497               62.96549725              258.74333650              -10.89938787
             189.74130490               39.83755399               73.26981684                0.00010000               36.95857330               39.72610040             -138.15527646               55.83380991              227.10607207              -32.40138632
             191.23973818               37.22864219               58.27706351                0.00010000               63.18709723               60.32448347             -215.28834146               40.22808704              171.16154772              -51.97513663
             193.00504684               34.40080261               42.64384499                0.00010000               89.08442977               86.64930915             -297.76548904               19.83112982               92.85709411              -67.31588894
             195.02142677               31.36419016               26.18870249                0.36549164              101.63799300              123.02374664             -386.49164528                9.07390972               44.44452373              -78.48284810
             187.82558662               56.05923198              174.01258542                1.00000000              -97.45600532             -112.18214421              367.31037720                2.10274809               49.33895157               77.38105604
             187.85102657               53.90147159              157.57340387                0.72800610              -85.53827734              -83.14888434              280.83390024                8.41309144              100.00046746               50.40300041
             188.11482108               51.78916850              142.01141030                0.00010000              -62.72938406              -58.92523011              202.30128145               16.56305560              181.05233183               36.66182357
             188.59643889               49.72110476              127.08260337                0.00010000              -41.70299658              -36.84419854              129.58298852               23.90750599              237.83659667               26.34362404
             189.28076115               47.67399637              112.56303619                0.00010000              -21.57888518              -16.18226830               60.59664454               29.56237737              272.04451583               16.73454262
             190.16486119               45.61130641               98.24474219                0.00010000               -1.22628520                3.46619804               -6.87752407               32.68888518              284.08112072                6.68025655
             191.25623544               43.48696140               83.91974904                0.00010000               20.16637151               22.64828047              -75.05771835               32.12110455              273.29724243               -4.04763091
             192.56818862               41.24900963               69.37562343                0.00010000               42.87771603               42.31898079             -145.92009399               26.87118947              239.00902049              -14.88253758
             194.11378976               38.85192491               54.39644780                0.00010000               66.67144157               63.93470444             -220.98648124               17.42627309              180.79793363              -24.82186568
             195.90161745               36.28139506               38.76298034                0.00010000               90.91876302               89.35395214             -301.32635248                7.21695261               98.89298181              -33.63066337
             197.93216502               33.58362240               22.26224458                0.36504164              103.05475749              121.11617184             -388.01324488                3.86403158               47.78432244              -46.25957498
             189.83787309               55.95755590              169.40680170                1.00000000              -94.61945274             -110.16760790              355.68958237               13.82214394               72.23299663               52.09179554
             189.89167856               54.08349088              152.97183052                0.80445030              -83.24425034              -81.79807170              269.60675985               16.76431049              128.56107926               29.44402823
             190.17298808               52.21153813              137.54888830                0.36099417              -60.91769302              -57.76303663              191.14184313               19.78862129              216.41807235               21.14022824
             190.67332470               50.36292929              122.77619032                0.36059514              -39.04347066              -35.81754712              118.61203438               23.11848466              273.68987395               14.85301756
             191.39211867               48.52013619              108.41711205                0.36061779              -16.99160791              -15.38601796               50.00044749               25.61469584              307.37936984                9.10510180
             192.33349255               46.65250815               94.25642065                0.36099810                5.65834580                4.12017409              -16.95856345               26.91363813              318.09853352                3.21667551
             193.50528559               44.72114624               80.08129276                0.36102046               29.01363141               23.41848434              -84.60689115               26.47628699              305.25151099               -2.94383970
             194.91376517               42.68393360               65.67548573                0.36143514               52.52963080               43.49239757             -155.05636343               23.86715764              268.20490888               -9.11613155
             196.55587820               40.50733628               50.81935322                0.36227361               75.19616133               65.54113689             -229.91267803               19.40624670              206.61578161              -14.92438844
             198.41768840               38.18788166               35.28823723                0.36377988               96.91872597               90.64865931             -310.19339611               15.56596118              117.93742261              -20.44800435
             200.49425272               35.78651360               18.80398488                0.68271816              107.65643226              120.28911944             -396.46146110               16.07196415               61.38165496              -32.65113346
             172.58657155               62.90529158              212.31682257                1.00000000             -128.24291604             -140.02178568              469.33157622              -14.35980788               58.31951457                2.21852553
             172.30414239               58.16195646              195.70153790                1.00000000             -119.29746331             -108.60663358              369.47689714              -13.59900442              124.86165790                7.35482512
             172.20062228               53.51125839              180.03163870                0.95238185             -108.09344602              -78.47416831              289.39416023               -8.85326022              228.72226206                7.77870468
             172.14227347               48.93957232              165.08362361                0.71654918             -107.32206399              -48.14684620              219.46339596               -4.49845595              318.99321728                7.72638686
             172.05418100               44.41599421              150.71759668                0.72754284             -111.05436676              -17.09714175              151.94841921               -0.98439853              401.91308663                7.48789222
             171.92118613               39.89280853              136.81228726                0.74498860             -112.16856773               15.52535983               79.20184027                1.31833714              479.63960229                6.65321159
             171.81080965               35.30970915              123.24119569                0.77529039              -99.26119859               50.43181076               -9.25441848                1.27236582              551.07055841                5.57017296
             171.93596216               30.58571088              109.78484846                0.83024880              -57.52810634               88.13638806             -130.28549130               -1.58094120              597.98377836                5.33499799
             172.66024752               25.65181815               95.91698723                0.97019454               16.76988469              127.74135536             -293.65964313               -3.60425891              563.35839892               10.20831772
             174.27135986               20.54822481               80.60662406                1.00000000               98.46565232              159.96969841             -464.52938234               -4.22966317              367.17875492               25.00341459
             176.62956057               15.35258619               62.38375406                1.00000000              135.82007132              177.78537741             -546.22674282               -4.93738844              206.97465045               66.96076665
             177.18630859               62.50507372              208.30398789                1.00000000             -132.11396546             -137.22113071              475.08756779                3.56674335               51.21901804               28.13869308
             176.86516894               58.07589012              191.66705987                1.00000000             -123.15134219             -107.88618277              375.44248638                6.10162668              115.22267807               29.17450065
             176.72328175               53.72651671              175.92903020                1.00000000             -111.01239674              -77.92231889              293.33832697               13.30239976              215.15224073               26.39080967
             176.64492100               49.45810386              160.89651965                1.00000000             -107.77814165              -47.65459222              221.51391915               21.15968296              302.52199712               22.74998854
             176.56771891               45.24502279              146.43069445                1.00000000             -107.87044829              -16.70349513              152.51607804               28.65310467              382.76976033               18.25885825
             176.48751204               41.04806213              132.41287035                1.00000000             -104.53183922               15.86243209               77.77514167               35.39712916              458.41416203               11.58972973
             176.47708213               36.81402725              118.71597009                1.00000000              -86.92068942               50.86437054              -14.15165087               39.50986594              527.10279756                2.03528197
             176.74909825               32.46707477              105.11671563                1.00000000              -41.70670789               89.44648295             -141.20140253               39.53809189              568.72949324              -10.43900331
             177.64294797               27.92923170               91.05636437                1.00000000               31.47904769              129.90912179             -315.96246952               32.55747499              524.33608523              -21.39222585
             179.37867920               23.14792179               75.51025172                1.00000000              106.64386621              163.75251797             -492.38901859               17.95516356              325.21797569              -20.26865400
             181.77582530               18.13043997               57.30615971                1.00000000              139.71460952              181.46921053             -575.35363285                9.19745620              155.44923518               24.96693893
             181.51627362               62.16086896              204.43250071                1.00000000             -131.15416832             -130.58240191              466.39818876                6.63114307               48.72917673               59.96048187
             181.20473193               58.00423280              187.77983578                1.00000000             -121.59085392             -104.77696506              369.53545295               14.35439907              109.65689342               56.41469680
             181.08445654               53.95281202              171.98040791                0.00010000             -107.88854424              -75.75962473              287.29430499               27.50618058              204.84881716               49.62536636
             181.04696105               49.98648048              156.85918328                0.00010000             -102.35858539              -45.89914941              213.90604044               40.67321270              288.33580432               41.20023437
             181.03728483               46.08192431              142.28205897                0.00010000              -99.34183967              -15.37992320              142.99042862               54.24081741              363.96737092               30.56062507
             181.06012425               42.21005717              128.12554281                0.00010000              -92.76452489               16.54335185               66.23849604               67.80800147              434.25250112               15.33262377
             181.18199433               38.32699656              114.25835131                0.00010000              -72.43023523               50.71167450              -26.95616427               80.01401968              494.84239609               -8.30018421
             181.61151955               34.37464054              100.44455105                0.00010000              -27.57221674               88.04343618             -154.62224993               85.18853115              528.36851149              -41.32693049
             182.63055000               30.25000059               86.15795067                0.00010000               40.88676559              126.79447162             -323.61473325               73.88641364              478.29336683              -79.49572662
             184.42925486               25.82327517               70.50901521                0.00010000              110.89616703              159.65265829             -489.26493593               41.39367025              292.96102140              -93.15683100
             186.84847334               20.98197040               52.52710544                0.36176788              141.92184759              179.44278966             -572.17848227               16.12652270              139.41563249              -49.46413255
             185.63220378               61.89342568              200.72268510                1.00000000             -127.18899109             -123.47421604              449.91932060                9.99977248               46.76235170               87.78349491
             185.36031387               57.98035082              184.02994247                0.92636439             -117.05230477              -99.48595360              356.15224408               22.19583989              104.83889613               78.90932858
             185.29115768               54.21132422              168.15665347                0.00010000             -101.55204497              -72.05188745              274.73727529               40.26829752              195.45979972               66.94492211
             185.32927297               50.54012087              152.93443495                0.00010000              -93.10995557              -43.41276587              201.02468756               57.10727982              273.78339046               52.86950246
             185.42895857               46.93742433              138.22549575                0.00010000              -86.53365754              -14.24182569              129.34645307               74.77513808              342.61620214               35.26059274
             185.59859982               43.37892917              123.89496515                0.00010000              -75.80897084               15.47074736               52.76387396               93.27745667              401.77399267               11.13161724
             185.91277915               39.82826074              109.78167433                0.00010000              -53.43674866               46.07902085              -37.64661756              111.03601188              445.74982362              -24.68648292
             186.52986484               36.22794349               95.63543990                0.00010000              -12.03687648               77.21290769             -151.10435080              119.88412620              456.94373956              -74.43222820
             187.67204162               32.46512114               81.00796204                0.00010000               47.23589726              108.15683227             -288.70440034              105.64186598              400.67089241             -130.13914942
             189.47458279               28.34097496               65.17895402                0.00010000              105.44618249              136.23570867             -427.79543637               61.13399248              242.08491205             -160.47961265
             191.78096527               23.71929576               47.40378688                0.36226148              130.63824861              157.59761112             -506.03803183               24.31687787              113.54278372             -112.18847627
             189.54241879               61.69138464              197.13254060                1.00000000             -121.16685941             -117.90949155              429.60363390               12.25628196               44.97028784              108.19378930
             189.33075020               58.01451373              180.37816486                0.89580886             -110.61831786              -93.96523524              338.99676238               27.55177512              100.12123987               94.62652785
             189.33005243               54.51177427              164.41439503                0.00010000              -93.38718318              -67.98537787              258.97230712               48.95338010              186.16008465               77.85409013
             189.46300653               51.11822516              149.07642798                0.00010000              -81.80365677              -41.30706185              185.89125915               67.81179108              258.56248801               58.71300693
             189.69397930               47.79708779              134.21856125                0.00010000              -71.40847811              -14.63651118              115.06576769               86.84198922              318.81234996               35.71841561
             190.03483697               44.51947212              119.68756202                0.00010000              -57.01395260               11.53655652               40.78259386              106.17498162              364.69099329                5.62322591
             190.55370025               41.24857697              105.29639194                0.00010000              -33.12476447               36.85789475              -43.11495180              122.91897575              389.42649926              -35.17137401
             191.37234168               37.91889870               90.78232087                0.00010000                3.83278015               60.67526841             -140.79480731              129.45391573              379.32100772              -87.16701516
             192.63035585               34.41313723               75.76218690                0.00010000               51.27092017               83.08893001             -249.16172839              113.04336022              315.20087223             -140.55682373
             194.39776009               30.54798934               59.72682394                0.00010000               97.39067176              106.82077639             -355.15837737               64.72653362              183.30014003             -167.22300740
             196.57816928               26.13392263               42.14400174                0.36241753              118.04091996              132.25796361             -439.61335610               25.29307653               87.06879810             -126.71209676
             193.23107124               61.53523585              193.60436914                1.00000000             -114.01114981             -114.18995796              408.21612437               12.96313499               43.48588301              120.91125279
             193.09095974               58.10104611              176.76960782                0.89375646             -103.22786957              -89.25783342              320.59624456               29.48671602               95.95376140              103.06885306
             193.16651385               54.85161666              160.70433615                0.00010000              -84.53822405              -64.38794406              242.27108816               51.93537413              177.94568246               82.65646279
             193.40019526               51.71397964              145.24558951                0.00010000              -70.09812270              -39.81986216              170.37280707               70.76326573              244.80790171               60.36059888
             193.76455140               48.64469410              130.23743125                0.00010000              -56.47924981              -15.97574929              101.21079615               88.59723112              296.60201045               34.75174400
             194.27061027               45.60966030              115.50980625                0.00010000              -39.64096529                6.64388541               30.39110453              105.13434616              330.38320692                3.44232497
             194.97173209               42.56541864              100.85922254                0.00010000              -15.81136836               27.53359590              -46.33786464              116.97298816              340.00314577              -35.59319768
             195.95438290               39.44144886               86.02755358                0.00010000               16.60430480               46.59293190             -131.19207186              117.50102860              316.27843439              -80.74545548
             197.30381819               36.12689974               70.68831329                0.00010000               54.69725821               65.08397557             -221.94464942               98.62091145              250.04566364             -122.31330612
             199.04832806               32.47739048               54.47263852                0.00010000               90.55710211               87.15640489             -312.09653381               56.53551750              139.27241998             -140.46767938
             201.11496023               28.36445503               37.05714751                0.36243403              106.66321652              118.87697679             -395.15301253               24.01718789               64.50589869             -110.81061899
             196.67006096               61.40758548              190.07243890                1.00000000             -106.59572539             -111.80659546              387.52074551               12.05447811               42.79749540              125.85291638
             196.60410371               58.22935706              173.14108342                0.89231488              -95.71172847              -85.53580016              302.59958371               27.87091273               93.34189427              103.99191474
             196.75582639               55.22401539              156.97276216                0.00010000              -75.94546534              -61.45861494              226.02362578               48.99929916              172.71874310               81.40544802
             197.08519440               52.32182792              141.40363399                0.00010000              -59.27915668              -38.70363946              155.52889978               66.06234582              235.46850296               58.27831060
             197.57024326               49.47757281              126.26620951                0.00010000              -43.41975221              -17.15524882               88.25309041               81.00578920              280.60448203               33.14762898
             198.21679936               46.65234983              111.37570068                0.00010000              -25.44359059                2.89896269               20.80104747               93.14880774              305.20416962                4.19577939
             199.06137145               43.79924889               96.52006824                0.00010000               -2.79591013               21.25118540              -49.94869262               99.44274773              304.81143764              -29.24863825
             200.16088116               40.85075734               81.45297161                0.00010000               25.27305013               38.44154555             -125.73116186               95.08749789              274.26446434              -64.85729430
             201.56683245               37.71481674               65.89705930                0.00010000               56.50169903               56.61634866             -206.12497656               75.80754654              210.12388795              -95.28948107
             203.29091514               34.29111744               49.57127812                0.00010000               85.87757458               80.08029639             -288.88873295               41.79140724              114.33635582             -108.91473665
             205.28438394               30.51146216               32.24420278                0.36295660               99.34688062              114.22122906             -371.68958726               18.04400967               52.92253510              -95.29457548
             199.82861765               61.29910394              186.46018592                1.00000000              -99.66695526             -109.84981256              368.59414680                9.68212290               43.54621542              121.98064812
             199.83194810               58.39033011              169.41881954                0.87902560              -88.72943364              -82.54050729              286.02346929               23.10750469               93.52236079               96.45628738
             200.05402898               55.62244436              153.15828442                0.00010000              -68.20316686              -59.11389052              211.06730452               40.95768348              172.62528758               73.47403814
             200.46788476               52.93990685              137.50737208                0.00010000              -49.99418522              -37.67128044              141.92271544               55.17305439              233.35747308               51.98987773
             201.05414527               50.30158913              122.28336528                0.00010000              -32.79872112              -17.58787156               76.34309565               66.69207095              274.22455068               30.01542002
             201.81191034               47.66763955              107.28728362                0.00010000              -14.59828666                1.17135850               11.64467329               74.57577683              292.81591450                6.04164341
             202.76217954               44.99044235               92.30108922                0.00010000                6.43273351               18.69242270              -54.80196414               76.47994836              286.29768367              -20.13077020
             203.94056501               42.21027977               77.08836723                0.00010000               30.87147391               35.79885034             -124.82915762               69.59207282              252.26201365              -46.50502091
             205.37960902               39.25922671               61.40314332                0.00010000               57.34728907               54.69571255             -199.08806744               52.51372685              190.16739038              -68.65835091
             207.08751079               36.07899641               45.01102743                0.00010000               82.77709773               79.06191136             -277.18366165               27.53217123              102.86461831              -81.04723712
             209.03515097               32.64887961               27.71958836                0.36318322               94.76401831              113.10969736             -358.45717123               11.94836043               48.06360430              -79.80201995
             202.68125108               61.21058923              182.66963508                1.00000000              -93.83376969             -107.37987298              352.17063661                6.17967020               46.62581917              106.37780303
             202.74291339               58.57854692              165.51074400                0.88013476              -82.79238776              -79.95372548              271.54008763               15.92970477               98.03937567               78.06451813
             203.02540333               56.04173758              149.18668343                0.00010000              -61.67013312              -57.20277934              197.90895420               29.11354289              180.07575982               57.60409261
             203.50951072               53.56840231              133.50488029                0.00010000              -42.45256756              -36.55479009              129.83309667               39.86936499              241.08579252               40.59473980
             204.17635198               51.12581538              118.25793639                0.00010000              -24.50245239              -17.17170791               65.51603600               48.00067883              279.75364289               24.08711815
             205.01946168               48.67577700              103.23087091                0.00010000               -6.40108892                1.19070544                2.68129798               52.54143130              294.69381151                6.76064302
             206.04833020               46.17309735               88.19974954                0.00010000               13.22382871               18.86510613              -61.05022662               51.93704443              284.42414129              -11.41178306
             207.28393825               43.56673434               72.93279498                0.00010000               35.00300733               36.68119666             -127.66585417               44.80148035              248.02157254              -29.13585887
             208.74839035               40.80873099               57.19744411                0.00010000               58.39837026               56.27884855             -198.37295524               31.37815626              185.90319942              -44.20552285
             210.45190566               37.87235566               40.77320831                0.00010000               81.75972005               80.21005705             -273.57718374               14.97238926              100.58539099              -55.05752099
             212.38358475               34.77365611               23.47283780                0.36312188               93.16790904              111.65416712             -353.41821269                6.60148472               47.41778790              -62.77035504
             205.21629569               61.15150648              178.56112313                1.00000000              -89.69018381             -104.08003131              339.02219596                2.31565467               53.46359731               69.94306887
             205.31939385               58.79125560              161.29004909                0.71347820              -78.49256237              -77.56296861              259.83172230                7.66081774              109.56009586               45.19501477
             205.64644444               56.47838877              144.96850493                0.00010000              -56.90997945              -55.34421562              186.97294081               14.94426757              198.59036167               32.69915412
             206.18119426               54.20881105              129.33584409                0.00010000              -36.98301393              -35.07228624              119.47773851               21.27370584              261.35905974               23.13432864
             206.90678416               51.95815497              114.14995037                0.00010000              -18.28686332              -16.06951377               55.88543136               25.80365329              299.12397228               14.11786179
             207.81545699               49.69145366               99.18144898                0.00010000                0.15894614                2.11659942               -5.89155954               27.88701721              311.88097860                4.81670264
             208.90996308               47.36774447               84.19994500                0.00010000               19.27519867               20.04412912              -68.19005785               26.73545959              298.98155575               -4.75260475
             210.20096097               44.94390370               68.97317594                0.00010000               39.57938686               38.53942047             -133.10514563               21.78399968              260.21635822              -13.90758539
             211.70155082               42.38480368               53.27070208                0.00010000               61.05362452               58.72556843             -202.08777794               13.67994325              195.93397218              -21.72378554
             213.42203346               39.68319755               36.86442036                0.00010000               83.15144770               81.96239005             -275.80479469                5.38930216              106.91774699              -28.23207029
             215.36457977               36.88196296               19.53306432                0.36354854               94.25463177              110.15828583             -354.61329547                2.72298768               51.02508254              -38.71034071
             207.44806594               61.12898861              173.85639899                1.00000000              -87.88184870             -102.25178771              330.72717733               13.00691900               75.49919580               49.00640077
             207.56924745               59.02728754              156.59314613                0.79762765              -77.06663510              -76.39680591              251.84402535               15.27859323              137.20116215               27.56254326
             207.90673324               56.93485326              140.41019381                0.36063526              -55.70144028              -54.35355102              178.78239847               18.01233192              233.12370094               19.74495638
             208.45521865               54.86695659              124.93464495                0.36077834              -34.84754032              -34.18544603              111.27171357               20.88103056              296.79529477               13.66758869
             209.20978243               52.80442510              109.91239788                0.36076802              -14.38030625              -15.37298689               47.92473053               22.85744708              334.38246090                8.00864007
             210.16761252               50.71810899               95.10628363                0.36086285                6.04034594                2.66553275              -13.40969528               23.69329423              345.93238830                2.25340012
             211.33058935               48.57397993               80.27984608                0.36089684               26.74732566               20.62354588              -75.20993185               23.03331487              330.79840402               -3.58277937
             212.70255903               46.33752275               65.19553313                0.36033460               47.60530054               39.36190504             -139.73196489               20.62292851              288.89803956               -9.16319990
             214.28269536               43.98324236               49.61831520                0.36121670               67.99866941               59.84386820             -208.52967399               16.81848962              220.86595399              -14.11541400
             216.06253242               41.51160346               33.31498903                0.36216432               87.89091663               82.84059123             -282.24900034               13.72886983              125.09488219              -18.64093325
             218.04051369               38.97682183               16.00297567                0.68166057               97.79812699              109.48588695             -360.88452762               14.11522794               64.05736354              -29.73781499
             190.36002496               66.85350968              217.67956664                1.00000000             -108.64517556             -120.50022655              402.11014352              -12.07841791               69.88258706               -7.27237696
             190.27357320               62.20465228              200.12760396                1.00000000              -99.35587019              -93.69272667              315.17638056              -11.56082672              144.82536867                1.41329445
             190.37290755               57.64208035              183.68107528                0.94810416              -85.77369259              -67.49223759              241.02911392               -7.36981032              260.75329463                2.82888404
             190.55809935               53.16283566              168.04457038                0.74240770              -80.29551602              -41.03211869              174.94220448               -3.44420177              355.05520172                2.98225403
             190.76699723               48.73966687              153.01177242                0.74780280              -77.97340179              -14.21124689              111.26972588               -0.28567678              433.16998885                2.50999503
             190.99863131               44.32630565              138.38179642                0.75153071              -71.57005366               13.34346731               42.34902652                1.61246675              494.13688586                1.49550123
             191.33559616               39.86626469              123.92059837                0.76050068              -52.49635036               41.84512880              -41.17659248                1.95933484              531.71567505                0.06254565
             191.94870431               35.30523117              109.30184504                0.78551213              -14.74669024               70.96808063             -146.30305422                0.90190491              528.07326228               -0.60085341
             193.04066236               30.61807412               94.02390758                0.87589055               38.56803370               98.39084948             -267.74211441               -1.18681109              452.09852491                2.29605813
             194.72006498               25.82311758               77.38320289                1.00000000               89.93933064              120.36244763             -378.19831359               -3.07498645              274.71817916               11.15052736
             196.83944897               21.00398145               58.55443550                1.00000000              111.93839868              131.45692799             -431.22898219               -4.96754831              142.40507913               42.82106352
             194.88809818               66.64850741              213.72967026                1.00000000             -112.44185788             -118.69491416              408.46544023                3.23869097               59.44691819               13.13781908
             194.76367960               62.26772501              196.15805287                1.00000000             -103.39902082              -93.54827699              321.71022561                5.46926529              131.29849091               18.61817630
             194.82011776               57.96715798              179.62702374                1.00000000              -89.44077617              -67.52374159              246.26036426               12.22139840              242.81792333               17.16304392
             194.97486407               53.75251447              163.88998959                1.00000000              -81.88561450              -41.25097797              178.70205454               19.24588476              334.62186748               13.36307987
             195.18240547               49.59755440              148.74220045                1.00000000              -76.17035003              -14.69401480              113.48666754               25.36042940              410.06377864                7.99285144
             195.45145707               45.45974033              133.98334499                1.00000000              -65.83393608               12.53674042               43.03201773               29.76140874              468.06080564                0.87841056
             195.86572675               41.28471597              119.37756683                1.00000000              -43.48192171               40.83575999              -41.78524526               31.51335824              501.43020024               -8.12787686
             196.58181864               37.01491198              104.59030056                1.00000000               -4.79378540               69.90380020             -147.70940516               29.15890934              491.59234136              -17.52970954
             197.76985104               32.60198261               89.11957758                1.00000000               45.72714067               97.60740175             -267.60989848               21.72323321              409.21719745              -23.00006899
             199.49636145               28.02674206               72.29397189                1.00000000               91.95292888              120.00517802             -373.56180896               10.03241786              236.65351351              -16.12368783
             201.60890962               23.31855073               53.47000452                1.00000000              111.25481654              132.76479472             -427.69800517                2.21530935              111.20873035               20.47139130
             199.18636358               66.47961140              209.79399571                1.00000000             -112.20556314             -114.37196221              403.87815336                5.99673898               55.59089997               36.21446812
             199.06430794               62.33368674              192.23022438                1.00000000             -102.69087571              -92.01677729              318.97790087               12.71702609              123.34124899               38.28030053
             199.13254606               58.29160552              175.63816935                0.00010000              -87.58436609              -66.84975002              243.61357378               24.76327013              228.65669001               33.82460837
             199.31262062               54.33781610              159.80324590                0.00010000              -78.27830453              -41.17969204              175.41730049               36.27471123              315.90284676               25.76091583
             199.56697997               50.44578657              144.53223053                0.00010000              -70.29613530              -15.31891100              109.46043481               46.67650067              386.86605999               14.85074949
             199.90669792               46.57704046              129.62644148                0.00010000              -57.81441495               11.05409150               38.67738319               54.99572949              439.41659100                0.45751777
             200.41069167               42.68297988              114.84901266                0.00010000              -34.60410313               38.40743493              -45.53930541               59.23566275              466.82510358              -17.89427020
             201.21461585               38.70330718               99.87470752                0.00010000                2.63026351               66.57603689             -148.62786322               56.24277212              451.76428988              -38.50142942
             202.46329694               34.57022215               84.23771468                0.00010000               49.47646860               93.86325241             -263.70841154               43.15989487              370.78446777              -53.79834501
             204.20414523               30.22322114               67.35060701                0.00010000               91.84204363              117.02721035             -366.68399837               21.53844762              212.17053551              -49.03016803
             206.30013781               25.65927734               48.70398401                0.36061543              109.59925888              132.38682142             -425.60001392                7.61832799               96.86525190               -6.62589327
             203.29988227               66.36106817              205.94700065                1.00000000             -109.38562717             -109.69362196              392.56221017                8.92937027               52.49546547               60.31230723
             203.20602599               62.42738947              188.36995457                0.97344197              -99.43142320              -88.67185050              309.86193675               19.45376818              116.62129845               57.13920022
             203.31125380               58.63016298              171.71363997                0.00010000              -82.99243735              -64.83593587              235.37502548               35.46482884              216.23444676               48.16953453
             203.54617725               54.92892063              155.77739745                0.00010000              -71.72713383              -40.27864150              167.36937397               49.61733821              298.15407848               35.37830473
             203.87671113               51.29117618              140.37445022                0.00010000              -61.59994476              -15.66065032              101.73625536               62.50908330              362.93049358               19.02768977
             204.31417835               47.68082216              125.30362352                0.00010000              -47.62689186                9.10942369               32.33615278               73.36936448              407.66083156               -1.94830819
             204.92417329               44.05286467              110.32635686                0.00010000              -24.73732693               34.23767343              -47.54038975               79.59891993              425.67119186              -28.23810734
             205.81943181               40.34643272               95.13418932                0.00010000                9.44808432               59.67417156             -141.70651581               76.77379654              404.20733427              -57.96288224
             207.11313497               36.47924766               79.31609388                0.00010000               50.93217024               84.63311439             -245.26865857               60.56654871              326.38152105              -82.39750623
             208.83807522               32.36728626               62.38585644                0.00010000               88.80144012              107.44580321             -339.77359728               31.63082833              184.80711598              -83.64577371
             210.88916378               27.96628715               43.91942140                0.36019049              105.10885584              125.56116922             -402.14221876               11.54098410               84.92333083              -45.90930897
             207.23230838               66.28573896              202.18112297                1.00000000             -104.80198826             -105.96596854              377.49895203               10.82496263               49.84647861               80.42247304
             207.18428850               62.56024973              184.56988171                0.93300722              -94.59984549              -84.76411936              297.09357860               23.90523578              110.50979719               72.35440778
             207.34031147               58.99488680              167.83756004                0.00010000              -77.01671586              -62.03005763              223.93010515               42.44956581              204.83608680               58.93373513
             207.64395418               55.53224327              151.79398191                0.00010000              -63.75256789              -38.97643287              156.82670433               57.80052345              281.29260630               41.96319766
             208.06526012               52.13257357              136.25351213                0.00010000              -51.57787344              -16.19112365               92.48176248               71.40375291              339.22408231               21.38128609
             208.61239671               48.75922893              121.01055663                0.00010000              -36.41003030                6.19085163               25.98221523               82.61973989              375.13061751               -3.71574241
             209.33705951               45.36773335              105.82380043                0.00010000              -14.43439597               28.18052566              -47.63525564               88.78099823              383.05550965              -33.82478109
             210.32370879               41.89679061               90.40163964                0.00010000               15.83574302               49.85231796             -130.65915847               85.29770631              354.34920510              -66.64762987
             211.65377437               38.26288444               74.39201133                0.00010000               51.30067521               71.51063682             -219.70648077               67.63696889              279.51783260              -93.89042742
             213.34972230               34.37213720               57.40321911                0.00010000               83.95906719               93.31107346             -304.37041349               36.27226679              156.17089598              -99.69063499
             215.33295571               30.17050073               39.10074463                0.36105134               98.32334139              114.74842745             -370.01278507               14.15070278               71.85903478              -66.79916807
             210.96735997               66.24174880              198.46356043                1.00000000              -99.23771073             -103.33458905              360.93260211               11.39199006               47.75972613               95.09325138
             210.97498286               62.73210708              180.79830892                0.91646033              -88.95541963              -81.10075640              282.76721122               25.44400967              105.36641544               82.35159322
             211.18825158               59.38956182              163.98137962                0.00010000              -70.52409546              -59.10405434              211.16631694               44.66909633              195.25552775               65.38412407
             211.56450095               56.14939198              147.83049366                0.00010000              -55.52255281              -37.59366141              145.40347724               59.80364394              266.81602508               45.70246884
             212.07780052               52.96735371              132.15860438                0.00010000              -41.65437951              -16.80148193               82.93253360               72.48711108              318.43722392               23.12084284
             212.73141336               49.80463919              116.75510519                0.00010000              -25.77844706                3.13331026               19.90502066               82.15945015              346.42785211               -3.05249127
             213.56223158               46.61647518              101.37785186                0.00010000               -5.05892557               22.22689519              -47.44919783               86.35641803              345.95675877              -32.72634103
             214.63023485               43.34347908               85.75037414                0.00010000               21.41480877               40.82235995             -120.89342121               81.31465005              311.69805338              -63.39181752
             215.99052776               39.90946040               69.56746150                0.00010000               51.28347093               59.94366347             -198.52948220               63.78156813              239.73346697              -88.12922723
             217.65590427               36.23350773               52.51999522                0.00010000               79.24615175               81.33994643             -274.93458882               34.21921696              131.39602150              -95.02827336
             219.57545079               32.26125570               34.34814190                0.36093139               91.95465202              106.09251948             -343.94397533               13.74697383               60.35412819              -71.77964771
             214.47943162               66.21904718              194.74531540                1.00000000              -93.40759508             -101.41861619              344.40403629               10.61667053               46.63598505              103.28713133
             214.54535567               62.93823460              177.00773479                0.90150943              -83.15115573              -77.90461877              268.34714785               24.03835375              102.04506931               86.02441060
             214.81640850               59.81280572              160.10509026                0.00010000              -64.15602447              -56.40303694              198.37072931               42.04215057              189.06032614               66.74903342
             215.26223518               56.78037004              143.85903479                0.00010000              -47.83266895              -36.21489689              134.11050278               55.73082604              257.06773571               46.26709809
             215.85975513               53.79654393              128.07810393                0.00010000              -32.78854696              -17.10950741               73.62111607               66.45101039              303.78389644               24.08498323
             216.60646424               50.82189514              112.54603193                0.00010000              -16.72035717                0.95600746               13.83403691               73.63542307              325.74161953               -0.36865182
             217.52534798               47.81227126               97.02034944                0.00010000                2.52761716               18.13868150              -48.34859153               75.26382199              319.34778720              -26.73138202
             218.65701658               44.71323781               81.23760495                0.00010000               25.70145467               35.05423744             -114.77676790               68.72058752              281.78523640              -52.67695320
             220.03937708               41.46175771               64.92598721                0.00010000               51.26473748               53.12115062             -185.08763386               52.41674130              212.45001562              -73.11859740
             221.68231133               37.99893613               47.82973007                0.00010000               75.65110857               74.60131085             -256.85687790               27.80396391              114.80339592              -80.61802466
             223.55239925               34.29235111               29.74377514                0.36134312               87.00879141              101.86081745             -327.12797344               11.64956541               52.65447762              -68.31186969
             217.74131853               66.21337647              190.96072058                1.00000000              -87.93271299              -99.56147662              328.94385383                8.62203636               47.04625772              103.39349713
             217.86199140               63.17401471              173.13471737                0.87113720              -77.71796893              -75.08526158              254.82454639               19.99306740              101.66718749               81.91205946
             218.18695915               60.26150109              156.15594519                0.00010000              -58.33060666              -54.04508203              186.38310106               35.17049363              188.16487530               61.90817898
             218.69537926               57.42509404              139.84234968                0.00010000              -41.08317573              -34.85670006              123.53250841               46.59463246              254.51041708               42.77441490
             219.36529563               54.62516356              123.99260831                0.00010000              -25.34923838              -16.88025488               64.78625635               54.95325977              298.09056838               23.23108682
             220.18839450               51.82375934              108.38203766                0.00010000               -9.45651400                0.11682745                7.57321893               59.61819804              315.95168074                2.57208937
             221.17616535               48.97924882               92.76641241                0.00010000                8.33828266               16.44089633              -50.87710378               59.12909828              305.68732661              -18.81070848
             222.35516015               46.04456382               76.89059139                0.00010000               28.84994508               32.83951446             -112.63861185               51.98298964              266.16818371              -39.12599085
             223.75316425               42.97188341               60.50282102                0.00010000               51.31149979               50.76076284             -178.44357870               37.94909447              198.48309264              -55.21996655
             225.38139014               39.72553395               43.37520375                0.00010000               73.42239399               72.36615654             -247.53332980               19.28191394              106.61104002              -63.49700302
             227.22161213               36.29847205               25.32525330                0.36125576               84.02219900              100.14779962             -318.30418955                8.20002523               49.17361313              -61.78407574
             220.73059588               66.22781764              187.02000734                1.00000000              -83.35034787              -97.10235093              315.37340550                5.65557899               49.82342131               92.38584980
             220.89709241               63.43652937              169.09487208                0.85698832              -73.09284200              -72.55224720              242.98103597               13.84708645              105.69474920               67.51097385
             221.26873904               60.73190408              152.06576142                0.00010000              -53.33135255              -52.09299428              175.82562132               25.02904179              194.85492089               49.45168875
             221.83046535               58.08323604              135.73229928                0.00010000              -35.42920110              -33.55336798              114.06563417               33.69150645              261.64610574               34.20718437
             222.56015502               55.45893883              119.87261833                0.00010000              -19.28612050              -16.16357188               56.59640601               39.66678550              303.71157988               19.35837906
             223.44474294               52.82423169              104.24973133                0.00010000               -3.65147812                0.42342052                1.16842132               42.31209925              318.99394471                4.10798965
             224.48712546               50.14108918               88.61513124                0.00010000               12.96494180               16.62819742              -54.87259184               40.68853255              306.09727265              -11.24774685
             225.70404178               47.37002810               72.71649976                0.00010000               31.51316900               33.17779719             -113.81297099               34.12411673              264.88820215              -25.49526363
             227.11738884               44.47697297               56.30960440                0.00010000               51.86595942               51.23473472             -176.96847355               23.21458525              196.98889704              -36.98997783
             228.74136097               41.44625926               39.17230131                0.00010000               72.65673522               72.47194914             -244.33674683               10.72770752              105.99737478              -45.01785619
             230.57052354               38.29530711               21.12033823                0.36147253               82.91625755               99.04028348             -314.92635303                4.59311526               49.41052179              -51.51048212
             223.43700665               66.27132946              182.79302934                1.00000000              -80.21599577              -94.03427163              304.72945508                2.35237199               56.26789483               61.80177639
             223.63484669               63.72296976              164.77003831                0.68796665              -69.80866688              -70.39908563              233.77678687                6.65631594              116.61623921               39.49506982
             224.04083331               61.21964120              147.75086912                0.00010000              -49.63360273              -50.44222952              167.32836328               12.81405798              212.48996330               28.39957306
             224.64217464               58.75402668              131.47215814                0.00010000              -31.15988077              -32.22783496              106.09565254               17.94060481              281.22415125               19.77268642
             225.41763570               56.30189212              115.68074481                0.00010000              -14.48442553              -15.17624250               49.32730895               21.30876289              322.85797752               11.54412379
             226.35248613               53.83222775              100.12691100                0.00010000                1.32519501                1.18375912               -5.08110189               22.49349057              336.53045189                3.16783461
             227.44413960               51.31181276               84.55594788                0.00010000               17.46362863               17.42996598              -59.79413530               21.03853601              321.48312721               -5.15191856
             228.70175870               48.70811977               68.71352052                0.00010000               34.85425974               34.29635631             -117.27692552               16.69902011              278.11315086              -12.72962005
             230.14122479               45.99657810               52.35469224                0.00010000               53.79257279               52.64143991             -179.13326168               10.16028547              207.91710934              -18.83406325
             231.77761016               43.17497293               35.24688444                0.00010000               73.70769802               73.38331882             -245.61285406                3.81321138              112.83163109              -23.82926034
             233.61537875               40.27927772               17.16997867                0.36149862               83.77685969               97.83137463             -315.82203381                1.87563807               53.29273152              -33.24986015
             225.87436271               66.34713221              178.02134525                1.00000000              -79.24557323              -92.41972454              299.37933093               11.87715111               76.94330631               45.08655846
             226.08190698               64.02854766              160.00871102                0.78487804              -69.01997130              -69.44221029              228.60920415               13.50239260              142.83196663               25.30549137
             226.49396329               61.72305949              143.12453627                0.36012308              -48.74402257              -49.65817138              161.60779286               15.81958168              245.74673961               18.16437114
             227.10702653               59.43867934              127.00162459                0.36063475              -29.29170376              -31.53473356              100.12790059               18.10291389              316.02901352               12.43696241
             227.90812921               57.15541398              111.37560666                0.36106184              -11.11672076              -14.64781408               43.48900451               19.51072785              358.04160908                6.96565841
             228.88469211               54.84790687               95.98822675                0.36066371                6.19374739                1.56791235              -10.51580431               19.93432486              370.78107983                1.41593462
             230.03200416               52.48968850               80.57709412                0.36056019               23.42823638               17.78757403              -64.74051722               19.18887378              353.43408497               -4.06928454
             231.35325684               50.05595522               64.88084644                0.36015459               41.08686131               34.78354535             -121.85428231               17.15547730              306.59997200               -9.10204298
             232.85374139               47.52980177               48.64875974                0.35981799               59.08343686               53.32236612             -183.61415629               14.15018029              232.26363304              -13.35179694
             234.53492558               44.91392564               31.64325722                0.36074885               77.28426699               73.89527079             -250.28273508               11.83818405              130.34435715              -17.15349134
             236.39942673               42.25193460               13.58629433                0.68084181               86.45011464               97.26568774             -320.52580837               12.20569329               65.85620910              -27.53266404
             209.08814864               70.65963680              222.35902544                1.00000000              -88.90075159             -100.62357680              334.19818191               -9.99791711               75.53917360              -13.23766016
             209.19914112               66.12932453              204.00506551                1.00000000              -79.47134396              -78.36912981              260.15940363               -9.72046797              155.20818791               -3.03213133
             209.49872176               61.67593914              186.85222097                0.97853287              -64.32303826              -56.32556295              193.34678007               -6.14910329              279.42502551               -1.05526144
             209.91268036               57.30837899              170.58246770                0.78183386              -55.91835079              -34.16890554              134.10260081               -2.57992616              377.23316855               -0.30168918
             210.38035474               53.00533805              154.94299120                0.76745868              -50.87912283              -12.09163373               78.55950249                0.09055429              450.17057074                0.01633906
             210.89509790               48.71962140              139.65926779                0.74888930              -42.76401064               10.13638751               19.79065395                1.41064109              493.96767153                0.00303626
             211.52507453               44.39702314              124.41766384                0.73095661              -25.04898503               32.60322866              -49.86282025                1.22367226              502.58574547               -0.69027561
             212.39411820               39.99678277              108.85878737                0.72529508                4.78928172               54.68353162             -133.09788151               -0.04957767              467.87033158               -1.33379465
             213.62086017               35.50639932               92.56214494                0.77234518               42.05386608               74.90239037             -221.03372224               -2.07822910              377.72190199                0.36399581
             215.23519552               30.94969735               75.04265778                0.85301207               75.71683875               90.83465637             -295.31809238               -3.81379547              220.32219840                7.09969015
             217.13519694               26.37786941               55.75917442                0.98822122               90.00014186              101.24498685             -336.51690511               -5.90902360              110.97062025               28.85206200
             213.51848173               70.65340103              218.47329670                1.00000000              -92.46964616              -99.59044323              340.54298512                2.59750293               63.55781115                2.45522719
             213.59378527               66.34563323              200.10126438                1.00000000              -83.53891171              -78.56937104              266.66086631                4.37623159              139.52867900               10.44077287
             213.84770350               62.11268351              182.85423748                1.00000000              -68.58018138              -56.66255921              199.18772369               10.34518757              258.48827688               10.11319871
             214.22218164               57.96668994              166.47056075                1.00000000              -58.60322082              -34.70440309              138.70404469               16.50073242              353.39941623                7.13313091
             214.67563908               53.88442171              150.70042780                1.00000000              -50.44099371              -12.93242616               81.66183600               21.26755257              423.61735036                2.87369102
             215.21336177               49.82098528              135.27351071                1.00000000              -38.84542557                8.96537974               21.35605037               23.76048751              464.99479041               -2.67401406
             215.89873057               45.72305542              119.88026519                1.00000000              -18.72137179               31.16489951              -49.11840485               23.38943189              471.49586234               -9.56467847
             216.83893433               41.54361809              104.16252753                1.00000000               11.24450084               53.19702134             -131.30620947               19.81764659              433.87205527              -16.30038266
             218.12362059               37.25542322               87.70416640                1.00000000               46.11940953               73.55590311             -216.67834380               13.19527602              341.75157608              -19.17062601
             219.76132252               32.85804391               70.03901554                1.00000000               76.21570285               90.05449551             -288.03168891                5.30483844              190.64903463              -12.28431840
             221.64793464               28.39031928               50.75219960                0.97115804               88.66121202              101.10831299             -330.13911404                0.41890840               88.54726245               14.91655574
             217.75563429               70.66782793              214.51006377                1.00000000              -92.82510153              -97.04282295              339.22053687                4.89709382               58.82549327               18.28194104
             217.82738327               66.55793711              196.15939379                1.00000000              -83.55327378              -78.10778728              266.19555400               10.35876371              130.16505374               23.87217703
             218.08456881               62.54268796              178.85267939                0.00010000              -67.82132318              -56.86796446              198.77357048               20.85270261              242.20693414               21.47580137
             218.47095681               58.61429093              162.36752929                0.00010000              -56.65791783              -35.48694878              138.15345226               30.66821039              332.66129465               14.94594869
             218.95141045               54.74668953              146.47126767                0.00010000              -46.96414334              -14.38625938               81.11381226               38.51706789              398.86993342                5.97383083
             219.53167394               50.89892900              130.89909047                0.00010000              -34.05900468                6.74312863               21.26619005               43.00898215              436.29444499               -5.25762134
             220.27023036               47.02032113              115.34756520                0.00010000              -13.67853035               28.28277015              -47.96421192               42.93504141              438.84735633              -18.16262962
             221.25810333               43.06072320               99.47199379                0.00010000               15.00547513               49.90678219             -128.06333685               37.12682143              399.68874575              -30.58739570
             222.57033986               38.97751738               82.88378244                0.00010000               47.41464524               70.37255663             -210.79419060               25.72241964              310.91732298              -36.82074043
             224.20639624               34.75078726               65.17533525                0.00010000               75.43422572               87.87017388             -281.31710320               11.42966764              171.90953262              -28.00485448
             226.07902438               30.40003567               46.01510516                0.35903406               87.26281389              100.70148427             -327.97055802                3.14320807               78.86852827                4.14480585
             221.83620525               70.71254457              210.57392930                1.00000000              -91.01047307              -94.22768016              332.25889390                7.40312153               55.09417275               38.59128290
             221.92610052               66.78347749              192.22718120                1.00000000              -81.39007581              -76.23447896              260.47307403               15.99527285              122.50468603               39.25596618
             222.20840373               62.97532422              174.86415398                0.00010000              -64.72781179              -55.99893212              193.70297604               29.57893151              228.44053546               32.92666488
             222.63154428               59.25695096              158.28182243                0.00010000              -52.35306809              -35.49490095              133.53888720               41.16610315              313.84348833               22.32271761
             223.16134237               55.59669653              142.26022086                0.00010000              -41.58172361              -15.30650881               77.24000741               50.46863308              375.24474029                8.60234745
             223.79990981               51.95584785              126.54168820                0.00010000              -28.28525866                4.73733054               19.15880792               56.37506886              407.71883373               -7.60547768
             224.59563720               48.28871083              110.83086654                0.00010000               -8.78176517               25.01326111              -46.52017237               56.97014777              406.06187280              -25.47994282
             225.62427451               44.54175373               94.80130959                0.00010000               17.61838609               45.45190417             -121.42823952               50.35875402              365.47064197              -42.18647151
             226.94800492               40.66287436               78.10258887                0.00010000               47.15615416               65.32218379             -199.10113838               36.12434136              281.35669459              -52.12249929
             228.56739759               36.61544739               60.38348208                0.00010000               73.21485319               83.46253015             -267.95622486               17.37615369              154.70138206              -46.35021722
             230.41230198               32.40434896               41.36094251                0.35897211               84.49043933               98.45915470             -318.62620263                5.95388500               70.54463734              -16.53368659
             225.76183088               70.78327433              206.68251964                1.00000000              -87.73218047              -91.98180594              321.86988367                9.02549647               52.05370580               57.67649015
             225.88450907               67.03324753              188.32003643                0.96822933              -77.95784543              -73.66262923              251.47714688               19.69016629              115.85099232               53.45077008
             226.20267397               63.42270932              170.89299714                0.00010000              -60.58012522              -54.17776518              185.74681257               35.10906566              216.32903360               43.02859451
             226.67290657               59.90439291              154.21296207                0.00010000              -47.03938722              -34.69874111              126.42410548               47.27983761              296.75782837               28.72821059
             227.26188622               56.44055935              138.06819650                0.00010000              -35.28727769              -15.70886845               71.32324205               56.83123363              353.21476115               11.43008989
             227.96716101               52.99367561              122.20720633                0.00010000              -21.90793950                2.86436635               15.82268821               63.00185117              380.71265249               -8.20469408
             228.82372743               49.52058635              106.34368683                0.00010000               -3.80230654               21.28159901              -44.90683262               63.80233964              375.02388162              -28.86983488
             229.89111488               45.96976128               90.16913770                0.00010000               19.77027984               39.79467331             -112.55465842               56.89172622              333.01023077              -48.06615770
             231.21913303               42.28396106               73.36805729                0.00010000               46.06649107               58.37324799             -183.41387910               41.55690504              253.10644546              -60.78936258
             232.81244471               38.42003786               55.63941567                0.00010000               70.05829488               76.74333306             -249.52021289               20.67141059              137.83602081              -59.03992016
             234.62029893               34.36921876               36.74374603                0.35954654               80.78542238               94.07413059             -303.80914112                7.59046292               62.72287631              -34.58016121
             229.51676877               70.87290845              202.82302118                1.00000000              -83.62999142              -90.35531855              309.84274366                9.53719576               49.73716007               73.22241987
             229.68046886               67.31022490              184.42495204                0.93588425              -73.86645513              -70.99053545              240.89097190               20.97908168              110.43670606               64.20476404
             230.03943967               63.89176892              166.92766249                0.00010000              -56.05889282              -51.91394163              176.41385441               36.79050900              206.47225979               50.39283179
             230.55929100               60.56297614              150.15365906                0.00010000              -41.53776614              -33.45395235              118.28567949               48.56895546              282.66789682               33.65523996
             231.20868435               57.28251916              133.89608192                0.00010000              -28.96855831              -15.76454036               64.75467070               57.35984331              334.68759816               14.61633815
             231.97991983               54.01313518              117.90790666                0.00010000              -15.65430139                1.21843537               12.07033018               62.70244368              357.88042945               -6.18855933
             232.89559832               50.71434281              101.91023858                0.00010000                0.94072444               17.77371747              -43.62455106               62.87693787              348.74102886              -27.48865303
             233.99873432               47.33764720               85.60968516                0.00010000               21.66340617               34.36198697             -104.36447163               55.79148726              305.54999324              -46.94809124
             235.32886644               43.83033932               68.71772364                0.00010000               44.84168873               51.65621078             -168.69599220               40.86207292              228.89606311              -60.72717167
             236.89556810               40.15031405               50.97394674                0.00010000               66.84414984               70.17552760             -232.34690814               20.61213392              123.20483447              -62.58642867
             238.66574944               36.28583157               32.17826801                0.35974481               77.01813402               89.94473020             -289.93459710                8.00597437               55.90537575              -45.56154324
             233.07794189               70.97616796              198.96051962                1.00000000              -79.27116488              -89.03132575              297.42458754                8.96590875               48.46495723               83.44915634
             233.28523024               67.61343682              180.50802638                0.90657692              -69.61044853              -68.43954514              229.93890677               19.89304497              106.96695693               69.76584240
             233.68573292               64.38443048              162.94017675                0.00010000              -51.58473975              -49.59160708              166.81075166               34.60657734              200.19208382               53.62080494
             234.25353544               61.23531386              146.08584405                0.00010000              -36.34044320              -32.04227407              110.03911271               45.14885192              273.46594156               36.06745165
             234.95892405               58.12526854              129.73863183                0.00010000              -23.20746026              -15.54113460               58.25348956               52.51573786              322.13785222               17.22733319
             235.78938624               55.01804432              113.65238141                0.00010000              -10.10849395                0.11233767                8.24445494               56.40060870              341.94867489               -2.64495357
             236.75675417               51.87606070               97.55309641                0.00010000                5.07809417               15.25517882              -43.33463836               55.53653671              330.16696012              -22.55501319
             237.89094812               48.65700102               81.15743625                0.00010000               23.34767323               30.56089702              -98.75296380               48.49051598              286.08813719              -40.60339630
             239.22370764               45.31708527               64.19530662                0.00010000               43.91235027               47.04354335             -158.34950636               35.11697273              211.79890218              -53.93416348
             240.76919513               41.82354841               46.43414056                0.00010000               64.28378655               65.80855325             -220.21941275               17.63796525              112.85556469              -58.47192649
             242.50938337               38.16811337               27.70164331                0.35985292               74.01882422               87.54017146             -280.50175613                7.09523033               51.20392931              -50.16627418
             236.42154921               71.09228194              195.03906300                1.00000000              -75.14819836              -87.50852451              285.47763918                7.41761377               48.75428215               86.31469412
             236.67006723               67.94143400              176.51531046                0.85615917              -65.59275192              -65.99956866              219.48118509               16.67394527              106.46305382               68.27469328
             237.10969418               64.89993678              158.88594644                0.00010000              -47.43186258              -47.42915297              157.68669392               29.00191467              199.18095676               51.22908888
             237.72142998               61.92213066              141.97802224                0.00010000              -31.67127627              -30.62881659              102.21362916               37.69000841              271.24177355               34.70582337
             238.47626865               58.97169646              125.57909041                0.00010000              -18.21450635              -15.02110441               52.00693914               43.37393707              317.87580818               17.90750288
             239.35713985               56.01538193              109.43874800                0.00010000               -5.44481517               -0.24904280                4.22086409               45.75956733              335.30252739                0.68687052
             240.36737235               53.01944638               93.28354714                0.00010000                8.51901080               14.12731201              -44.32535110               44.01181290              321.52407805              -16.26244956
             241.52752007               49.94886514               76.83559499                0.00010000               24.86430783               28.84494596              -96.22108199               37.40224032              276.62401759              -31.52379201
             242.86465850               46.77121018               59.83427175                0.00010000               43.48896209               44.99874720             -152.83378543               26.31395385              203.46962140              -43.22296736
             244.39729931               43.46648511               42.06036083                0.00010000               62.69328164               63.83847182             -213.55144048               12.86745071              107.98054633              -49.49681523
             246.11852414               40.03663500               23.35350457                0.35988176               72.12248263               86.53038644             -275.33131896                5.33188717               49.22310341              -49.40997892
             239.52799003               71.22599747              190.97710319                1.00000000              -71.69357305              -85.30389161              274.73989940                5.04911909               51.38051590               78.77664808
             239.81105430               68.29344545              172.37036472                0.82204094              -62.14577381              -63.70579711              210.25165216               11.68307881              110.30153767               57.24365844
             240.28507455               65.43584742              154.70319586                0.00010000              -43.77391874              -45.61657000              149.64060993               20.68608895              205.56803074               41.74343035
             240.93557593               62.62273753              137.78619298                0.00010000              -27.59615177              -29.35955999               95.18005739               27.16853194              278.32659062               28.50290337
             241.73315152               59.82484646              121.38986451                0.00010000              -13.93741306              -14.28236753               46.14897453               31.16240670              324.15460940               15.54265172
             242.65682766               57.01306346              105.25423933                0.00010000               -1.48221474                0.04665028               -0.06200229               32.37417979              340.02022932                2.46734314
             243.70350722               54.15860694               89.10229770                0.00010000               11.52007319               14.16484139              -46.60215594               30.32401188              324.60058271              -10.23490151
             244.88722913               51.23389994               72.65653556                0.00010000               26.44297563               28.80497437              -96.33566075               24.77064154              278.50554802              -21.54302883
             246.23236674               48.21706022               55.65807464                0.00010000               43.69450961               44.88784472             -151.16271272               16.41442426              204.77622416              -30.40453177
             247.76111932               45.10031785               37.88647337                0.00010000               62.16772989               63.45856586             -211.06195610                7.38706067              108.94390054              -36.86202827
             249.47572133               41.89872109               19.17431074                0.35988013               71.46020145               85.71873296             -273.39034115                3.12641510               50.18303903              -43.46855991
             242.38763563               71.38620410              186.65571223                1.00000000              -69.37567800              -82.59547617              266.29794295                2.32192001               57.45696002               53.34654937
             242.69387885               68.66731806              167.96558483                0.64971230              -59.67558783              -61.86967519              203.29254511                5.65213696              120.70202487               33.79541976
             243.19412387               65.98760538              150.31507219                0.00010000              -40.90386317              -44.25205232              143.31668882               10.56506505              222.44180959               24.30194700
             243.87580159               63.33493946              133.45775714                0.00010000              -24.24665089              -28.29873009               89.29886597               14.37981679              297.44191129               16.78121100
             244.70919086               60.68604911              117.13649655                0.00010000              -10.24693118              -13.54159411               40.91444848               16.61182091              343.42320850                9.46979512
             245.67086296               58.01631494              101.07982695                0.00010000                2.19126242                0.53663574               -4.34686796               17.08065447              358.29807958                2.08054636
             246.75301610               55.30274321               85.00406230                0.00010000               14.68083286               14.58474057              -49.71512769               15.58969119              341.16186182               -5.05541500
             247.96447962               52.52496462               68.62763743                0.00010000               28.67564875               29.34650574              -98.27653695               12.09437972              292.99126583              -11.30128987
             249.32652908               49.66896708               51.68803685                0.00010000               44.94500127               45.55056044             -152.21807337                7.19411513              216.68646541              -16.12177731
             250.86337965               46.73565643               33.95216328                0.00010000               62.88584329               63.77351145             -211.66690711                2.64041218              116.29578055              -20.14072783
             252.58424595               43.75100966               15.21662364                0.35995109               72.08662995               84.74080726             -273.88785365                1.32743985               54.30082551              -28.95485628
             245.01220052               71.57408794              181.84398560                1.00000000              -68.95047555              -81.21161591              263.26591290               10.65288912               76.08889087               40.34643218
             245.32269576               69.05605195              163.16533022                0.76611485              -59.17230309              -61.12661124              200.28741291               11.71761300              144.82176155               22.93683855
             245.82875446               66.55080638              145.64234967                0.35995680              -39.89836189              -43.67990010              139.36715645               13.49860751              253.89133365               16.73160566
             246.52472853               64.05676293              128.93720296                0.36097482              -22.23710003              -27.81765270               84.92036600               15.05310363              331.41864202               11.48179389
             247.38401246               61.55401457              112.78217797                0.36055257               -7.14909354              -13.20345407               36.63893808               15.83382232              378.59431937                6.23452578
             248.38174666               59.02379617               96.89596754                0.36042649                6.13194510                0.74812380               -8.15536627               15.90272806              392.96968595                0.87095728
             249.50665136               56.45030175               80.98503573                0.36004898               19.05731006               14.75585390              -52.94602985               15.21521945              373.52483583               -4.33976990
             250.76289286               53.82083005               64.75844749                0.35955914               32.94529363               29.58654295             -101.09130834               13.72980735              321.49045314               -8.96582659
             252.16555723               51.12807143               47.94603207                0.35935896               48.44960611               45.91043489             -155.00641111               11.65071638              240.44478963              -12.67737457
             253.73188498               48.37578808               30.30933433                0.35889495               65.30032194               64.01316455             -214.91512414               10.12382394              132.93991817              -15.86815236
             255.47156367               45.59353724               11.59245950                0.67989571               73.96786920               84.25275778             -277.33821774               10.50668877               66.05258937              -25.32917970
             228.57872829               74.36021396              226.36353028                1.00000000              -69.41868650              -81.36403364              268.76118637               -8.40113159               75.66439919              -15.97518688
             228.88454143               69.95161191              207.33079204                1.00000000              -59.73612103              -62.93997180              204.96604185               -8.28649623              157.28334533               -6.44211817
             229.38400587               65.61694211              189.54801088                1.00000000              -43.62744657              -44.79785693              145.64571067               -4.89169933              287.58928362               -4.45503543
             230.01199250               61.38061579              172.72662240                0.83082144              -34.51986560              -27.05002908               95.72857294               -1.12412441              389.57670687               -2.88939298
             230.69360856               57.22512045              156.58296247                0.77929093              -30.43401956               -9.83686946               52.00646935                1.68263318              459.11745849               -0.78176006
             231.40331210               53.09788054              140.77760950                0.73053822              -25.29085343                6.85568181                7.75139264                1.92714139              489.33001758                1.14321377
             232.18779149               48.92725648              124.92334197                0.68787078              -12.08411340               23.62645608              -43.92339117                0.54329019              476.62913031                2.07779146
             233.16162984               44.67107497              108.63988741                0.65774734               11.17192462               40.46229365             -106.95464294               -1.92439961              422.81665238                0.48857330
             234.41122998               40.34131111               91.60323313                0.67434186               38.39248194               55.56214799             -172.20080462               -3.21749895              331.16838000               -0.14930478
             235.92947947               35.97239587               73.47684104                0.72106694               60.72990604               67.59823583             -222.86704867               -4.13399263              191.94572871                5.17720182
             237.62582810               31.59497232               53.82409739                0.90300030               69.63486287               76.59787839             -253.43961119               -4.97649091               96.20274635               22.85217638
             232.90331903               74.54657362              222.54052996                1.00000000              -73.00066373              -80.77981747              275.13591972                1.83811206               63.94403637               -4.38333775
             233.17331239               70.32221219              203.49127020                1.00000000              -64.13660470              -63.31992232              211.52517710                3.14209438              141.12492639                4.17488151
             233.62058694               66.16896354              185.61077822                1.00000000              -48.83251559              -45.28685272              152.03338321                8.62233414              264.86297329                4.50052669
             234.19666208               62.11011550              168.66407048                1.00000000              -38.43922105              -27.75711994              101.06530054               14.65269783              362.91330691                2.93935800
             234.85180251               58.12675175              152.37543717                1.00000000              -31.25732908              -10.98251565               55.91874232               18.77653811              429.48853685                1.05889889
             235.57151550               54.16643736              136.41046600                0.96980588              -22.25876680                5.29149984               10.90809598               19.48732376              458.52792994               -1.16399878
             236.40662718               50.16352105              120.39519874                0.89784886               -6.80784866               22.09347270              -41.97749683               16.81022690              445.12483640               -5.48501444
             237.43535853               46.07569791              103.96417637                0.84783878               16.08836835               39.08511141             -106.11934469               12.19776179              392.90564882              -12.03716022
             238.72839455               41.89693259               86.78601070                0.83194980               41.29752106               54.70368825             -169.89364663                6.98761387              300.96509937              -15.39977332
             240.26130895               37.64837822               68.53333812                0.77464994               61.25460992               67.31308247             -219.57836675                2.27760977              167.26393438               -9.68818541
             241.95348674               33.36095110               48.86722224                0.82685977               69.21777972               76.92291181             -251.74118753               -0.13568978               78.30798404               10.53805232
             237.06421340               74.74461761              218.57840645                1.00000000              -73.92200009              -79.30678314              276.28476577                3.65672939               58.65467598                5.57616368
             237.32499340               70.68521346              199.55413546                1.00000000              -64.78320808              -63.51730192              212.56790651                7.95850417              131.04597538               12.70143807
             237.76854924               66.71120505              181.61364076                0.00010000              -48.88675835              -46.02925035              152.99626750               17.25481416              247.87493290               11.78687571
             238.34725824               62.82547339              164.56631495                0.00010000              -37.78658911              -29.00866460              102.01187372               26.22915693              342.02890753                7.41326154
             239.01281746               59.00547013              148.15450677                0.00010000              -29.54844751              -13.02287245               57.94254502               32.40873959              406.14920688                1.44448110
             239.75628929               55.20371054              132.05176528                0.00010000              -19.90409884                2.70796919               14.42809010               34.50248261              431.65513740               -5.31938851
             240.61473548               51.36912594              115.88972843                0.00010000               -4.20578807               19.18115689              -37.72148862               31.41144183              415.99438780              -13.93178409
             241.67217352               47.45277720               99.31344079                0.00010000               18.17832301               36.49307330             -101.83177556               24.40113672              362.04915844              -21.63024340
             242.97830194               43.43538488               82.02183087                0.00010000               41.94198193               52.77951197             -166.69615139               14.77910742              275.17937160              -24.89787270
             244.51101316               39.31865752               63.72426495                0.00010000               60.98333064               66.39116362             -216.43225582                5.52429749              152.97121568              -17.42520446
             246.19796856               35.13343055               44.14457285                0.35814966               68.69553931               77.30107237             -251.81659368                1.05974947               71.47630638                6.35295967
             241.09526192               74.96043796              214.59217853                1.00000000              -72.93668827              -77.72203638              272.70011330                5.84959419               54.66561061               22.36276487
             241.36589504               71.05186615              195.57941605                1.00000000              -63.49193163              -62.68595819              209.34322248               12.68890074              123.22068976               25.03443122
             241.82542329               67.24837853              177.58769949                0.00010000              -46.94574500              -45.96274318              150.14804676               24.17466616              234.13594806               20.86172518
             242.42698014               63.52994221              160.44817520                0.00010000              -35.18415641              -29.52512693               99.64406113               33.72844641              323.84557790               12.61984773
             243.12174016               59.86629430              143.91925037                0.00010000              -26.45353953              -14.00779163               56.23172872               40.65740787              384.30422085                2.00560427
             243.89790935               56.22059675              127.68679968                0.00010000              -16.79754006                1.26030256               13.86596398               43.78600114              407.05408059              -10.20663541
             244.78578936               52.54714418              111.39595341                0.00010000               -2.03935127               17.09193375              -35.98795741               42.29164569              390.02988995              -21.02123519
             245.85712232               48.80555937               94.70562453                0.00010000               18.61535103               33.71573427              -96.37825182               34.63740397              337.02993309              -29.08227089
             247.15809638               44.95252283               77.33407111                0.00010000               40.83134509               49.82887692             -158.16801876               21.89827456              253.88026175              -31.76868470
             248.67374922               40.97620150               59.02673194                0.00010000               59.35196409               64.11083084             -208.77396299                8.70952604              139.75359149              -26.52903533
             250.34513566               36.90697255               39.54689734                0.35828278               67.13864371               76.40707249             -248.32111542                2.11630270               64.68061862               -4.88263073
             244.99834891               75.19017688              210.61852064                1.00000000              -70.75180594              -76.61203753              266.23401553                7.28071782               51.62492986               40.06255232
             245.29083085               71.43149430              191.59942465                1.00000000              -61.21912015              -61.18268685              203.41312307               15.74769703              116.79770545               38.03626579
             245.77396651               67.79195019              173.55249629                0.00010000              -44.34597303              -44.90698398              144.93517494               28.35215126              222.45620427               30.14648175
             246.40391139               64.23497085              156.32246402                0.00010000              -31.93277134              -29.01637045               95.16102495               37.79117163              307.53766065               18.50232264
             247.13531108               60.72531430              139.67997697                0.00010000              -22.63759811              -13.85245860               51.87343762               44.47552299              363.82465762                4.36586378
             247.95115943               57.22891659              123.32701040                0.00010000              -12.98526555                0.75480853               10.13943605               48.13031300              384.98972624              -10.94231553
             248.87560577               53.71096461              106.92566378                0.00010000                0.41917633               15.50741809              -35.74872067               47.38297987              368.21851605              -24.23822769
             249.95954295               50.12709188               90.15054647                0.00010000               18.50097708               30.53296649              -89.61802091               39.88125678              316.86877339              -32.66312757
             251.24562531               46.43196242               72.72373375                0.00010000               38.56055069               45.75723996             -145.72613078               25.99366496              235.33292245              -36.92784586
             252.73075397               42.60087413               54.41281485                0.00010000               56.65635987               60.54263841             -197.62664274               10.76584803              126.92079157              -35.47955694
             254.37875251               38.66157200               35.02456181                0.35838129               64.79985400               74.25775058             -241.87129823                3.05879307               57.56927861              -19.21755645
             248.75824145               75.42819721              206.66041530                1.00000000              -67.91657757              -75.90942017              258.25425800                7.76993712               49.40450776               55.65439173
             249.07907567               71.82821241              187.61612836                0.96079175              -58.46258476              -59.41506349              196.10531871               16.81242361              111.72334429               48.99584200
             249.58898975               68.35023885              169.50965671                0.00010000              -41.48181093              -43.25061619              138.52824492               29.49341974              213.20513257               37.91518441
             250.24943946               64.94961480              152.19620725                0.00010000              -28.58424371              -27.88074821               89.64848190               38.40969061              294.47297456               24.11899588
             251.01730488               61.58924513              135.45369780                0.00010000              -18.72870812              -13.36160968               47.20001280               44.33709194              347.43964740                8.47666417
             251.87486529               58.23569292              118.99651179                0.00010000               -9.10156091                0.46190705                6.71956785               47.39305740              366.96064733               -7.73009401
             252.83527366               54.85729255              102.50536084                0.00010000                2.94421801               13.84489084              -35.84011807               46.42761833              351.04381201              -22.18558078
             253.93374965               51.41621870               85.66308470                0.00010000               18.44568835               27.40840802              -82.95348847               39.37006246              300.95311104              -32.73505079
             255.20418743               47.86766763               68.19354166                0.00010000               36.28534719               41.72819609             -134.21860203               26.19305280              220.57911388              -39.73934359
             256.65945660               44.18705427               49.87305706                0.00010000               54.03641760               57.11046916             -187.21776229               11.33959460              116.41418889              -41.68845720
             258.28491578               40.39212756               30.54944996                0.35873634               62.54591840               72.61085306             -237.02492383                3.64332053               52.05139191              -32.28722215
             252.35371725               75.67198848              202.69380715                1.00000000              -64.86795629              -75.25552103              249.66323304                7.40384437               48.21640117               66.83226537
             252.70503768               72.24319303              183.60651292                0.91117044              -55.56423661              -57.55210924              188.35305355               16.01213706              108.52761792               55.72092916
             253.24243252               68.92693786              165.44130529                0.00010000              -38.59693820              -41.35875506              131.77288137               27.65198050              207.45022745               42.39956545
             253.93309892               65.67735589              148.05981704                0.00010000              -25.32288566              -26.53766129               83.95403247               35.43877777              286.33257592               27.80416598
             254.73597480               62.45808211              131.24317372                0.00010000              -15.10628796              -12.85820961               42.77481613               40.27900035              337.09719858               12.31938682
             255.63097316               59.23815473              114.71092102                0.00010000               -5.61712266               -0.00270447                4.22653295               42.24516682              355.28296745               -3.33012206
             256.62363235               55.98786243               98.15365668                0.00010000                5.27979778               12.37529926              -35.27665606               40.58157843              339.29090914              -17.74061419
             257.73656912               52.67526005               81.26254567                0.00010000               18.75092279               24.93849829              -78.29752597               34.09150759              289.82638003              -29.61256123
             258.99865081               49.26652634               63.75899708                0.00010000               34.82584077               38.84942071             -126.65102700               23.07134420              210.57550399              -38.44776263
             260.43308593               45.74308352               45.42534182                0.00010000               52.14107626               54.81052853             -180.15442168               10.47871859              109.81667680              -42.92478298
             262.04147233               42.11378906               26.13374002                0.35846559               60.83863977               72.27387443             -234.11013091                3.81410160               48.90878662              -39.98586870
             255.76390924               75.92308679              198.67027336                1.00000000              -61.95402116              -74.26435536              241.07176744                6.30663813               48.52569013               71.29898386
             256.14436903               72.67717023              179.52434107                0.83406040              -52.80213714              -55.60324260              180.81059598               13.59848805              108.14235699               56.11799547
             256.70786650               69.52306375              161.30967907                0.00010000              -35.86491327              -39.46454658              125.26754958               23.17651172              206.68458276               41.89461406
             257.42707077               66.41886157              143.88662226                0.00010000              -22.28902286              -25.18983379               78.49844218               29.31233921              284.76412174               28.05192260
             258.26208604               63.33208094              127.03274709                0.00010000              -11.85412306              -12.28481935               38.59927197               32.80016525              334.40884834               14.06385380
             259.18998831               60.23563883              110.46645495                0.00010000               -2.61430627               -0.28275655                1.81374828               33.72293847              351.59843349                0.13462106
             260.20979992               57.10479853               93.87990539                0.00010000                7.34637956               11.40067846              -35.33509596               31.62791884              335.08974385              -12.96024374
             261.33691590               53.91498867               76.96616975                0.00010000               19.39954616               23.59325164              -75.90337177               26.08321032              285.54072685              -24.29316357
             262.59779084               50.64465605               59.44614531                0.00010000               34.24261732               37.42954447             -122.57368866               17.63004386              206.73954122              -33.14022903
             264.02176824               47.28326484               41.10417494                0.00010000               51.09979377               53.70663692             -176.17743730                8.19329732              107.42442232              -39.00225108
             265.61978672               43.83760505               21.81862692                0.35849816               59.80184738               72.45138891             -232.37817881                3.28588412               48.03005633              -41.73212841
             258.97168313               76.18670137              194.51480533                1.00000000              -59.46526457              -72.58543807              233.03195657                4.56725088               51.09979692               66.06306115
             259.37703049               73.13112818              175.29990513                0.76989482              -50.37058647              -53.66287818              174.04732758                9.80518777              111.92766509               47.80702731
             259.96427140               70.13764693              157.05857361                0.00010000              -33.33509869              -37.82687085              119.48795976               16.60308649              212.91628698               34.94371025
             260.71032851               67.17355921              139.63590042                0.00010000              -19.45352751              -24.01103289               73.54730776               20.86282620              291.91585911               23.79889627
             261.57520085               64.21238572              122.79559782                0.00010000               -8.88070876              -11.65531867               34.63437693               23.04422023              341.38493818               12.78053650
             262.53271434               61.23249960              106.24849129                0.00010000                0.08200149               -0.17641796               -0.83571918               23.21919729              357.87118684                1.78666859
             263.57684088               58.21587600               89.68308812                0.00010000                9.28307342               11.15839516              -36.41546764               21.21959515              340.46830162               -8.61547044
             264.71837581               55.14712508               72.78978655                0.00010000               20.30673157               23.25966884              -75.45841091               16.99673967              290.01314878              -17.64187086
             265.98297552               52.01511723               55.28635015                0.00010000               34.28135346               37.07645370             -121.09357848               11.13642955              210.26807617              -24.72490260
             267.40400288               48.81721625               36.95106219                0.00010000               50.77670362               53.30162901             -174.52914582                5.04351736              109.64545008              -30.41892405
             268.99850959               45.56281684               17.65253141                0.35881185               59.45067110               72.22133948             -231.59771008                2.19444945               49.56797990              -37.62435249
             261.96640066               76.47137803              190.11898819                1.00000000              -57.68734289              -70.45936314              226.37222540                2.34187222               56.87876035               44.81106524
             262.38952723               73.60391267              170.83588921                0.59295044              -48.44517332              -52.16672602              168.97148889                4.90479798              121.83254263               28.47122545
             262.99749719               70.76652633              152.61720289                0.00010000              -30.99693632              -36.72551433              114.93014856                8.51870304              228.97596447               20.75513538
             263.76958850               67.93864092              135.25813546                0.00010000              -16.67335655              -23.20678174               69.31818724               10.88453933              310.54723238               14.40264645
             264.66403006               65.09897457              118.49903378                0.00010000               -5.93532654              -11.18220311               30.98776100               11.97598583              360.79940333                8.02124462
             265.65088197               62.23211047              102.03997364                0.00010000                2.77681427                0.02726125               -3.60374579               11.87527996              376.88382232                1.55110766
             266.71956635               59.32796643               85.56164533                0.00010000               11.33637452               11.25351171              -38.15339180               10.56258106              358.09998978               -4.59534807
             267.87760946               56.38018205               68.74798978                0.00010000               21.54309552               23.39467501              -76.27498669                8.09562208              305.52987254               -9.83895304
             269.15042826               53.38618512               51.31033077                0.00010000               34.86647570               37.25732995             -121.35926009                4.89450952              222.88515994              -13.77911590
             270.57493898               50.34929742               33.01354630                0.00010000               51.10231371               53.25021143             -174.62825495                1.95701798              117.37106540              -17.09878837
             272.17247453               47.28203184               13.69222160                0.35891254               59.75355544               71.54312245             -231.51567699                1.05937161               53.87139204              -25.14907408
             264.75345131               76.77751411              185.28666351                1.00000000              -57.34731607              -69.38639187              224.74207876                9.73301927               72.55814958               34.77888089
             265.17997815               74.08779365              166.01445928                0.73652000              -47.67670462              -51.61190104              167.19440935               10.32621841              143.09041007               20.77503871
             265.79991721               71.40313665              147.91187940                0.35932114              -29.22035396              -36.33896858              111.92809399               11.32349848              258.14869569               15.79758837
             266.59557107               68.70942358              130.70003191                0.36042774              -13.93330976              -22.92173368               65.85383504               11.87850703              343.65122607               11.03253003
             267.52125102               65.98874166              114.10838542                0.36120234               -2.71714984              -11.02329071               27.75351368               11.90315822              396.17754250                5.93028294
             268.54122807               63.23304483               97.82511942                0.36089184                5.93849542                0.09343592               -6.15564266               11.64483859              412.32986547                0.61071948
             269.64002093               60.44094623               81.51817353                0.36029705               14.04207463               11.29798006              -39.89460116               11.14414566              391.23397315               -4.52696482
             270.82206956               57.61501858               64.85902027                0.35927004               23.58647042               23.48365321              -77.41812888               10.41188966              334.25289144               -8.98952787
             272.11175034               54.76026383               47.54863152                0.35838869               36.26134780               37.40787068             -122.42408917                9.49230316              245.90063960              -12.38322957
             273.54729652               51.88222048               29.34495474                0.35827036               52.12389203               53.29230669             -176.33692844                8.90652743              132.63896135              -14.89984293
             275.15422818               48.99367929               10.03952997                0.67917620               60.69316577               71.16474533             -233.55875556                9.32124537               64.05654884              -22.61687844
             248.66691310               77.98613369              229.73424917                1.00000000              -50.65856752              -63.52755884              209.38118196               -7.76389539               71.82175939              -16.22197446
             249.16032743               73.67952585              210.10438635                1.00000000              -40.61180147              -47.37384042              149.59009599               -7.67068509              153.76330067               -9.85300519
             249.85467707               69.46130376              191.76513519                1.00000000              -24.55322626              -32.42395949               98.10537110               -3.44298361              289.26556339               -8.10622615
             250.66926290               65.37569496              174.49703916                0.87464680              -17.14801291              -18.99104200               60.31514399                1.82507700              394.58962686               -5.54049260
             251.51171681               61.40475345              157.98312059                0.76633446              -16.39720717               -7.06980609               30.21264693                5.78363365              460.55383546               -1.32523402
             252.34131876               57.47677267              141.81429564                0.68680878              -15.81687931                4.67768490                1.04717850                6.78960359              481.24806153                5.98672761
             253.19537923               53.49486543              125.53919602                0.62925102               -8.53793385               15.21032473              -34.42361989               -0.72604784              453.24393890                8.34145372
             254.17056008               49.35797631              108.71969451                0.58675199               10.59474502               27.13451928              -77.94738136               -4.28284030              391.00144853                2.67936136
             255.40727413               45.13785809               91.11812885                0.58534415               34.13428781               39.09719302             -124.59409346               -4.23778358              302.51182802               -1.96076976
             256.85324584               40.94024724               72.58531681                0.61308566               47.87325190               47.66090578             -158.33441194               -2.24535989              178.68919792                2.77222763
             258.36473917               36.74866324               52.69038219                0.83412260               51.14933291               53.19416272             -172.74682026               -0.99970982               92.87361213               20.92999354
             252.89588199               78.35085810              225.97601509                1.00000000              -54.98464464              -62.92155261              216.31128275                1.01076882               61.84444864               -8.58395390
             253.34603554               74.20578745              206.33176793                1.00000000              -46.18596543              -47.78529151              156.61343303                1.94735493              138.45941180               -0.94239744
             253.97216268               70.13706416              187.89490515                1.00000000              -31.51233580              -32.98997783              105.17754704                7.76040003              265.74007549               -0.35675327
             254.71578883               66.18578454              170.49186676                1.00000000              -22.65741907              -19.86217601               66.32905949               14.91986348              365.61870705               -0.58408626
             255.51901430               62.33405539              153.81880265                0.99513548              -17.58150110               -8.64937488               35.13341936               20.74962098              429.35523052                1.20330007
             256.36415880               58.52354952              137.49167263                0.80822970              -13.57486844                1.97174385                6.12711367               20.05747839              450.14470234                4.76492101
             257.24751693               54.64696868              121.04071525                0.68616458               -2.89617290               12.30326709              -24.87010248               11.94176834              425.64827658                5.33044653
             258.30623535               50.62932150              104.04014063                0.60049567               16.31219493               26.43469319              -75.23179569                3.91426637              356.58979337               -6.34871762
             259.57376083               46.52883002               86.30629347                0.55359621               35.95771608               39.68207111             -132.28047051                2.16818986              272.91417198              -15.67243663
             261.02538967               42.41685630               67.64744821                0.49739504               48.62826207               48.43210504             -163.35125411                2.08037837              158.67634292              -10.08989853
             262.54632607               38.28060486               47.71737585                0.68355885               52.09364021               54.93782626             -175.69402373                1.53463341               77.47310498                9.01817809
             256.97726979               78.72770264              222.03575909                1.00000000              -56.42013268              -61.55862135              218.78647729                2.56975972               56.15986370               -3.01864089
             257.41306846               74.72382002              202.41075192                1.00000000              -47.36909077              -48.34552621              158.44622838                6.13796881              128.36969135                3.93704402
             258.02988797               70.80150420              183.91260474                0.00010000              -32.11997590              -34.16804798              106.93308992               15.24161456              249.21698992                3.99117630
             258.77066895               66.97845144              166.40776677                0.00010000              -22.04718578              -21.62928504               67.94897242               24.56889423              346.33896109                1.59689625
             259.58894426               63.23176595              149.63011857                0.00010000              -17.05569544              -11.13584854               37.09793138               31.37720536              410.38290012               -0.12333024
             260.42955504               59.51620755              133.18765228                0.00010000              -13.02508246               -2.35397454               16.24224300               30.46471990              433.25041259               -2.55017457
             261.32844261               55.74093077              116.59313543                0.00010000               -3.12854881                9.26910456              -10.50339383               25.01779256              396.72859529               -4.52114721
             262.36698406               51.88667017               99.43535828                0.00010000               16.73302604               24.68405645              -73.71023869               15.55444338              329.74302029              -15.04879384
             263.66310313               47.93149952               81.54985942                0.00010000               38.80472523               39.83838765             -136.02809433                7.64805375              253.03564091              -17.97217507
             265.14307857               43.90888934               62.84669013                0.00010000               50.24157835               48.97302432             -166.01113737                2.00868833              150.01598637              -11.80801474
             266.66793470               39.84741976               42.97877329                0.35734925               52.48561327               57.30512628             -175.42013276               -0.18408313               74.38591528                5.34466060
             260.95504242               79.11968567              218.02793157                1.00000000              -56.00490647              -60.57070155              217.55626955                4.68170823               52.37867542               10.84422612
             261.39499335               75.23887692              198.41404565                1.00000000              -46.63394359              -48.32797399              156.89631390               10.37183010              121.27616371               13.93094654
             262.02236355               71.45370320              179.86711492                0.00010000              -30.90441972              -34.89112350              105.59570343               20.65963137              236.89268571               11.42418466
             262.77690496               67.75319884              162.27470365                0.00010000              -20.67806221              -22.60220654               66.99677724               29.15726850              330.21305775                5.73047167
             263.60880230               64.11133842              145.38485543                0.00010000              -15.63082891              -11.91683773               36.59457380               33.40799638              391.18567874               -2.83893664
             264.46428838               60.47647003              128.81900748                0.00010000              -11.56960749               -2.55451783               15.32228083               35.63630203              411.55171986              -11.97200069
             265.37741015               56.83235077              112.11110739                0.00010000               -1.87664566                9.27417983              -12.08971266               34.13258389              375.52172289              -22.27725970
             266.42675547               53.12300263               94.87374455                0.00010000               16.35462918               23.61841899              -71.83228339               27.83416653              310.24364017              -17.78307246
             267.70450274               49.32559778               76.93922850                0.00010000               36.14438600               37.72170381             -128.02327901               13.68670603              235.09388991              -13.20398829
             269.14964319               45.39631678               58.20800282                0.00010000               48.05404120               47.76161344             -160.32254250                0.40317623              136.80053242              -12.64513933
             270.66558356               41.42670739               38.39452020                0.35744053               51.59403721               56.74476285             -178.62128612               -2.94814518               66.71807001               -5.25217574
             264.83252146               79.51628861              214.00719995                1.00000000              -54.60339247              -60.44879469              214.20204013                6.01671255               49.73521005               27.03823769
             265.28648754               75.75726054              194.38829889                1.00000000              -45.18813899              -47.79117245              153.37325386               12.90470514              115.84422641               25.75357135
             265.92875868               72.10368173              175.79170063                0.00010000              -29.51542176              -34.62197980              102.54114478               23.51233285              226.93538139               19.99345576
             266.69617910               68.52640731              158.11618257                0.00010000              -19.74628394              -22.25979034               64.59661056               30.87759541              315.56826814               11.12090377
             267.53383300               64.99342920              141.10566525                0.00010000              -13.74551874              -11.12413661               34.42121454               34.35401622              371.09744966               -0.93350465
             268.42126873               61.46511719              124.40999505                0.00010000               -8.46356595               -0.09236788                6.97021405               36.80832659              387.63168052              -14.18066923
             269.36456168               57.92641437              107.62871242                0.00010000                0.45758276               10.51437640              -24.24479193               38.32064284              363.09863394              -23.67037806
             270.43042038               54.35903855               90.37677728                0.00010000               14.94807082               22.39721740              -64.57260561               33.11897399              304.97770702              -19.29850945
             271.66352310               50.68593359               72.45353467                0.00010000               30.98060480               33.73456685             -107.52760793               16.55283416              224.18585034              -15.40854810
             273.05003248               46.86412161               53.68688281                0.00010000               44.23337396               45.38505768             -147.71790578                0.73409081              120.37873576              -19.85014162
             274.54819058               42.98231502               33.90632007                0.35766917               49.81581015               55.21007681             -183.31635028               -3.76026290               54.74369678              -18.80331596
             268.59343280               79.91070978              209.98810634                1.00000000              -52.77384715              -60.66667013              209.65134676                6.45121417               47.91135019               41.93528481
             269.06569433               76.28305347              190.34705841                1.00000000              -43.49846863              -46.88089225              148.83244242               13.61753722              111.67089924               36.42764805
             269.72346343               72.76126361              171.69822739                0.00010000              -28.04924650              -33.56411495               98.58862474               23.88121130              219.13914539               27.73576908
             270.50470940               69.30800304              153.94662870                0.00010000              -18.31453402              -21.27125700               61.36799339               30.48657519              304.16522259               16.86095669
             271.35717275               65.88885569              136.84008218                0.00010000              -11.86198301              -10.04111068               31.31064526               34.12753355              356.17105780                4.34892812
             272.26746974               62.47462267              120.04229802                0.00010000               -5.36355524                0.81907655                3.18087287               35.85382581              372.12740625               -8.52392170
             273.24990165               59.04263830              103.19343622                0.00010000                3.10729908               11.01447481              -26.66985370               36.13551678              351.80945499              -17.63806203
             274.32961572               55.57094698               85.95061539                0.00010000               14.02873591               20.13130996              -59.29241338               30.46828768              298.50243076              -20.04965188
             275.53047636               52.00028911               68.03335160                0.00010000               26.91639273               30.47963862              -96.52682345               17.09847131              215.91814837              -22.21479444
             276.86794358               48.30401794               49.22959150                0.00010000               41.17575578               43.49066300             -140.83872244                3.56865306              111.17643955              -28.32701208
             278.35399148               44.53090893               29.43776953                0.35787371               48.60479017               55.84520038             -189.09675847               -1.18229452               48.64463960              -31.22617199
             272.21685836               80.30295520              205.95378428                1.00000000              -50.85739074              -60.67231765              204.41863756                6.19348851               46.99126973               53.04946056
             272.70828445               76.81964269              186.27508745                0.93120638              -41.77125087              -45.63258840              143.87263039               12.86292787              109.05098130               43.63090544
             273.38143334               73.43239943              167.57563437                0.00010000              -26.49829635              -32.03514365               94.27093621               21.94903456              214.34063882               32.84800004
             274.17831853               70.10098217              149.76492470                0.00010000              -16.58346518              -20.04586548               57.79719816               27.45712690              297.37075724               21.21723209
             275.04976404               66.79260698              132.59412816                0.00010000               -9.68779477               -9.41531217               28.51544774               30.39783637              348.02754413                9.03311669
             275.98456263               63.48149872              115.73691207                0.00010000               -2.94081655                0.29407105                1.60799805               31.42886838              364.21662479               -2.64946422
             276.99094771               60.14670386               98.84756329                0.00010000                4.87863426                9.40858858              -25.70681814               29.98584043              346.43180769              -12.39154804
             278.08213532               56.76166475               81.59148573                0.00010000               14.07369298               18.24070062              -55.61247855               24.56507286              295.11712077              -19.62622432
             279.27242157               53.29552637               63.66228608                0.00010000               25.43252054               29.03817102              -91.39652432               15.16189426              212.41339165              -25.88429641
             280.59078573               49.73393487               44.83105213                0.00010000               39.91705697               42.83508939             -137.56127550                5.45276166              108.00454749              -32.35591031
             282.07076271               46.09921903               25.01944069                0.35812732               47.99769807               57.61460563             -191.76651677                1.33990721               46.90766597              -36.94085948
             275.68392759               80.69726343              201.86049835                1.00000000              -49.04189312              -60.22056739              198.84744508                5.46022856               47.37549633               58.14265633
             276.19350866               77.37040170              182.13152238                0.81229924              -40.14114740              -44.08024196              138.92462764               11.04260867              108.81295333               45.30448638
             276.88110464               74.12056073              163.39129743                0.00010000              -24.99321362              -30.26008134               89.99679454               18.13278376              213.83835481               33.70232528
             277.69364439               70.90708573              145.54799109                0.00010000              -14.82458569              -18.68899588               54.25798146               21.92695408              296.39436574               22.53834888
             278.58461293               67.70054944              128.35107585                0.00010000               -7.58470803               -8.92182431               25.92642572               23.59568717              346.62421383               11.37506429
             279.54195023               64.48050409              111.47502296                0.00010000               -0.75802540               -0.31102895                0.41195490               23.62295489              362.90350598                0.55336777
             280.56945242               61.23081007               94.57684522                0.00010000                6.50722258                7.89268645              -25.20298287               21.79435949              345.51670714               -9.22353542
             281.67209468               57.93576099               77.31752756                0.00010000               14.59958551               16.87888699              -53.56427371               17.61686116              294.46207313              -17.62677084
             282.86144413               54.58105254               59.38279797                0.00010000               25.06057348               28.14251702              -88.63630850               11.44948906              211.60163647              -24.77402133
             284.17330615               51.16071972               40.53681209                0.00010000               39.43885864               42.43165703             -135.62922747                4.96049173              107.15238340              -31.21364779
             285.65022131               47.68320104               20.70594100                0.35774940               47.69151562               58.67101697             -192.51502347                1.91712042               46.64990177              -37.16606183
             278.97978638               81.09854386              197.63774232                1.00000000              -47.39470585              -59.33480976              193.27664745                4.32346031               49.80658672               54.34349538
             279.50583932               77.93803786              177.85131128                0.70150964              -38.61906908              -42.41066449              134.37149993                8.37301466              112.32111557               39.28339046
             280.20740500               74.82719781              159.09295506                0.00010000              -23.44852096              -28.55792169               86.09599741               12.97283355              219.59007178               28.95549735
             281.03686890               71.72720225              141.25713913                0.00010000              -12.95727888              -17.41124150               50.91518113               14.91218244              303.17857582               19.87939511
             281.94825942               68.61417050              124.08255205                0.00010000               -5.50538989               -8.34315189               23.35262450               15.34018518              353.72219665               10.77377756
             282.92676110               65.47527814              107.23752495                0.00010000                1.16592889               -0.48975679               -1.11145959               14.71823676              369.90592097                1.72946154
             283.97157800               62.30455759               90.37398835                0.00010000                7.87344847                7.24703873              -25.54863821               13.07558433              352.10598215               -6.72927383
             285.08423007               59.09924249               73.14736734                0.00010000               15.24373099               16.15954245              -52.92398678               10.40580278              300.28766193              -14.03983110
             286.27645262               55.85837671               55.23620307                0.00010000               25.18084928               27.50254276              -87.52246675                7.02785698              216.21819492              -19.96916793
             287.58784706               52.58256801               36.39589045                0.00010000               39.38449346               41.95341938             -134.72901785                3.49333197              109.83542989              -25.33341795
             289.06414249               49.27263937               16.54235654                0.35789445               47.62954281               58.89142912             -192.39507631                1.71222999               48.32198074              -33.02278003
             282.09140880               81.51056723              193.18315674                1.00000000              -45.90937949              -58.21144608              188.27085938                2.56139756               55.39722816               36.60840041
             282.63231501               78.52218841              173.34501461                0.51128834              -37.00059420              -41.18126348              130.79549492                4.61419114              121.58716214               23.71684464
             283.35139692               75.54940230              154.61367516                0.00010000              -21.36998297              -27.48963364               82.77838868                6.77116120              234.41024292               17.74655018
             284.20491535               72.55886090              136.84412088                0.00010000              -10.40280840              -16.67908146               47.79084282                7.43311138              320.88853110               12.51568901
             285.14334075               69.53368640              119.75625177                0.00010000               -2.94937393               -8.01267723               20.77237156                7.30322185              372.80685185                7.00772998
             286.14592787               66.47070895              103.00775203                0.00010000                3.18295053               -0.47795744               -2.82891564                6.69295983              389.08640488                1.35195259
             287.20699976               63.37575084               86.24099446                0.00010000                9.02318781                7.10742308              -26.30320603                5.70474321              370.13207912               -4.00656728
             288.32639162               60.25895184               69.10213770                0.00010000               15.58379984               15.98680116              -52.90594622                4.43075843              316.08541081               -8.55427813
             289.51867576               57.13110339               51.26085165                0.00010000               25.12592526               27.27143215              -87.16805882                3.10096030              228.82328632              -11.93486965
             290.82891013               53.99978811               32.45959818                0.00010000               39.28237171               41.62031655             -134.41462000                1.79224622              117.62857603              -14.73080046
             292.30432319               50.86102962               12.58631010                0.35791251               47.54130612               58.69717816             -191.83631974                1.09423606               52.83974856              -21.69074089
             285.00777197               81.93431493              188.33882718                1.00000000              -44.84838913              -57.62522978              186.74633281                9.64608172               67.36137479               28.56542626
             285.55928807               79.11441259              168.50921840                0.68963210              -35.08081132              -40.77758286              129.13237759                9.85181686              139.46750024               19.49839584
             286.30615574               76.27740513              149.88091155                0.35904401              -17.90205247              -27.19971681               79.89764162                9.43628434              261.12111260               15.64793942
             287.20124703               73.39362063              132.25427966                0.36010987               -6.18399704              -16.52402705               44.60924333                8.45875898              353.24772506               11.21207286
             288.18247580               70.45391695              115.33724824                0.36085693                0.86544181               -7.97694514               18.13741849                7.51842339              408.69650803                6.04225925
             289.21855586               67.46571899               98.77285469                0.36071622                5.74770883               -0.49899620               -4.42938657                6.90225458              425.68253025                0.50727245
             290.29742998               64.44670606               82.18714371                0.36009660                9.94684159                7.09552127              -26.72895382                6.70599781              404.40963263               -4.86297316
             291.41749269               61.41897851               65.21008491                0.35893032               15.01027884               16.00266743              -52.38109748                6.96507170              345.28349533               -9.48884109
             292.59763555               58.40380535               47.49755029                0.35796014               23.81365294               27.27019583              -86.33693812                7.69577092              251.05758902              -12.85105491
             293.89376575               55.41497434               28.78259576                0.35754985               38.29543181               41.51862280             -134.12037230                8.62444142              131.11794799              -14.87244564
             295.36354419               52.44658293                8.92128439                0.67871388               46.97784362               58.55533084             -191.77733266                9.08295890               60.74927748              -19.33035302
             269.27488912               81.55224262              232.55115392                1.00000000              -34.59677017              -47.88579973              158.23890388               -9.86407621               69.77988163              -18.44960891
             269.92892142               77.29978865              212.32259396                1.00000000              -24.91123991              -30.27899817               93.95289942               -8.37933286              153.58513834              -13.83352075
             270.77666432               73.19527766              193.51011830                1.00000000              -12.15608940              -18.09187430               55.32635462               -1.11936589              290.12360175              -12.35687737
             271.68579963               69.28015075              175.93292528                0.87744092               -9.46177697               -9.24445810               32.42908318                6.53260788              389.34895437               -9.05038519
             272.58742879               65.52725164              159.18721541                0.71157487              -10.68008644               -2.34318724               15.05878800               14.30276586              444.88527458               -2.50075772
             273.47219790               61.86286113              142.79855307                0.60981489              -12.00786922                2.55180219               -4.49129441               16.21967684              454.80357155                6.71863150
             274.34727140               58.09104710              126.23486957                0.55146136               -3.47359656               12.51434696              -26.57835946               13.43077219              423.05692491               25.35311764
             275.40272597               54.08376996              109.08093978                0.51491794               12.42864222               14.92898296              -51.99612673              -18.37901131              344.08688930               16.28859515
             276.59584425               49.92576648               91.11135127                0.50807750               26.41420586               22.59868188              -74.73937822              -10.65700026              263.03667736              -13.78447409
             277.93101009               45.90357763               72.31015280                0.52087086               33.86626661               28.16293077              -93.79198501               10.96525313              154.13293631               -2.52440146
             279.27316958               41.95958487               52.36916099                0.77496291               34.21594872               29.33387006             -111.26061926               14.59312192               81.61271907               22.93404771
             273.42870234               82.07338463              228.86675562                1.00000000              -40.50917641              -45.99571530              165.25474390                0.48819834               61.22112912              -11.37402581
             274.02361057               77.99699867              208.62353886                1.00000000              -32.67063616              -30.90560169              101.24955994                1.37972256              139.82111893               -5.05438254
             274.77528961               74.01435892              189.71432916                1.00000000              -21.92359261              -18.82294269               63.13919605                8.49586867              266.63226590               -4.38515291
             275.58513872               70.18770617              171.99065167                1.00000000              -16.80941803              -10.27881630               38.83719837               18.00924236              358.81449923               -3.83539147
             276.43910125               66.50381977              155.07810556                0.84364700              -11.63208877               -4.51504496               19.53438267               27.69170767              413.20636694               -0.87297431
             277.35249695               62.88837915              138.53300827                0.58968532               -3.39882732               -1.87444663                4.71261345               34.92267858              428.86784186               13.22365064
             278.37112471               59.21619057              121.89779669                0.45027519               -2.54603879                5.86318774              -20.99749229               14.95053125              391.62846281               28.90006319
             279.30157617               55.23305979              104.45954046                0.36170629               10.41228514               11.72137208              -39.55307950               -7.84266514              352.83602390               -3.52179969
             280.57937041               51.15175330               86.14040129                0.30161661               36.10886273               25.86199378             -104.04655761               -0.80070968              267.68631126              -17.49634234
             282.02375342               47.18520693               67.26631303                0.24253875               39.18615708               30.91824926             -122.32317120               12.62896033              165.39966158               -7.26755375
             283.36309355               43.25292357               47.35334177                0.55021064               33.93401269               30.17972734              -77.10329027               14.18921253               87.39822036               17.62731900
             277.43742501               82.63232832              224.95413599                1.00000000              -42.18834319              -43.37515011              167.83403253                2.03007566               56.13322451               -8.36160640
             278.01554158               78.68167661              204.72306002                1.00000000              -34.07754085              -32.20302780              103.35404600                5.75574404              131.36312943               -2.51131650
             278.75587419               74.81881881              185.75230256                0.00010000              -22.95089758              -20.82962953               65.40878679               16.01135998              252.56779667               -1.80832134
             279.55652363               71.07457442              167.92529440                0.00010000              -15.76421195              -12.57851638               40.81167373               27.32469954              341.68720982               -2.64749691
             280.44058996               67.43695074              150.89646540                0.00010000               -4.91214740               -8.49254397               20.14354151               35.64232117              401.95018981               -3.17766337
             281.45828068               63.82537220              134.37661014                0.00010000               -6.94942842               -6.47825969                5.88816370               41.07774736              432.03915191                7.20053019
             282.30160139               60.20831085              117.67966055                0.00010000               -7.39853694               -7.50842842               45.99643916               18.15936211              403.39021396                6.37343813
             283.31030994               56.31819740               99.83923601                0.00010000               16.30407606               13.77095644              -47.12794518                8.34966748              309.39572227              -13.83268458
             284.62768291               52.44300635               81.30126898                0.00010000               38.60545400               31.65072576             -103.98650773                7.50453549              241.72103631              -15.45079159
             286.08241902               48.52194261               62.40404220                0.00010000               39.69188218               34.89495468             -120.03688222                2.54439036              156.20207495               -8.85309101
             287.42152055               44.56317942               42.63617020                0.35700743               33.91015307               31.07293386              -77.90321829                1.29211774               86.41670458                6.99417009
             281.37060726               83.20588162              220.94330392                1.00000000              -41.83722959              -43.07807244              168.06337418                4.37715896               53.07791464                3.38517517
             281.95223496               79.35293811              200.71734233                1.00000000              -33.39941279              -33.40618246              103.01025915                9.97789096              126.10821075                5.71438347
             282.70261900               75.59776633              181.69961356                0.00010000              -21.93670938              -22.90559877               65.29309900               20.60569986              243.26868185                4.58093290
             283.51350078               71.93613584              163.78811074                0.00010000              -15.07345499              -14.45552692               40.92183081               29.04955373              329.43589766                1.24558648
             284.40114990               68.33396889              146.65114185                0.00010000               -5.54044953               -9.27666410               20.35985577               32.27678775              386.39085042               -3.46106642
             285.40269179               64.75881396              129.99324530                0.00010000               -7.98315797               -5.16797635                6.30635106               22.72591477              411.50203036              -17.81827058
             286.24148674               61.06602200              113.15415916                0.00010000               -8.44088830               -2.65413143               32.36780089               30.94298948              382.14822649              -22.97113969
             287.23387402               57.50847892               95.26897886                0.00010000               14.21145834               17.30267290              -56.80985158               32.13553565              296.87171175              -15.11766004
             288.52571591               53.78476781               76.77360553                0.00010000               36.02970740               29.33309971             -111.17854238                8.30904934              229.55614650               -3.19916014
             289.95446817               49.88310603               57.82028109                0.00010000               39.03731911               33.01700034             -125.81765090              -15.36306490              139.75551516               -8.18866158
             291.30646229               45.87438225               37.97447162                0.35689878               35.19941261               33.95384676              -86.42151607              -20.21080879               69.32692368              -16.92434962
             285.23085522               83.77076687              216.90256144                1.00000000              -40.76405258              -44.27815257              167.06633259                5.67646177               51.19394544               17.58249581
             285.82321469               80.01355296              196.66688973                1.00000000              -32.30323804              -34.14806461              101.42697089               12.00388060              122.40002383               15.95799021
             286.58479046               76.36070683              177.60331918                0.00010000              -21.09512779              -23.83729182               63.99391149               22.07471490              236.16690960               12.15968126
             287.40131214               72.78546389              159.61439623                0.00010000              -16.06714331              -14.90220165               40.19277910               28.40494849              319.00780819                6.42780760
             288.26344759               69.25141746              142.36840126                0.00010000              -11.02831353               -7.31040540               20.73031180               29.02277973              366.84410038               -1.88341124
             289.18074587               65.72201267              125.46641468                0.00010000               -4.63256891               -1.02582489                5.42666612               23.25891763              377.08371116              -18.25564778
             290.17079622               62.15522822              108.44076794                0.00010000                2.67644865               10.98292174              -19.12213753               33.19484199              343.82757068              -29.29129393
             291.23427484               58.66425086               90.85909436                0.00010000               12.42202857               14.60191503              -40.61379095               35.22244946              286.73483451               -4.70846736
             292.41923679               55.02966835               72.57318159                0.00010000               22.56342221               21.49262618              -69.24551116               11.79450656              210.94720686                9.63769881
             293.68554329               51.18228262               53.45845673                0.00010000               30.77575729               29.66193408              -94.85099329              -13.16563496              111.69331993               -4.30914141
             295.03475193               47.24225635               33.35823480                0.35721225               34.92086470               39.00506225             -135.26177837              -17.25311562               48.42152970              -40.67060983
             288.99856430               84.32031857              212.85344223                1.00000000              -39.61916926              -45.50905936              165.21081802                5.96987873               50.01473866               30.64550819
             289.60237261               80.66997682              192.59277721                1.00000000              -31.31809618              -34.11028985               99.10692709               12.08472234              119.57655645               25.39419158
             290.37220238               77.12102049              173.48142920                0.00010000              -20.57417478              -23.49395071               61.98605842               21.13662899              230.67053402               19.08633468
             291.19088912               73.63809181              155.42356712                0.00010000              -16.35728333              -14.25628725               38.83825905               26.37242171              310.49201045               11.53966453
             292.04505671               70.18776078              138.07991070                0.00010000              -11.34148695               -6.18333448               19.85705155               28.06481834              354.41586039                2.45033064
             292.96405938               66.73829746              121.06012925                0.00010000               -4.09556599                1.52139177                0.84211601               28.95221534              365.06275213               -6.72190808
             293.96314539               63.28568043              103.97196376                0.00010000                4.99117541               10.06971206              -18.68028437               29.45591955              346.75358580              -11.04258182
             295.06388288               59.80051722               86.47723644                0.00010000               14.02144454               12.57862646              -38.81588624               25.94269011              299.62370814               -8.15229074
             296.24357428               56.21462033               68.26300519                0.00010000               20.73422886               18.48628465              -60.67142854               13.19714704              222.07473367               -6.45549968
             297.47856746               52.47634471               49.05628261                0.00010000               29.89391130               30.32310524              -93.48626517               -0.48289297              116.58123651              -17.42969572
             298.84145251               48.65448349               28.76751479                0.35738996               36.28850487               43.22720267             -149.70296417               -3.78129228               50.28631598              -42.07481850
             292.65093631               84.86058568              208.78217990                1.00000000              -38.67290840              -45.91683461              162.62430422                5.61648860               49.50667784               40.45414400
             293.26420722               81.33134717              188.48396553                1.00000000              -30.57641289              -33.14703417               96.32913035               10.88492712              117.73543555               32.07600462
             294.03940805               77.89082782              169.32672401                0.00010000              -20.10934705              -22.06154603               59.53468131               18.24767428              227.17610206               23.90901824
             294.86202028               74.50033814              151.21576100                0.00010000              -15.74348701              -13.03388467               36.89919720               22.06067533              305.46363453               15.50624605
             295.72453831               71.12775077              133.81348268                0.00010000              -10.00748779               -5.83012264               18.25879802               23.72920492              348.75549754                6.89185168
             296.66187053               67.75244051              116.74308099                0.00010000               -1.34217308                0.38979226                0.45980881               24.35506815              361.36629092               -0.84694026
             297.69769485               64.35662247               99.63952031                0.00010000                8.11591083                5.41111633              -17.38221353               23.89334792              345.77676727               -6.33027873
             298.82418874               60.91582339               82.15029610                0.00010000               15.48286958               10.30272082              -35.86508518               19.95466507              300.95300796              -10.47995355
             300.00735224               57.39939404               63.93106659                0.00010000               20.59167624               18.03191486              -57.60910897               11.99430453              223.22792205              -15.23686480
             301.23602227               53.78874472               44.67411631                0.00010000               29.77481391               30.89044227              -92.15963176                3.52558961              116.29173370              -23.55679742
             302.60284852               50.10680041               24.29840968                0.35701584               36.68262496               45.84422375             -155.15092955                0.45928927               49.86895102              -36.08412684
             296.16937110               85.40198188              204.64722226                1.00000000              -37.95420878              -45.48363954              159.46021756                4.99245803               49.95399250               45.26728935
             296.78982902               82.00703613              184.30283363                0.82804743              -30.06031058              -31.40217028               93.35404681                9.09202671              117.51204949               34.37842614
             297.56816489               78.67978957              165.10961496                0.00010000              -19.73246743              -19.82243351               56.86568113               14.06074574              226.73574422               25.45240565
             298.39517967               75.37741411              146.97178189                0.00010000              -15.03132229              -11.26604102               34.66468471               15.68257568              304.80017057               17.17860542
             299.26753845               72.07115833              129.55127561                0.00010000               -8.64453103               -5.25327134               16.72716459               15.66999264              348.25442659                9.02922599
             300.22228905               68.74609331              112.47469404                0.00010000                0.50455105               -0.90403699               -0.04344254               15.01351811              361.43513984                1.36881760
             301.27762947               65.39390276               95.37584573                0.00010000                9.89577818                3.02594105              -16.77167276               13.59508080              346.55916169               -5.45423020
             302.42020461               62.00657164               77.89488427                0.00010000               16.64547870                8.29474618              -34.50099569               10.95407301              302.00293873              -11.43202379
             303.61053904               58.57525863               59.67341914                0.00010000               21.07341384               16.91430766              -56.08775181                6.95229923              223.91517434              -17.15358485
             304.84167289               55.09415355               40.39159039                0.00010000               30.19939434               29.95085409              -91.39837016                2.73225371              115.84757654              -23.81474563
             306.21452693               51.57136797               19.96832645                0.35714493               37.28540410               45.75958658             -156.09539198                1.17986745               49.42541692              -32.27947568
             299.54067696               85.95091289              200.38033828                1.00000000              -37.24368947              -44.97603502              155.95499635                4.30200640               52.03016405               42.76326622
             300.16824007               82.70330376              179.98733513                0.64136909              -29.52159889              -29.33468513               90.46320923                7.21946453              120.16084069               30.56420618
             300.95024498               79.49437915              160.78049356                0.00010000              -19.19685152              -17.31443649               54.19655140                9.50722186              231.11290155               22.68468257
             301.78430304               76.27501732              142.65420405                0.00010000              -14.04930059               -9.27999730               32.30850430                8.89545231              310.11372534               15.76897845
             302.66925897               73.02268535              125.26265031                0.00010000               -7.24532883               -4.33626799               14.96338006                7.41699761              354.08885255                8.73311513
             303.63939646               69.73435977              108.22626210                0.00010000                1.99295807               -1.11367610               -0.96621692                6.00171363              367.48456297                1.74011701
             304.70911813               66.41714129               91.17211535                0.00010000               11.12589358                2.03884843              -16.81308871                4.87756699              352.41454462               -4.80174643
             305.86191433               63.08171831               73.73130681                0.00010000               17.48490863                6.99036411              -33.87381509                3.98973939              307.25138393              -10.56072128
             307.05881630               59.73768019               55.53590081                0.00010000               21.63218369               15.54409354              -55.22117326                3.24689774              228.01559492              -15.44237572
             308.29455800               56.38776180               36.25648183                0.00010000               30.66003657               28.69112729              -90.75796770                2.23455514              118.08945412              -20.34414629
             309.67201704               53.02199214               15.80462989                0.35697134               37.74590320               44.89606009             -155.80355466                1.48896955               50.90790861              -27.95534851
             302.75062949               86.50246118              195.88440538                0.97742251              -35.98774411              -45.67155662              152.48260727                2.74909489               56.71102603               28.85972540
             303.39075205               83.42034243              175.45179911                0.40293817              -28.20168594              -27.69748916               87.88247632                4.50216886              127.64960461               18.97727398
             304.18659577               80.33350084              156.27277067                0.00010000              -17.29847665              -15.63782428               51.52024745                4.92524812              243.38982371               14.63679427
             305.04478252               77.19181417              138.21395232                0.00010000              -11.50299092               -8.08349182               29.65533991                3.54089831              325.29961687               10.46936698
             305.95653595               73.98443297              120.91448121                0.00010000               -4.84575682               -3.75457242               12.89810481                1.96763991              370.97119377                5.86952100
             306.94786738               70.72381978              103.98339532                0.00010000                3.56431534               -1.06874019               -2.08825196                0.79167541              384.78331755                1.14616147
             308.02782226               67.43467973               87.03558121                0.00010000               11.57965557                1.71234938              -16.91355140                0.22121796              368.74972334               -3.36625458
             309.17946049               64.14637892               69.68987085                0.00010000               17.08056227                6.38145095              -33.19298972                0.34396662              321.41446531               -7.30798304
             310.36943351               60.88614050               51.56696960                0.00010000               21.12957772               14.60826257              -54.32580463                1.15860713              239.04800995              -10.27564551
             311.60205205               57.66797610               32.32525390                0.00010000               30.32060736               27.55072977              -90.02058650                1.72560236              124.69269171              -12.57284781
             312.97584565               54.46928917               11.85549521                0.35654998               37.37936070               45.75657604             -154.91070841                1.12227902               54.84921653              -18.52131589
             305.75989636               87.03748176              191.02159017                0.94767287              -33.26525746              -46.49794219              150.43979557               12.11390859               65.83614868               25.53514656
             306.42724378               84.14935398              170.59710683                0.61742153              -24.13090742              -27.09884528               85.58335105               10.85621845              142.27409389               19.27613144
             307.27727821               81.18162266              151.50983223                0.35886576              -11.15274547              -15.18781788               47.88740083                7.26791887              267.63512419               16.33672805
             308.20418887               78.11334748              133.59221678                0.36008634               -5.03360267               -7.84666850               26.15860589                4.23919733              357.05539284               11.93248998
             309.17660615               74.94759390              116.47113379                0.36076405                0.03971687               -3.68390734               10.46845006                1.98889404              407.44531971                6.31845962
             310.20498321               71.71298496               99.73653169                0.36056305                5.71886011               -1.08348215               -3.05471267                0.90130176              422.50934836                0.37902091
             311.29098336               68.45138827               82.98359445                0.35998184               10.61748396                1.67085452              -16.27357134                1.13422818              404.24834367               -5.43450705
             312.41733289               65.20934733               65.81139832                0.35895408               13.47039545                6.29684141              -31.06700157                2.71009828              351.24303380              -10.65764329
             313.56039127               62.02984544               47.82189275                0.35765795               16.42942473               14.37049420              -51.42077216                5.56722940              260.52712706              -14.33274386
             314.74592138               58.93877640               28.66254730                0.35680454               26.57226046               27.08003002              -87.68545568                9.75084448              136.56889034              -16.04495586
             316.09183647               55.93712366                8.20398332                0.67846096               34.59150915               46.78344882             -152.80259754               11.43380810               61.44203876              -19.29422505
             290.51963065               84.98593811              234.89902725                1.00000000              -24.65648445              -26.55426041              101.68080931               -9.78650414              103.51052799              -20.83967696
             291.27306581               80.80096563              213.98344434                1.00000000              -23.64064325               -9.67319058               50.39499969               -6.82782363              176.70764939              -17.89812119
             292.04681779               76.80574450              194.87166228                1.00000000              -24.69604647                0.14323478               32.36296809                3.00118158              287.05073411              -17.42878211
             292.77914488               73.07923447              177.14562083                0.81416970              -25.15116356                3.74731216               20.66639870               13.27642809              354.19148942              -12.36693999
             293.54379452               69.57295800              160.28429635                0.61179845              -19.47044240                3.43879129               10.19328011               22.84907225              384.83947648               -6.26342127
             294.38973603               66.14223488              143.72446976                0.50256609               -8.48317513                6.77305735               -5.57487791               28.36462591              384.61532445                9.63188030
             295.37413101               62.67607355              127.00762883                0.45964569              -10.69599295               10.41054122              -19.04218649               17.15789781              359.50433166                3.90657952
             296.17581617               58.92654686              109.67977198                0.44500815                3.23318180              -12.59575835              -35.85247923              100.85325574              321.85087657               19.46295085
             297.43879465               54.80406857               91.62334129                0.44186223               25.11393344               18.49168980              -41.79799747               70.73657722              260.48764134              -42.20649955
             298.67809484               50.97743875               72.70947711                0.43888725               22.00912649               20.01770725              -49.43908653               65.98046121              161.76493965              -47.06256769
             299.87897718               47.23898263               52.46516981                0.72090366               20.08823391               12.71594042              -59.21233201               50.27997076               99.87021535              102.44978137
             294.60673809               85.72039551              231.28110997                1.00000000              -31.18537098              -25.10079526              106.81382911                0.50660058               97.39623686               -9.92499920
             295.29488438               81.70423373              210.35675912                1.00000000              -33.45214521              -11.05877076               57.17695839                2.79400076              167.13797957               -5.48353451
             295.93769518               77.80717684              191.15768907                1.00000000              -38.32909849               -1.28455607               40.72721038               12.23328064              268.09613256               -4.94199676
             296.52830241               74.11670759              173.26861072                1.00000000              -34.84550755                2.44039811               27.16793261               24.06372447              327.48872634               -4.42121585
             297.24078503               70.60734591              156.20949030                0.56838014              -20.32389473                1.11092002               12.99956013               36.30478296              360.63502512               -4.23795323
             298.12182451               67.20996546              139.58592490                0.28581119               -4.36155147                2.88731211                2.62076644               53.51199740              360.13166526                2.68567415
             299.15355400               63.78017896              122.62076540                0.17796328               49.92633535               -3.20182427              -24.37030473               57.50569115              333.95383979               53.99173468
             301.12035122               59.80058927              105.24907904                0.13698896               48.35802357               -6.29843897              -10.52538875               48.31402027              222.41145549                6.80594743
             302.12071447               55.98898546               86.22536232                0.10100764                0.00455993                9.26054393              -45.75992670               43.54747835              125.88624716              -28.01920764
             303.12044242               52.17761582               67.20098478                0.04249100               -0.02407343               10.02103536              -53.27381671               31.56402894              103.59499282              -25.80021647
             304.12023301               48.36614204               48.17531005                0.44019592               -0.02094130                6.35953408               -8.89763827               21.50440222               86.58038497               41.18373658
             298.56208622               86.48392221              227.39243974                1.00000000              -31.99217369              -24.07158891              109.05906751                2.67609161               93.61911620               -8.33379505
             299.24216448               82.57979022              206.47783284                1.00000000              -34.15383436              -14.74494193               59.88697549                8.10473619              162.26374177               -4.31304916
             299.87900953               78.78005338              187.22078048                0.00010000              -39.09570920               -5.64358022               43.93496090               21.37629007              259.95476940               -3.47906143
             300.46025030               75.12804243              169.22400024                0.00010000              -35.11886112               -1.38494279               29.90174033               35.04576200              317.15753183               -3.74775325
             301.17663231               71.59517640              152.03298940                0.00010000               -8.65536865               -1.85823390               13.90413780               48.13192062              348.88420779               -4.13646464
             302.28714293               68.19998112              135.30541555                0.00010000               37.84943527               -8.98326884               -6.10748911               54.31739142              399.29012074               -6.80949615
             303.93362102               64.61203706              119.51306421                0.00010000               32.30735735               -8.41791899               41.67915559               59.58420369              292.04562076               64.80113258
             304.93329007               60.80057808              100.49279937                0.00010000               -0.04516751                0.01009061              -17.32381197                0.08172445              130.12064915              -13.68623749
             305.93271767               56.98927944               81.47012926                0.00010000               -0.05356140                0.03582497              -41.56016961                0.04451674              114.09301944              -10.41620478
             306.93221885               53.17785946               62.44595249                0.00010000               -0.03524341                0.02565983              -47.90751420                0.01694257               91.26179848               -4.93598747
             307.93201280               49.36617331               43.42070892                0.35655609               -0.02060477                0.00068776              -10.77151847                0.00678433               74.26897795                2.42111430
             302.46852389               87.23896373              223.38919905                1.00000000              -30.76759629              -26.30609979              110.31714549                5.31999532               91.57279778               -0.02900209
             303.16084793               83.40933489              202.47425084                1.00000000              -32.57775623              -18.94023768               60.88031108               12.34536508              159.70900131                1.11328045
             303.81696877               79.69430524              183.17297690                0.00010000              -37.33766536              -10.74968325               45.16109753               25.26273399              255.14476079                0.92504150
             304.41409462               76.08900874              165.09314027                0.00010000              -34.27420081               -5.42676713               31.13610847               36.34394408              310.48307400               -0.35097790
             305.13148475               72.57018123              147.79205255                0.00010000              -11.13914739               -3.40921424               14.87799422               39.16777978              340.73908936               -2.09788401
             306.19131168               69.03030008              130.94513450                0.00010000               30.65781846               -8.34304202               -3.10978310               32.25363432              375.36645777               -0.94165995
             307.74464112               65.61182058              114.75846341                0.00010000               27.67158263               -4.46265904               30.22057285              -15.73482958              265.86366782              -48.30743129
             308.74474333               61.80079109               95.73754752                0.00010000               -0.01588465               12.80167750              -26.58080863              -26.13526362              124.50319221                5.94553210
             309.74432343               57.98970196               76.71565765                0.00010000               -0.04279639               20.00042331              -52.91044102              -13.61374370              109.81614563               27.88777225
             310.74388740               54.17812902               57.69164980                0.00010000               -0.02912235               18.20389038              -56.44219877               -2.84596774               88.24660641               19.65846485
             311.74374098               50.36615579               38.66608988                0.35668230               -0.01464186                0.48431716              -15.41642882                8.05528867               70.59172501              -48.67145595
             306.32774381               87.95780021              219.34852660                1.00000000              -29.40135324              -29.74811187              110.97971202                6.64521212               90.55161351                9.66660659
             307.03373027               84.20098546              198.41683831                1.00000000              -31.15767203              -21.77366940               60.86806706               13.78250300              157.99761948                7.74420091
             307.70459037               80.56505971              179.07157886                0.00010000              -36.12385425              -13.73598843               45.23436706               25.38185297              251.64488760                5.96091924
             308.31125319               77.01950709              160.92003815                0.00010000              -34.29469002               -7.57885912               31.49145379               33.19529449              305.41213926                3.40897951
             309.01869657               73.52699211              143.52027148                0.00010000              -21.03384618               -3.87001766               16.32450425               34.55281327              333.43466010                0.72638322
             309.89057627               70.03312028              126.51852837                0.00010000               -8.51315738                1.66090601                3.41893109               24.05759083              331.19407935               -3.83050162
             310.84843342               66.52278388              109.24626967                0.00010000                7.10635779                0.56068536              -14.09545727                2.33581980              314.95854016              -39.35525872
             312.03270342               63.05661163               91.56450146                0.00010000               21.73357207               15.79541671              -29.38762633                7.64045788              283.40924001               15.82076222
             313.28310486               59.38928791               73.06862445                0.00010000               23.30711214               26.17960785              -46.79949541                6.69635356              227.71518298               39.71774215
             314.49884566               55.54193727               53.78986295                0.00010000               21.69800856               28.08177133              -55.34112222               -3.11284725              143.28740202               27.25498601
             315.71706503               51.37585966               33.20108450                0.35674245               21.82193668               19.15409454              -84.97372357               -6.93213793               82.03760586              -84.27834748
             310.11505763               88.64400149              215.29232270                1.00000000              -28.58191366              -31.97710768              110.82098308                6.76984351               90.08663212               18.27316889
             310.82923849               84.97386150              194.32919696                1.00000000              -30.44867122              -22.49395470               60.02845767               13.01513784              156.64981476               13.76651447
             311.50608420               81.41958547              174.93794855                0.00010000              -35.65851901              -14.13328349               44.43729993               22.60697982              248.88945777               10.39824214
             312.11606811               77.93743155              156.72339388                0.00010000              -34.85781887               -7.83073845               31.11788782               28.13873864              301.25928853                6.68891738
             312.80892783               74.49278088              139.23722321                0.00010000              -21.96981933               -3.39565010               16.73559358               30.24720445              325.61278549                2.45645158
             313.67667172               71.06351820              122.05914034                0.00010000               -2.05308256                0.84374179                0.78554369               31.27639782              330.51873098               -3.76705868
             314.76786617               67.62303429              104.81983053                0.00010000               17.71883679                4.67162199              -14.83441703               35.20078719              320.37547602               -0.86398163
             316.03104846               64.11669942               87.17429766                0.00010000               31.25293447                3.89031075              -28.73464145               33.36028023              293.62962843               -0.41103941
             317.39292486               60.51329412               68.81992303                0.00010000               33.20051253                9.55436023              -41.01677438               27.65599835              241.05620205                3.69066892
             318.69505871               56.73976445               49.35986620                0.00010000               27.21642897               19.27769350              -54.84652384               14.31876069              153.74412292               -7.01746310
             319.93725344               52.74923768               28.44371025                0.35643045               24.21947327               40.04325846             -105.36966271                6.07182131               92.17415091              -40.71534075
             313.80342066               89.31825806              211.20627037                1.00000000              -28.49716063              -31.97753299              109.73122291                6.12118583               90.08224026               24.63746596
             314.51844905               85.75110637              190.20167006                0.87633783              -30.51303739              -20.96304356               58.46648733               10.81272230              155.67733111               18.10173999
             315.19315991               82.28239404              170.76632800                0.00010000              -35.88082484              -12.18730867               42.94809910               17.62865069              246.97281810               13.49787316
             315.80083255               78.86289232              152.50290864                0.00010000              -34.78029494               -6.26083810               29.96291268               20.43020560              298.47339662                8.96561329
             316.49755401               75.45907911              134.95930412                0.00010000              -20.74908702               -3.04072757               15.79269648               21.24821395              323.42007611                4.30813309
             317.38585081               72.04999512              117.74610825                0.00010000                0.08569652               -1.94094332                0.67991110               21.32741947              330.30147015                0.86061186
             318.49926794               68.61621632              100.49991902                0.00010000               21.18991910               -1.69519322              -14.29387876               19.85009882              321.53249248               -1.51272948
             319.80964920               65.13441784               82.87418403                0.00010000               35.69459301                0.47051924              -28.19037657               17.38451866              295.25316761               -3.09932793
             321.21315980               61.58037511               64.51010390                0.00010000               36.98140605                5.99262499              -40.72679710               12.15949638              243.82813733               -6.03977008
             322.54927732               57.92749114               44.98785949                0.00010000               30.31975932               18.11474214              -55.90890516                4.83206861              154.27140698              -12.18352528
             323.81955499               54.17672483               23.91642210                0.35645586               27.02776710               39.10768192             -107.61616556                2.32357314               90.49555188              -26.85309892
             317.37178472               90.00445083              207.04970270                1.00000000              -29.04277630              -30.08159980              107.81547443                5.16374558               90.66122136               27.89141922
             318.08135695               86.55460063              185.99860332                0.68341744              -31.24567249              -17.53749392               56.37252493                8.09201353              155.40905823               19.90106441
             318.74687127               83.17583930              166.52861105                0.00010000              -36.66849006               -8.23291452               40.91694690               11.36241808              246.50500269               14.69965098
             319.34798715               79.81221479              148.24128478                0.00010000              -35.00409794               -3.12404636               28.21108287               10.61405686              297.98570965               10.04254482
             320.04678931               76.43196633              130.68561914                0.00010000              -20.09521243               -1.67259584               14.58841966                8.64544763              323.28213813                5.54435616
             320.94608290               73.02469933              113.47415411                0.00010000                1.68280602               -2.43079591                0.10775645                6.91503011              330.61880051                1.38621271
             322.08044543               69.58913042               96.24141177                0.00010000               23.42485693               -3.37145658              -14.29404756                5.84833535              322.08504451               -2.26532021
             323.41458004               66.12610981               78.62750764                0.00010000               38.12980362               -2.06881791              -27.68938447                4.99196457              295.96232792               -5.63750353
             324.84304150               62.63314662               60.26104294                0.00010000               39.03851655                3.78018117              -40.09615735                3.71895889              244.43822934               -9.08966858
             326.19535037               59.10205929               40.70884468                0.00010000               32.11080136               15.72652195              -55.29221637                1.49372266              154.30930813              -13.71148763
             327.48525753               55.53139132               19.58403316                0.35663948               28.99071543               32.48194089             -106.96690764                1.25568127               90.57202848              -21.04646872
             320.80639597               90.71662606              202.75684225                1.00000000              -29.74951169              -27.89704870              105.43788899                4.32590049               92.26905321               26.65789541
             321.50890085               87.40035649              181.66057546                0.47795293              -32.18009314              -13.13192214               54.00059328                5.83472755              156.62745875               18.14027959
             322.16279411               84.11773575              162.17688608                0.00010000              -37.59570968               -3.15198909               38.47029436                5.51119107              248.62317800               13.53384150
             322.75698666               80.80041139              143.90330922                0.00010000              -35.24078426                0.90103549               26.01870571                1.45507149              300.66386603                9.46834829
             323.45797842               77.42562720              126.38181965                0.00010000              -19.49996703                0.53135070               12.98316640               -2.62499411              326.30718907                5.33076053
             324.36698732               74.00137920              109.21820061                0.00010000                2.84228762               -2.06683725               -0.69644895               -5.12143400              333.82031020                1.21561040
             325.51482417               70.54878719               92.03772658                0.00010000               24.92424859               -4.60918845              -14.27130471               -5.66322240              325.20808915               -2.66577619
             326.86547229               67.09304149               74.46989104                0.00010000               39.83826598               -4.67045678              -27.01446691               -4.20479787              298.80867469               -6.12584815
             328.31158949               63.65597874               56.13177960                0.00010000               40.77173887                0.32259595              -39.05613811               -1.49042519              246.70476390               -9.18455062
             329.68090707               60.24202157               36.58073110                0.00010000               33.72075281               12.01032011              -54.21449351                0.46364437              155.43602305              -12.39085381
             330.98600455               56.82636364               15.42628544                0.35628252               30.50974819               27.99292756             -105.66531817                1.21257619               91.63580064              -18.23544462
             324.09084186               91.44650986              198.23280889                0.76487434              -29.39000480              -27.29888797              102.93122063                2.89851466               95.52223534               18.13972622
             324.79694181               88.29196219              177.10266413                0.22115487              -31.69008382               -9.55183597               51.49111914                3.69583458              160.93223515               11.63902182
             325.45704018               85.11279952              157.64408011                0.00010000              -36.38723384                0.61404066               35.53598437                1.96137421              255.58859321                9.20850914
             326.06919714               81.83023550              139.43722768                0.00010000              -33.18592835                3.76650531               23.19068973               -2.30697556              309.29542804                6.58384994
             326.79332162               78.44259334              122.01421387                0.00010000              -17.43514547                2.06768970               10.95116945               -5.88920275              336.27394546                3.63181128
             327.72049423               74.98336259              104.96598699                0.00010000                4.10985387               -1.71762629               -1.57037786               -7.81759174              344.18387578                0.67884471
             328.87551870               71.49694666               87.90272343                0.00010000               25.13991551               -5.33988822              -13.91188941               -7.89779363              334.94915611               -2.16409886
             330.22329254               68.03270067               70.43827790                0.00010000               39.43671057               -6.51353841              -25.64848401               -5.93826725              307.02282475               -4.78841756
             331.66425291               64.63959854               52.17433556                0.00010000               40.54729090               -2.43372905              -37.29735970               -2.24976776              253.16091636               -6.83386326
             333.03423835               61.34226569               32.65918645                0.00010000               33.82860033                8.87334304              -52.65848957                0.68986300              159.37299112               -8.24805913
             334.34082491               58.09124987               11.48809593                0.35651887               30.65865582               26.86792803             -104.27311048                1.07383638               94.46999879              -12.49543250
             327.17346160               92.17064830              193.34762309                0.82325383              -25.69337176              -27.58615562              101.01004199               12.12912144              101.37790192               23.71889746
             327.91652789               89.20931977              172.22088542                0.49977840              -25.48566634               -8.26424142               48.36421988                9.92702042              170.53522981               19.80784891
             328.66374828               86.13001656              152.83865956                0.35869195              -26.77372816                1.72170472               30.54803370                3.99189558              274.00592176               18.47723670
             329.38105332               82.87574150              134.77745178                0.35922617              -23.83404971                4.55059983               18.97988746               -1.96616008              335.53685288               12.66451671
             330.18706728               79.46698099              117.54661725                0.35963202              -11.23855753                2.43876467                8.37899973               -6.06117481              366.96824746                6.41755281
             331.15628217               75.96702668              100.71176043                0.35971174                6.02314690               -1.63359121               -2.27646523               -7.67078360              376.13418093                0.12642095
             332.30753022               72.44198943               83.86167228                0.35923057               22.38864458               -5.49572285              -12.61301281               -7.01164543              365.23395945               -6.08201922
             333.60405506               68.96277072               66.58874488                0.35905226               32.47494488               -6.99299527              -22.30271375               -3.65801085              332.44642998              -12.07913129
             334.95702912               65.60730416               48.46913485                0.35794346               31.94989664               -3.22943814              -32.54651894                2.11350705              270.38820954              -17.47142683
             336.24305300               62.41948844               29.02888665                0.35680928               27.62419004                7.72227440              -49.05892442                8.70236646              167.77284992              -18.12101797
             337.50951292               59.36372220                7.86523244                0.67842866               26.64599226               27.24723327             -101.77219585               11.29217743               99.27716218              -20.48329510
             313.17626550               88.37128364              236.58477010                1.00000000              -68.58261296                1.01885138               68.57428547              -12.70237256              140.23587011              -19.63923784
             313.49043937               84.19519665              215.33049395                1.00000000              -91.03814935               19.77428224               34.70496142               -4.89659045              200.36773481              -16.91849123
             313.35550252               80.27464844              196.15737766                1.00000000             -106.67220101               29.17523464               28.57153821               16.56759016              281.65643806              -15.96003513
             313.35699535               76.78683215              178.34625325                1.00000000              -82.50665670               23.40702814               20.06324250               36.45900935              319.47021518              -10.46452464
             313.70536938               73.55159531              161.39108101                1.00000000              -45.79117213               11.87723457               10.67846658               40.19963514              333.19759963               -7.43469405
             314.44117191               70.33258846              144.68705551                1.00000000               -6.16567853                2.85583869               -3.74142489               39.83383536              328.29082952                8.87216685
             315.58205581               66.94290554              127.85402584                1.00000000               39.14295671              -15.23156602              -15.36029888               30.59047439              304.63421429              -17.68032580
             317.22403105               63.33441485              110.36389019                1.00000000               59.69180636               22.17364924              -31.58817837              -61.14782418              325.88976130               29.30104800
             318.77589194               59.87759442               92.27539132                1.00000000               55.02246576              -13.30132523              -34.79499712             -130.82542899              281.58377307                2.33372955
             320.32448036               55.97931093               73.32137107                1.00000000               49.16482729               -4.65836986              -38.81060361             -182.34220071              210.11470376              -11.86621980
             321.75918849               52.58830002               53.18491435                1.00000000               43.47081245              -46.72408291              -28.02554608             -200.41486684              174.37545814              133.97920463
             317.22532877               89.38147215              233.00303220                1.00000000              -73.55377015               -0.68601502               72.19222268               -0.71548677              138.26365072               -6.36497357
             317.48979107               85.39293947              211.76707802                1.00000000              -99.99840512               14.13636360               41.03189004                6.34824723              195.78272724               -1.61414673
             317.22536067               81.56640079              192.52887337                1.00000000             -120.33395259               22.96506548               37.11842962               24.06313149              267.11316309               -0.39639971
             317.08311201               78.02090243              174.53401032                1.00000000              -94.54365413               19.41288316               26.53995985               41.72184258              295.94213051               -0.72671821
             317.33448758               74.67036765              157.33809676                1.00000000              -46.96284324               11.00319485               12.86064599               48.58669152              311.94091908               -4.52446841
             318.14385515               71.36114684              140.58542360                1.00000000                2.62798878               -0.13078929               -0.05012939               32.15292986              305.81775514               -6.51161881
             319.38704736               67.79058988              123.41039059                1.00000000                0.06766065               21.18649794              -21.03748111               28.40393333              306.52978944               34.00198284
             320.14520836               64.55615134              106.24903268                1.00000000              -12.09288735               11.07946617               -0.00463604              -15.71909416               93.22632244               31.99968585
             321.14518961               60.74458117               87.22520276                1.00000000                0.02485952               -6.66037464               -0.01595644              -72.14629350                0.03771464              -14.70671580
             322.14570555               56.93272723               68.20083670                1.00000000                0.04305549               -2.33765404               -0.01480830              -99.54635020                0.03562586              -18.26281725
             323.14605072               53.12105919               49.17538900                1.00000000                0.03451680              -23.37390748                0.00789561             -121.25686554                0.03700193               37.28298981
             321.13902113               90.35756333              229.13531734                1.00000000              -70.65454511               -6.61287141               74.28776044                2.36760229              136.24170979               -5.30515543
             321.43247568               86.47792392              207.92079953                1.00000000              -96.51094744                2.16293899               44.29666908               12.46162483              193.81534123               -1.79310373
             321.20880218               82.73394975              188.63100178                1.00000000             -117.25051695                9.95339907               41.02213039               32.92150101              263.10574828               -0.91225517
             321.08746534               79.17508982              170.52332920                1.00000000              -93.59716882               10.60879705               29.93289605               52.93420214              289.89882293               -1.45413231
             321.33685881               75.77165921              153.17454816                1.00000000              -56.17285281                6.71807366               14.15587586               59.21663635              302.57920706               -1.82147093
             321.96400828               72.32997267              136.25446036                1.00000000              -19.08644135                8.28605470               -5.09551910               69.73656112              334.62131080              -19.71954377
             322.95512998               69.36663550              120.51324366                1.00000000               -0.41752057               28.80390184                0.01794509               30.26656145              164.06586682               92.86884453
             323.95565787               65.55600417              101.49275977                1.00000000                0.06301032               -0.02319360               -0.00396005               -0.03566546                0.07787618               -0.04089016
             324.95639018               61.74438693               82.47006559                1.00000000                0.07087301               -0.02765497               -0.00636733               -0.03496974                0.02385903                0.02044623
             325.95707533               57.93255785               63.44589192                1.00000000                0.04985300               -0.01811828               -0.00605676               -0.01512719                0.01936064               -0.00014018
             326.95738724               54.12082187               44.42073983                1.00000000                0.03119115               -0.02408230                0.00309090               -0.00530171                0.02223554                0.00255805
             325.03195965               91.24921472              225.14964683                1.00000000              -66.93225018              -14.82939901               76.04477770                7.01049963              134.87374731                0.36701628
             325.36263715               87.43619825              203.93494855                1.00000000              -92.26674296               -8.22165271               46.06977135               17.19465962              192.83835530                0.85891262
             325.18662479               83.76546877              184.60283551                1.00000000             -112.92752709               -0.94980964               42.98586111               35.12831587              260.75981992                0.96659025
             325.10408660               80.23307837              166.41083291                1.00000000              -91.13436661                2.41500253               31.76926443               50.63286605              286.29250904                0.45176902
             325.36393746               76.80472913              148.94870173                1.00000000              -58.02382620                2.45576303               15.66491813               64.52906658              299.25610652               -0.52805129
             325.94361008               73.52686794              131.93104964                1.00000000              -29.87951867               10.07120658               -1.40848646               83.82798882              315.72328455               13.67343276
             326.76634708               70.36666792              115.75857061                1.00000000               -8.84332282               -2.99397862                0.01072052               74.88417422              142.48624843              -42.23450978
             327.76674362               66.55568747               96.73736269                1.00000000                0.07947311               -0.60441057               -0.01848337               75.09035709                0.04133422               14.41874131
             328.76793655               62.74402807               77.71539671                1.00000000                0.11122210               -1.23145614               -0.02609383              108.42330847                0.06503317               33.78891553
             329.76896807               58.93236486               58.69143712                1.00000000                0.07400443                6.33040476               -0.02126789              141.91527085                0.04538308               20.71070283
             330.76941663               55.12057755               39.66614304                1.00000000                0.04485681              -17.08764189                0.00531657              163.60495336                0.03815752              -62.65679904
             328.90526407               92.06097535              221.12215568                1.00000000              -64.51492460              -21.05882687               77.36290828                9.98099021              133.96156441                6.32826776
             329.26011482               88.31349086              199.88425107                1.00000000              -89.53878478              -13.78614440               46.74127539               19.05420549              191.93099679                4.17043051
             329.11448837               84.71495356              180.50800652                1.00000000             -109.96262591               -6.56162854               43.64276603               33.95344142              258.98851277                3.35636964
             329.06086230               81.22338987              162.24422531                1.00000000              -89.04188987               -2.20393534               32.41871565               45.92672675              284.30515247                2.14287563
             329.33365058               77.82077447              144.69489134                1.00000000              -49.11165160               -0.34359728               17.46198597               58.28177200              296.02380050                2.67427753
             330.07862927               74.53139680              127.53479330                1.00000000                4.51716760               -4.57457629                1.62649265               76.70990262              292.00367332                7.06717596
             331.42399393               71.30675593              110.15885880                1.00000000               50.07377943              -17.59582331               -8.74108703               75.08348349              294.38347747              -25.76755527
             333.08010486               67.54391596               92.27134183                1.00000000               66.20925175               -3.65368006              -29.31596341               79.13206048              278.65678834                6.98947947
             334.74817896               63.71975781               73.63719168                1.00000000               66.93632057                5.14630957              -43.14327635              131.32216130              250.52203328               19.41063918
             336.41883127               60.05916594               54.35163429                1.00000000               55.24409897               10.28170193              -43.82286585              161.00029350              193.07699328               15.11861822
             337.85306094               55.77906904               33.65876033                1.00000000               43.42296695                0.21307646              -54.23241683              159.38184900              144.31219552             -109.98013765
             332.72654843               92.82803818              217.06986190                1.00000000              -63.68053829              -23.25101775               77.75391959               11.06960078              133.49752724               11.13610286
             333.08974305               89.16047536              195.79334636                1.00000000              -88.53769096              -14.47576299               46.41494060               18.18897042              191.06612132                7.11359635
             332.95579461               85.63423620              176.37017520                1.00000000             -108.64714092               -7.24153885               43.22266472               29.58308827              257.59996668                5.34904633
             332.91680023               82.18899967              158.04592487                1.00000000              -86.71143265               -3.08151825               32.25309960               37.06353868              282.29558081                3.69650885
             333.22156596               78.79785718              140.41462258                1.00000000              -46.24867796               -2.76284802               17.73993663               43.12331945              292.75957604                2.22989333
             333.99182667               75.43537641              123.07584012                1.00000000                1.69658148               -8.83789152                1.66997837               43.27750119              294.54813727               -1.71988343
             335.25549759               72.01475145              105.67527542                1.00000000               47.22781400              -20.09846436              -14.45551092               31.17562262              290.09831585               -1.08908683
             336.93638295               68.48261387               87.90254361                1.00000000               81.18161007               -7.16445557              -27.17540552               23.55825817              278.90316323                2.34878190
             338.87912979               64.84695426               69.44266970                1.00000000               99.66398768                5.88604640              -37.72533308               33.87227930              251.46091910                7.33296255
             340.92966271               61.13799890               49.95935213                1.00000000               81.90588169                6.84648946              -40.05140629               38.70928730              184.33299112                0.03864132
             342.51724743               57.12483908               28.66012153                1.00000000               58.75847195               32.51732408              -78.35887138               33.81268710              128.07633831              -38.07355871
             336.46178173               93.59595500              212.97680436                1.00000000              -64.40855160              -20.93998988               77.05339871               10.71435347              133.48519932               14.45318712
             336.81769621               90.02397560              191.65329528                1.00000000              -89.20779501              -10.71616692               45.16252157               15.17632795              190.36879836                9.13381147
             336.67762583               86.57012278              172.18568599                1.00000000             -108.95920597               -3.55058462               41.93579955               21.87863833              256.53279132                6.66180899
             336.63851210               83.16175950              153.81501926                1.00000000              -86.39428042               -0.55676179               31.21106185               23.82401345              280.95048477                4.39065160
             336.94974022               79.76551751              136.12933661                1.00000000              -45.56135336               -1.91636311               17.00324888               23.58126942              292.30161866                2.06491073
             337.72728503               76.35463897              118.75667921                1.00000000                2.52643490               -6.68256068                1.05709589               21.31574431              295.35872809                0.51483763
             339.00026892               72.90478664              101.35364274                1.00000000               49.58910924              -10.19813262              -14.62762801               17.82335585              291.59056600               -0.40850058
             340.71906721               69.40062685               83.58648857                1.00000000               88.49852985               -9.22496613              -28.76954569               15.80645720              279.08619748               -1.45145037
             342.77023952               65.83747873               65.11653065                1.00000000              109.80324950               -3.75823513              -39.35732477               16.71528378              254.18045353               -2.84832331
             344.91513220               62.19609573               45.55593821                1.00000000               89.26974078                4.45266468              -43.19212874               13.35714530              188.06327448               -6.81984382
             346.55563433               58.42941552               24.14608637                1.00000000               64.05021301               25.78680888              -77.03357355               11.24913466              132.62275085              -16.28759253
             340.08479429               94.40923839              208.80353175                1.00000000              -66.56924678              -14.74951927               75.38290498                9.53185715              133.97619527               16.09334076
             340.41910183               90.94615202              187.43028412                1.00000000              -91.46054054               -3.09635316               43.16808050               10.85176563              189.99559484                9.85772504
             340.25558348               87.56322451              167.92795390                1.00000000             -111.06080245                3.97320694               39.93428436               11.70306818              256.15719290                6.94919362
             340.19788578               84.17786443              149.53600355                1.00000000              -87.76358017                5.33409420               29.47187639                7.52200524              280.74436784                4.54290910
             340.50031188               80.75952992              131.84304400                1.00000000              -45.95066757                1.75941606               15.74248641                2.73159512              292.39453871                2.40521070
             341.27887243               77.30172520              114.47684917                1.00000000                3.28324735               -4.38999380                0.26950619               -0.80652062              295.62499126                0.48528184
             342.56597683               73.81078880               97.08996478                1.00000000               52.04737875              -10.11362703              -15.14469894               -2.11450429              291.76551056               -1.18183666
             344.31982000               70.29811455               79.34109658                1.00000000               92.59948806              -12.60978814              -28.64110582               -0.70158261              279.60055686               -2.57308060
             346.41796659               66.77178956               60.87149600                1.00000000              114.25244142               -9.83910862              -38.95469402                2.03848282              254.72498301               -4.22333615
             348.60486883               63.22705219               41.28574607                1.00000000               92.88119791               -0.32463830              -42.30986164                3.12130578              188.82646084               -6.68802167
             350.27559055               59.64057525               19.82898830                1.00000000               67.07217169               16.19024771              -75.50448588                4.25180735              133.35752535              -11.81974888
             343.57859160               95.30096461              204.48909606                1.00000000              -69.78461958               -6.73817616               73.22538131                7.93686311              135.04465618               15.40875768
             343.88074541               91.96204854              183.06734699                1.00000000              -94.93084090                7.33304415               40.67715320                6.38230030              190.22462463                8.73607344
             343.67997478               88.64958692              163.54989945                1.00000000             -114.40493093               14.63365180               37.30133661                0.73067230              257.07962605                5.96193992
             343.59264679               85.26844138              145.17457816                1.00000000              -89.97317119               13.57420879               27.12689420               -9.31047753              282.18672217                3.89112741
             343.88051136               81.80070583              127.52231364                1.00000000              -46.63755246                6.63708417               14.04939861              -17.43293080              294.14104149                2.03089322
             344.65989574               78.26683909              110.21233312                1.00000000                4.05390619               -2.89441704               -0.58674955              -21.70144129              297.50962290                0.30291901
             345.96158948               74.70251410               92.88668926                1.00000000               54.20695307              -12.16683763              -15.10373177              -21.49351824              293.61074865               -1.25837749
             347.74403480               71.14843109               75.19101747                1.00000000               96.02410212              -18.31789080              -27.88735715              -16.66663371              281.26069039               -2.67081017
             349.88207153               67.64069656               56.75477805                1.00000000              118.23689116              -17.98407837              -37.70015509               -8.25257110              256.10692761               -4.05189732
             352.10877262               64.18960296               37.17219196                1.00000000               96.57764173               -8.60964124              -40.85391393               -0.82967142              189.61382893               -5.92495877
             353.81362436               60.75322047               15.69132352                1.00000000               70.48517381                6.99291375              -73.49619226                2.95355608              134.67513708              -10.26208238
             346.92136370               96.27447486              199.94302980                1.00000000              -72.32381783               -0.93666584               71.02209099                4.95071057              136.91135430               10.43124777
             347.19812553               93.09281290              178.48162150                1.00000000              -97.87798094               17.35099169               37.89573633                2.37945888              192.14139924                4.93728373
             346.96380409               89.85589754              158.98349035                1.00000000             -116.87841022               25.62107848               33.94102426               -6.13043965              260.48362092                2.85447551
             346.86055732               86.44934861              140.67776611                1.00000000              -90.52742652               20.88741203               24.05384299              -17.46522389              286.63673093                1.77312899
             347.15325555               82.89227160              123.13350460                1.00000000              -45.87609958               10.52161856               11.92907349              -25.21803312              299.70447639                0.78783348
             347.94303533               79.24383686              105.95198777                1.00000000                5.06294569               -2.14362998               -1.39992239              -28.60517531              303.44605101               -0.01910963
             349.25451447               75.56745204               88.75734342                1.00000000               55.26347668              -14.53319539              -14.53800169              -27.74957541              299.14524771               -0.71721439
             351.04830486               71.93175673               71.17690117                1.00000000               97.86144109              -24.08001658              -26.13767303              -22.02899646              285.68518198               -1.37806517
             353.21174329               68.41210799               52.82102240                1.00000000              121.37233144              -27.49391180              -35.33131531              -11.54775998              259.50818523               -1.93983846
             355.47575149               65.05485937               33.27208411                1.00000000               99.78416825              -17.63236633              -38.71023359               -1.75831452              191.60184332               -3.28178982
             357.20742666               61.78043353               11.77003300                1.00000000               73.16751633                0.99821398              -71.80629371                2.11060500              136.45506278               -7.22084022
             350.04092973               97.28223130              195.04179101                1.00000000              -69.40178258                0.77564349               69.41679148               14.64031019              139.00683514               21.03442069
             350.34691190               94.30906837              173.56439123                1.00000000              -92.00497208               21.62554698               34.35058078                8.86749741              196.98849679               18.25183375
             350.20083029               91.16200849              154.12079291                1.00000000             -106.99718270               30.61109480               28.21333412               -7.44131722              274.07936603               16.92944792
             350.20696825               87.68618963              135.97181453                1.00000000              -80.95839191               23.68410178               19.43627508              -22.90242184              308.48753669               10.44965422
             350.58166245               84.01113820              118.63871379                1.00000000              -39.71782294               11.88665951                9.20965408              -30.27046708              325.41890955                4.93663928
             351.41261179               80.22396649              101.69100239                1.00000000                6.85078253               -1.98703610               -2.07580467              -33.00675435              330.26398216               -0.40455603
             352.71867810               76.41185019               84.73133419                1.00000000               52.30935667              -15.56018547              -13.03380910              -31.44042377              324.83187089               -5.61484612
             354.45879892               72.66683076               67.36534404                1.00000000               90.46677939              -26.49259746              -22.34008342              -25.00218719              307.45579521              -10.74970891
             356.52801369               69.09081833               49.17096238                1.00000000              112.32409352              -32.12896657              -29.81724721               -9.86671622              272.89969511              -16.65458591
             358.70528079               65.83695564               29.68136881                1.00000000               93.83372271              -21.79037321              -34.75178406                7.07125145              196.10163103              -17.32481005
             360.40468814               62.77318475                8.16853940                1.00000000               69.94073478               -0.72487787              -69.66930352               13.34905993              138.23458170              -19.20310479
         1          2         13         12        122        123        134        133  
         2          3         14         13        123        124        135        134  
         3          4         15         14        124        125        136        135  
         4          5         16         15        125        126        137        136  
         5          6         17         16        126        127        138        137  
         6          7         18         17        127        128        139        138  
         7          8         19         18        128        129        140        139  
         8          9         20         19        129        130        141        140  
         9         10         21         20        130        131        142        141  
        10         11         22         21        131        132        143        142  
        12         13         24         23        133        134        145        144  
        13         14         25         24        134        135        146        145  
        14         15         26         25        135        136        147        146  
        15         16         27         26        136        137        148        147  
        16         17         28         27        137        138        149        148  
        17         18         29         28        138        139        150        149  
        18         19         30         29        139        140        151        150  
        19         20         31         30        140        141        152        151  
        20         21         32         31        141        142        153        152  
        21         22         33         32        142        143        154        153  
        23         24         35         34        144        145        156        155  
        24         25         36         35        145        146        157        156  
        25         26         37         36        146        147        158        157  
        26         27         38         37        147        148        159        158  
        27         28         39         38        148        149        160        159  
        28         29         40         39        149        150        161        160  
        29         30         41         40        150        151        162        161  
        30         31         42         41        151        152        163        162  
        31         32         43         42        152        153        164        163  
        32         33         44         43        153        154        165        164  
        34         35         46         45        155        156        167        166  
        35         36         47         46        156        157        168        167  
        36         37         48         47        157        158        169        168  
        37         38         49         48        158        159        170        169  
        38         39         50         49        159        160        171        170  
        39         40         51         50        160        161        172        171  
        40         41         52         51        161        162        173        172  
        41         42         53         52        162        163        174        173  
        42         43         54         53        163        164        175        174  
        43         44         55         54        164        165        176        175  
        45         46         57         56        166        167        178        177  
        46         47         58         57        167        168        179        178  
        47         48         59         58        168        169        180        179  
        48         49         60         59        169        170        181        180  
        49         50         61         60        170        171        182        181  
        50         51         62         61        171        172        183        182  
        51         52         63         62        172        173        184        183  
        52         53         64         63        173        174        185        184  
        53         54         65         64        174        175        186        185  
        54         55         66         65        175        176        187        186  
        56         57         68         67        177        178        189        188  
        57         58         69         68        178        179        190        189  
        58         59         70         69        179        180        191        190  
        59         60         71         70        180        181        192        191  
        60         61         72         71        181        182        193        192  
        61         62         73         72        182        183        194        193  
        62         63         74         73        183        184        195        194  
        63         64         75         74        184        185        196        195  
        64         65         76         75        185        186        197        196  
        65         66         77         76        186        187        198        197  
        67         68         79         78        188        189        200        199  
        68         69         80         79        189        190        201        200  
        69         70         81         80        190        191        202        201  
        70         71         82         81        191        192        203        202  
        71         72         83         82        192        193        204        203  
        72         73         84         83        193        194        205        204  
        73         74         85         84        194        195        206        205  
        74         75         86         85        195        196        207        206  
        75         76         87         86        196        197        208        207  
        76         77         88         87        197        198        209        208  
        78         79         90         89        199        200        211        210  
        79         80         91         90        200        201        212        211  
        80         81         92         91        201        202        213        212  
        81         82         93         92        202        203        214        213  
        82         83         94         93        203        204        215        214  
        83         84         95         94        204        205        216        215  
        84         85         96         95        205        206        217        216  
        85         86         97         96        206        207        218        217  
        86         87         98         97        207        208        219        218  
        87         88         99         98        208        209        220        219  
        89         90        101        100        210        211        222        221  
        90         91        102        101        211        212        223        222  
        91         92        103        102        212        213        224        223  
        92         93        104        103        213        214        225        224  
        93         94        105        104        214        215        226        225  
        94         95        106        105        215        216        227        226  
        95         96        107        106        216        217        228        227  
        96         97        108        107        217        218        229        228  
        97         98        109        108        218        219        230        229  
        98         99        110        109        219        220        231        230  
       100        101        112        111        221        222        233        232  
       101        102        113        112        222        223        234        233  
       102        103        114        113        223        224        235        234  
       103        104        115        114        224        225        236        235  
       104        105        116        115        225        226        237        236  
       105        106        117        116        226        227        238        237  
       106        107        118        117        227        228        239        238  
       107        108        119        118        228        229        240        239  
       108        109        120        119        229        230        241        240  
       109        110        121        120        230        231        242        241  
       122        123        134        133        243        244        255        254  
       123        124        135        134        244        245        256        255  
       124        125        136        135        245        246        257        256  
       125        126        137        136        246        247        258        257  
       126        127        138        137        247        248        259        258  
       127        128        139        138        248        249        260        259  
       128        129        140        139        249        250        261        260  
       129        130        141        140        250        251        262        261  
       130        131        142        141        251        252        263        262  
       131        132        143        142        252        253        264        263  
       133        134        145        144        254        255        266        265  
       134        135        146        145        255        256        267        266  
       135        136        147        146        256        257        268        267  
       136        137        148        147        257        258        269        268  
       137        138        149        148        258        259        270        269  
       138        139        150        149        259        260        271        270  
       139        140        151        150        260        261        272        271  
       140        141        152        151        261        262        273        272  
       141        142        153        152        262        263        274        273  
       142        143        154        153        263        264        275        274  
       144        145        156        155        265        266        277        276  
       145        146        157        156        266        267        278        277  
       146        147        158        157        267        268        279        278  
       147        148        159        158        268        269        280        279  
       148        149        160        159        269        270        281        280  
       149        150        161        160        270        271        282        281  
       150        151        162        161        271        272        283        282  
       151        152        163        162        272        273        284        283  
       152        153        164        163        273        274        285        284  
       153        154        165        164        274        275        286        285  
       155        156        167        166        276        277        288        287  
       156        157        168        167        277        278        289        288  
       157        158        169        168        278        279        290        289  
       158        159        170        169        279        280        291        290  
       159        160        171        170        280        281        292        291  
       160        161        172        171        281        282        293        292  
       161        162        173        172        282        283        294        293  
       162        163        174        173        283        284        295        294  
       163        164        175        174        284        285        296        295  
       164        165        176        175        285        286        297        296  
       166        167        178        177        287        288        299        298  
       167        168        179        178        288        289        300        299  
       168        169        180        179        289        290        301        300  
       169        170        181        180        290        291        302        301  
       170        171        182        181        291        292        303        302  
       171        172        183        182        292        293        304        303  
       172        173        184        183        293        294        305        304  
       173        174        185        184        294        295        306        305  
       174        175        186        185        295        296        307        306  
       175        176        187        186        296        297        308        307  
       177        178        189        188        298        299        310        309  
       178        179        190        189        299        300        311        310  
       179        180        191        190        300        301        312        311  
       180        181        192        191        301        302        313        312  
       181        182        193        192        302        303        314        313  
       182        183        194        193        303        304        315        314  
       183        184        195        194        304        305        316        315  
       184        185        196        195        305        306        317        316  
       185        186        197        196        306        307        318        317  
       186        187        198        197        307        308        319        318  
       188        189        200        199        309        310        321        320  
       189        190        201        200        310        311        322        321  
       190        191        202        201        311        312        323        322  
       191        192        203        202        312        313        324        323  
       192        193        204        203        313        314        325        324  
       193        194        205        204        314        315        326        325  
       194        195        206        205        315        316        327        326  
       195        196        207        206        316        317        328        327  
       196        197        208        207        317        318        329        328  
       197        198        209        208        318        319        330        329  
       199        200        211        210        320        321        332        331  
       200        201        212        211        321        322        333        332  
       201        202        213        212        322        323        334        333  
       202        203        214        213        323        324        335        334  
       203        204        215        214        324        325        336        335  
       204        205        216        215        325        326        337        336  
       205        206        217        216        326        327        338        337  
       206        207        218        217        327        328        339        338  
       207        208        219        218        328        329        340        339  
       208        209        220        219        329        330        341        340  
       210        211        222        221        331        332        343        342  
       211        212        223        222        332        333        344        343  
       212        213        224        223        333        334        345        344  
       213        214        225        224        334        335        346        345  
       214        215        226        225        335        336        347        346  
       215        216        227        226        336        337        348        347  
       216        217        228        227        337        338        349        348  
       217        218        229        228        338        339        350        349  
       218        219        230        229        339        340        351        350  
       219        220        231        230        340        341        352        351  
       221        222        233        232        342        343        354        353  
       222        223        234        233        343        344        355        354  
       223        224        235        234        344        345        356        355  
       224        225        236        235        345        346        357        356  
       225        226        237        236        346        347        358        357  
       226        227        238        237        347        348        359        358  
       227        228        239        238        348        349        360        359  
       228        229        240        239        349        350        361        360  
       229        230        241        240        350        351        362        361  
       230        231        242        241        351        352        363        362  
       243        244        255        254        364        365        376        375  
       244        245        256        255        365        366        377        376  
       245        246        257        256        366        367        378        377  
       246        247        258        257        367        368        379        378  
       247        248        259        258        368        369        380        379  
       248        249        260        259        369        370        381        380  
       249        250        261        260        370        371        382        381  
       250        251        262        261        371        372        383        382  
       251        252        263        262        372        373        384        383  
       252        253        264        263        373        374        385        384  
       254        255        266        265        375        376        387        386  
       255        256        267        266        376        377        388        387  
       256        257        268        267        377        378        389        388  
       257        258        269        268        378        379        390        389  
       258        259        270        269        379        380        391        390  
       259        260        271        270        380        381        392        391  
       260        261        272        271        381        382        393        392  
       261        262        273        272        382        383        394        393  
       262        263        274        273        383        384        395        394  
       263        264        275        274        384        385        396        395  
       265        266        277        276        386        387        398        397  
       266        267        278        277        387        388        399        398  
       267        268        279        278        388        389        400        399  
       268        269        280        279        389        390        401        400  
       269        270        281        280        390        391        402        401  
       270        271        282        281        391        392        403        402  
       271        272        283        282        392        393        404        403  
       272        273        284        283        393        394        405        404  
       273        274        285        284        394        395        406        405  
       274        275        286        285        395        396        407        406  
       276        277        288        287        397        398        409        408  
       277        278        289        288        398        399        410        409  
       278        279        290        289        399        400        411        410  
       279        280        291        290        400        401        412        411  
       280        281        292        291        401        402        413        412  
       281        282        293        292        402        403        414        413  
       282        283        294        293        403        404        415        414  
       283        284        295        294        404        405        416        415  
       284        285        296        295        405        406        417        416  
       285        286        297        296        406        407        418        417  
       287        288        299        298        408        409        420        419  
       288        289        300        299        409        410        421        420  
       289        290        301        300        410        411        422        421  
       290        291        302        301        411        412        423        422  
       291        292        303        302        412        413        424        423  
       292        293        304        303        413        414        425        424  
       293        294        305        304        414        415        426        425  
       294        295        306        305        415        416        427        426  
       295        296        307        306        416        417        428        427  
       296        297        308        307        417        418        429        428  
       298        299        310        309        419        420        431        430  
       299        300        311        310        420        421        432        431  
       300        301        312        311        421        422        433        432  
       301        302        313        312        422        423        434        433  
       302        303        314        313        423        424        435        434  
       303        304        315        314        424        425        436        435  
       304        305        316        315        425        426        437        436  
       305        306        317        316        426        427        438        437  
       306        307        318        317        427        428        439        438  
       307        308        319        318        428        429        440        439  
       309        310        321        320        430        431        442        441  
       310        311        322        321        431        432        443        442  
       311        312        323        322        432        433        444        443  
       312        313        324        323        433        434        445        444  
       313        314        325        324        434        435        446        445  
       314        315        326        325        435        436        447        446  
       315        316        327        326        436        437        448        447  
       316        317        328        327        437        438        449        448  
       317        318        329        328        438        439        450        449  
       318        319        330        329        439        440        451        450  
       320        321        332        331        441        442        453        452  
       321        322        333        332        442        443        454        453  
       322        323        334        333        443        444        455        454  
       323        324        335        334        444        445        456        455  
       324        325        336        335        445        446        457        456  
       325        326        337        336        446        447        458        457  
       326        327        338        337        447        448        459        458  
       327        328        339        338        448        449        460        459  
       328        329        340        339        449        450        461        460  
       329        330        341        340        450        451        462        461  
       331        332        343        342        452        453        464        463  
       332        333        344        343        453        454        465        464  
       333        334        345        344        454        455        466        465  
       334        335        346        345        455        456        467        466  
       335        336        347        346        456        457        468        467  
       336        337        348        347        457        458        469        468  
       337        338        349        348        458        459        470        469  
       338        339        350        349        459        460        471        470  
       339        340        351        350        460        461        472        471  
       340        341        352        351        461        462        473        472  
       342        343        354        353        463        464        475        474  
       343        344        355        354        464        465        476        475  
       344        345        356        355        465        466        477        476  
       345        346        357        356        466        467        478        477  
       346        347        358        357        467        468        479        478  
       347        348        359        358        468        469        480        479  
       348        349        360        359        469        470        481        480  
       349        350        361        360        470        471        482        481  
       350        351        362        361        471        472        483        482  
       351        352        363        362        472        473        484        483  
       364        365        376        375        485        486        497        496  
       365        366        377        376        486        487        498        497  
       366        367        378        377        487        488        499        498  
       367        368        379        378        488        489        500        499  
       368        369        380        379        489        490        501        500  
       369        370        381        380        490        491        502        501  
       370        371        382        381        491        492        503        502  
       371        372        383        382        492        493        504        503  
       372        373        384        383        493        494        505        504  
       373        374        385        384        494        495        506        505  
       375        376        387        386        496        497        508        507  
       376        377        388        387        497        498        509        508  
       377        378        389        388        498        499        510        509  
       378        379        390        389        499        500        511        510  
       379        380        391        390        500        501        512        511  
       380        381        392        391        501        502        513        512  
       381        382        393        392        502        503        514        513  
       382        383        394        393        503        504        515        514  
       383        384        395        394        504        505        516        515  
       384        385        396        395        505        506        517        516  
       386        387        398        397        507        508        519        518  
       387        388        399        398        508        509        520        519  
       388        389        400        399        509        510        521        520  
       389        390        401        400        510        511        522        521  
       390        391        402        401        511        512        523        522  
       391        392        403        402        512        513        524        523  
       392        393        404        403        513        514        525        524  
       393        394        405        404        514        515        526        525  
       394        395        406        405        515        516        527        526  
       395        396        407        406        516        517        528        527  
       397        398        409        408        518        519        530        529  
       398        399        410        409        519        520        531        530  
       399        400        411        410        520        521        532        531  
       400        401        412        411        521        522        533        532  
       401        402        413        412        522        523        534        533  
       402        403        414        413        523        524        535        534  
       403        404        415        414        524        525        536        535  
       404        405        416        415        525        526        537        536  
       405        406        417        416        526        527        538        537  
       406        407        418        417        527        528        539        538  
       408        409        420        419        529        530        541        540  
       409        410        421        420        530        531        542        541  
       410        411        422        421        531        532        543        542  
       411        412        423        422        532        533        544        543  
       412        413        424        423        533        534        545        544  
       413        414        425        424        534        535        546        545  
       414        415        426        425        535        536        547        546  
       415        416        427        426        536        537        548        547  
       416        417        428        427        537        538        549        548  
       417        418        429        428        538        539        550        549  
       419        420        431        430        540        541        552        551  
       420        421        432        431        541        542        553        552  
       421        422        433        432        542        543        554        553  
       422        423        434        433        543        544        555        554  
       423        424        435        434        544        545        556        555  
       424        425        436        435        545        546        557        556  
       425        426        437        436        546        547        558        557  
       426        427        438        437        547        548        559        558  
       427        428        439        438        548        549        560        559  
       428        429        440        439        549        550        561        560  
       430        431        442        441        551        552        563        562  
       431        432        443        442        552        553        564        563  
       432        433        444        443        553        554        565        564  
       433        434        445        444        554        555        566        565  
       434        435        446        445        555        556        567        566  
       435        436        447        446        556        557        568        567  
       436        437        448        447        557        558        569        568  
       437        438        449        448        558        559        570        569  
       438        439        450        449        559        560        571        570  
       439        440        451        450        560        561        572        571  
       441        442        453        452        562        563        574        573  
       442        443        454        453        563        564        575        574  
       443        444        455        454        564        565        576        575  
       444        445        456        455        565        566        577        576  
       445        446        457        456        566        567        578        577  
       446        447        458        457        567        568        579        578  
       447        448        459        458        568        569        580        579  
       448        449        460        459        569        570        581        580  
       449        450        461        460        570        571        582        581  
       450        451        462        461        571        572        583        582  
       452        453        464        463        573        574        585        584  
       453        454        465        464        574        575        586        585  
       454        455        466        465        575        576        587        586  
       455        456        467        466        576        577        588        587  
       456        457        468        467        577        578        589        588  
       457        458        469        468        578        579        590        589  
       458        459        470        469        579        580        591        590  
       459        460        471        470        580        581        592        591  
       460        461        472        471        581        582        593        592  
       461        462        473        472        582        583        594        593  
       463        464        475        474        584        585        596        595  
       464        465        476        475        585        586        597        596  
       465        466        477        476        586        587        598        597  
       466        467        478        477        587        588        599        598  
       467        468        479        478        588        589        600        599  
       468        469        480        479        589        590        601        600  
       469        470        481        480        590        591        602        601  
       470        471        482        481        591        592        603        602  
       471        472        483        482        592        593        604        603  
       472        473        484        483        593        594        605        604  
       485        486        497        496        606        607        618        617  
       486        487        498        497        607        608        619        618  
       487        488        499        498        608        609        620        619  
       488        489        500        499        609        610        621        620  
       489        490        501        500        610        611        622        621  
       490        491        502        501        611        612        623        622  
       491        492        503        502        612        613        624        623  
       492        493        504        503        613        614        625        624  
       493        494        505        504        614        615        626        625  
       494        495        506        505        615        616        627        626  
       496        497        508        507        617        618        629        628  
       497        498        509        508        618        619        630        629  
       498        499        510        509        619        620        631        630  
       499        500        511        510        620        621        632        631  
       500        501        512        511        621        622        633        632  
       501        502        513        512        622        623        634        633  
       502        503        514        513        623        624        635        634  
       503        504        515        514        624        625        636        635  
       504        505        516        515        625        626        637        636  
       505        506        517        516        626        627        638        637  
       507        508        519        518        628        629        640        639  
       508        509        520        519        629        630        641        640  
       509        510        521        520        630        631        642        641  
       510        511        522        521        631        632        643        642  
       511        512        523        522        632        633        644        643  
       512        513        524        523        633        634        645        644  
       513        514        525        524        634        635        646        645  
       514        515        526        525        635        636        647        646  
       515        516        527        526        636        637        648        647  
       516        517        528        527        637        638        649        648  
       518        519        530        529        639        640        651        650  
       519        520        531        530        640        641        652        651  
       520        521        532        531        641        642        653        652  
       521        522        533        532        642        643        654        653  
       522        523        534        533        643        644        655        654  
       523        524        535        534        644        645        656        655  
       524        525        536        535        645        646        657        656  
       525        526        537        536        646        647        658        657  
       526        527        538        537        647        648        659        658  
       527        528        539        538        648        649        660        659  
       529        530        541        540        650        651        662        661  
       530        531        542        541        651        652        663        662  
       531        532        543        542        652        653        664        663  
       532        533        544        543        653        654        665        664  
       533        534        545        544        654        655        666        665  
       534        535        546        545        655        656        667        666  
       535        536        547        546        656        657        668        667  
       536        537        548        547        657        658        669        668  
       537        538        549        548        658        659        670        669  
       538        539        550        549        659        660        671        670  
       540        541        552        551        661        662        673        672  
       541        542        553        552        662        663        674        673  
       542        543        554        553        663        664        675        674  
       543        544        555        554        664        665        676        675  
       544        545        556        555        665        666        677        676  
       545        546        557        556        666        667        678        677  
       546        547        558        557        667        668        679        678  
       547        548        559        558        668        669        680        679  
       548        549        560        559        669        670        681        680  
       549        550        561        560        670        671        682        681  
       551        552        563        562        672        673        684        683  
       552        553        564        563        673        674        685        684  
       553        554        565        564        674        675        686        685  
       554        555        566        565        675        676        687        686  
       555        556        567        566        676        677        688        687  
       556        557        568        567        677        678        689        688  
       557        558        569        568        678        679        690        689  
       558        559        570        569        679        680        691        690  
       559        560        571        570        680        681        692        691  
       560        561        572        571        681        682        693        692  
       562        563        574        573        683        684        695        694  
       563        564        575        574        684        685        696        695  
       564        565        576        575        685        686        697        696  
       565        566        577        576        686        687        698        697  
       566        567        578        577        687        688        699        698  
       567        568        579        578        688        689        700        699  
       568        569        580        579        689        690        701        700  
       569        570        581        580        690        691        702        701  
       570        571        582        581        691        692        703        702  
       571        572        583        582        692        693        704        703  
       573        574        585        584        694        695        706        705  
       574        575        586        585        695        696        707        706  
       575        576        587        586        696        697        708        707  
       576        577        588        587        697        698        709        708  
       577        578        589        588        698        699        710        709  
       578        579        590        589        699        700        711        710  
       579        580        591        590        700        701        712        711  
       580        581        592        591        701        702        713        712  
       581        582        593        592        702        703        714        713  
       582        583        594        593        703        704        715        714  
       584        585        596        595        705        706        717        716  
       585        586        597        596        706        707        718        717  
       586        587        598        597        707        708        719        718  
       587        588        599        598        708        709        720        719  
       588        589        600        599        709        710        721        720  
       589        590        601        600        710        711        722        721  
       590        591        602        601        711        712        723        722  
       591        592        603        602        712        713        724        723  
       592        593        604        603        713        714        725        724  
       593        594        605        604        714        715        726        725  
       606        607        618        617        727        728        739        738  
       607        608        619        618        728        729        740        739  
       608        609        620        619        729        730        741        740  
       609        610        621        620        730        731        742        741  
       610        611        622        621        731        732        743        742  
       611        612        623        622        732        733        744        743  
       612        613        624        623        733        734        745        744  
       613        614        625        624        734        735        746        745  
       614        615        626        625        735        736        747        746  
       615        616        627        626        736        737        748        747  
       617        618        629        628        738        739        750        749  
       618        619        630        629        739        740        751        750  
       619        620        631        630        740        741        752        751  
       620        621        632        631        741        742        753        752  
       621        622        633        632        742        743        754        753  
       622        623        634        633        743        744        755        754  
       623        624        635        634        744        745        756        755  
       624        625        636        635        745        746        757        756  
       625        626        637        636        746        747        758        757  
       626        627        638        637        747        748        759        758  
       628        629        640        639        749        750        761        760  
       629        630        641        640        750        751        762        761  
       630        631        642        641        751        752        763        762  
       631        632        643        642        752        753        764        763  
       632        633        644        643        753        754        765        764  
       633        634        645        644        754        755        766        765  
       634        635        646        645        755        756        767        766  
       635        636        647        646        756        757        768        767  
       636        637        648        647        757        758        769        768  
       637        638        649        648        758        759        770        769  
       639        640        651        650        760        761        772        771  
       640        641        652        651        761        762        773        772  
       641        642        653        652        762        763        774        773  
       642        643        654        653        763        764        775        774  
       643        644        655        654        764        765        776        775  
       644        645        656        655        765        766        777        776  
       645        646        657        656        766        767        778        777  
       646        647        658        657        767        768        779        778  
       647        648        659        658        768        769        780        779  
       648        649        660        659        769        770        781        780  
       650        651        662        661        771        772        783        782  
       651        652        663        662        772        773        784        783  
       652        653        664        663        773        774        785        784  
       653        654        665        664        774        775        786        785  
       654        655        666        665        775        776        787        786  
       655        656        667        666        776        777        788        787  
       656        657        668        667        777        778        789        788  
       657        658        669        668        778        779        790        789  
       658        659        670        669        779        780        791        790  
       659        660        671        670        780        781        792        791  
       661        662        673        672        782        783        794        793  
       662        663        674        673        783        784        795        794  
       663        664        675        674        784        785        796        795  
       664        665        676        675        785        786        797        796  
       665        666        677        676        786        787        798        797  
       666        667        678        677        787        788        799        798  
       667        668        679        678        788        789        800        799  
       668        669        680        679        789        790        801        800  
       669        670        681        680        790        791        802        801  
       670        671        682        681        791        792        803        802  
       672        673        684        683        793        794        805        804  
       673        674        685        684        794        795        806        805  
       674        675        686        685        795        796        807        806  
       675        676        687        686        796        797        808        807  
       676        677        688        687        797        798        809        808  
       677        678        689        688        798        799        810        809  
       678        679        690        689        799        800        811        810  
       679        680        691        690        800        801        812        811  
       680        681        692        691        801        802        813        812  
       681        682        693        692        802        803        814        813  
       683        684        695        694        804        805        816        815  
       684        685        696        695        805        806        817        816  
       685        686        697        696        806        807        818        817  
       686        687        698        697        807        808        819        818  
       687        688        699        698        808        809        820        819  
       688        689        700        699        809        810        821        820  
       689        690        701        700        810        811        822        821  
       690        691        702        701        811        812        823        822  
       691        692        703        702        812        813        824        823  
       692        693        704        703        813        814        825        824  
       694        695        706        705        815        816        827        826  
       695        696        707        706        816        817        828        827  
       696        697        708        707        817        818        829        828  
       697        698        709        708        818        819        830        829  
       698        699        710        709        819        820        831        830  
       699        700        711        710        820        821        832        831  
       700        701        712        711        821        822        833        832  
       701        702        713        712        822        823        834        833  
       702        703        714        713        823        824        835        834  
       703        704        715        714        824        825        836        835  
       705        706        717        716        826        827        838        837  
       706        707        718        717        827        828        839        838  
       707        708        719        718        828        829        840        839  
       708        709        720        719        829        830        841        840  
       709        710        721        720        830        831        842        841  
       710        711        722        721        831        832        843        842  
       711        712        723        722        832        833        844        843  
       712        713        724        723        833        834        845        844  
       713        714        725        724        834        835        846        845  
       714        715        726        725        835        836        847        846  
       727        728        739        738        848        849        860        859  
       728        729        740        739        849        850        861        860  
       729        730        741        740        850        851        862        861  
       730        731        742        741        851        852        863        862  
       731        732        743        742        852        853        864        863  
       732        733        744        743        853        854        865        864  
       733        734        745        744        854        855        866        865  
       734        735        746        745        855        856        867        866  
       735        736        747        746        856        857        868        867  
       736        737        748        747        857        858        869        868  
       738        739        750        749        859        860        871        870  
       739        740        751        750        860        861        872        871  
       740        741        752        751        861        862        873        872  
       741        742        753        752        862        863        874        873  
       742        743        754        753        863        864        875        874  
       743        744        755        754        864        865        876        875  
       744        745        756        755        865        866        877        876  
       745        746        757        756        866        867        878        877  
       746        747        758        757        867        868        879        878  
       747        748        759        758        868        869        880        879  
       749        750        761        760        870        871        882        881  
       750        751        762        761        871        872        883        882  
       751        752        763        762        872        873        884        883  
       752        753        764        763        873        874        885        884  
       753        754        765        764        874        875        886        885  
       754        755        766        765        875        876        887        886  
       755        756        767        766        876        877        888        887  
       756        757        768        767        877        878        889        888  
       757        758        769        768        878        879        890        889  
       758        759        770        769        879        880        891        890  
       760        761        772        771        881        882        893        892  
       761        762        773        772        882        883        894        893  
       762        763        774        773        883        884        895        894  
       763        764        775        774        884        885        896        895  
       764        765        776        775        885        886        897        896  
       765        766        777        776        886        887        898        897  
       766        767        778        777        887        888        899        898  
       767        768        779        778        888        889        900        899  
       768        769        780        779        889        890        901        900  
       769        770        781        780        890        891        902        901  
       771        772        783        782        892        893        904        903  
       772        773        784        783        893        894        905        904  
       773        774        785        784        894        895        906        905  
       774        775        786        785        895        896        907        906  
       775        776        787        786        896        897        908        907  
       776        777        788        787        897        898        909        908  
       777        778        789        788        898        899        910        909  
       778        779        790        789        899        900        911        910  
       779        780        791        790        900        901        912        911  
       780        781        792        791        901        902        913        912  
       782        783        794        793        903        904        915        914  
       783        784        795        794        904        905        916        915  
       784        785        796        795        905        906        917        916  
       785        786        797        796        906        907        918        917  
       786        787        798        797        907        908        919        918  
       787        788        799        798        908        909        920        919  
       788        789        800        799        909        910        921        920  
       789        790        801        800        910        911        922        921  
       790        791        802        801        911        912        923        922  
       791        792        803        802        912        913        924        923  
       793        794        805        804        914        915        926        925  
       794        795        806        805        915        916        927        926  
       795        796        807        806        916        917        928        927  
       796        797        808        807        917        918        929        928  
       797        798        809        808        918        919        930        929  
       798        799        810        809        919        920        931        930  
       799        800        811        810        920        921        932        931  
       800        801        812        811        921        922        933        932  
       801        802        813        812        922        923        934        933  
       802        803        814        813        923        924        935        934  
       804        805        816        815        925        926        937        936  
       805        806        817        816        926        927        938        937  
       806        807        818        817        927        928        939        938  
       807        808        819        818        928        929        940        939  
       808        809        820        819        929        930        941        940  
       809        810        821        820        930        931        942        941  
       810        811        822        821        931        932        943        942  
       811        812        823        822        932        933        944        943  
       812        813        824        823        933        934        945        944  
       813        814        825        824        934        935        946        945  
       815        816        827        826        936        937        948        947  
       816        817        828        827        937        938        949        948  
       817        818        829        828        938        939        950        949  
       818        819        830        829        939        940        951        950  
       819        820        831        830        940        941        952        951  
       820        821        832        831        941        942        953        952  
       821        822        833        832        942        943        954        953  
       822        823        834        833        943        944        955        954  
       823        824        835        834        944        945        956        955  
       824        825        836        835        945        946        957        956  
       826        827        838        837        947        948        959        958  
       827        828        839        838        948        949        960        959  
       828        829        840        839        949        950        961        960  
       829        830        841        840        950        951        962        961  
       830        831        842        841        951        952        963        962  
       831        832        843        842        952        953        964        963  
       832        833        844        843        953        954        965        964  
       833        834        845        844        954        955        966        965  
       834        835        846        845        955        956        967        966  
       835        836        847        846        956        957        968        967  
       848        849        860        859        969        970        981        980  
       849        850        861        860        970        971        982        981  
       850        851        862        861        971        972        983        982  
       851        852        863        862        972        973        984        983  
       852        853        864        863        973        974        985        984  
       853        854        865        864        974        975        986        985  
       854        855        866        865        975        976        987        986  
       855        856        867        866        976        977        988        987  
       856        857        868        867        977        978        989        988  
       857        858        869        868        978        979        990        989  
       859        860        871        870        980        981        992        991  
       860        861        872        871        981        982        993        992  
       861        862        873        872        982        983        994        993  
       862        863        874        873        983        984        995        994  
       863        864        875        874        984        985        996        995  
       864        865        876        875        985        986        997        996  
       865        866        877        876        986        987        998        997  
       866        867        878        877        987        988        999        998  
       867        868        879        878        988        989       1000        999  
       868        869        880        879        989        990       1001       1000  
       870        871        882        881        991        992       1003       1002  
       871        872        883        882        992        993       1004       1003  
       872        873        884        883        993        994       1005       1004  
       873        874        885        884        994        995       1006       1005  
       874        875        886        885        995        996       1007       1006  
       875        876        887        886        996        997       1008       1007  
       876        877        888        887        997        998       1009       1008  
       877        878        889        888        998        999       1010       1009  
       878        879        890        889        999       1000       1011       1010  
       879        880        891        890       1000       1001       1012       1011  
       881        882        893        892       1002       1003       1014       1013  
       882        883        894        893       1003       1004       1015       1014  
       883        884        895        894       1004       1005       1016       1015  
       884        885        896        895       1005       1006       1017       1016  
       885        886        897        896       1006       1007       1018       1017  
       886        887        898        897       1007       1008       1019       1018  
       887        888        899        898       1008       1009       1020       1019  
       888        889        900        899       1009       1010       1021       1020  
       889        890        901        900       1010       1011       1022       1021  
       890        891        902        901       1011       1012       1023       1022  
       892        893        904        903       1013       1014       1025       1024  
       893        894        905        904       1014       1015       1026       1025  
       894        895        906        905       1015       1016       1027       1026  
       895        896        907        906       1016       1017       1028       1027  
       896        897        908        907       1017       1018       1029       1028  
       897        898        909        908       1018       1019       1030       1029  
       898        899        910        909       1019       1020       1031       1030  
       899        900        911        910       1020       1021       1032       1031  
       900        901        912        911       1021       1022       1033       1032  
       901        902        913        912       1022       1023       1034       1033  
       903        904        915        914       1024       1025       1036       1035  
       904        905        916        915       1025       1026       1037       1036  
       905        906        917        916       1026       1027       1038       1037  
       906        907        918        917       1027       1028       1039       1038  
       907        908        919        918       1028       1029       1040       1039  
       908        909        920        919       1029       1030       1041       1040  
       909        910        921        920       1030       1031       1042       1041  
       910        911        922        921       1031       1032       1043       1042  
       911        912        923        922       1032       1033       1044       1043  
       912        913        924        923       1033       1034       1045       1044  
       914        915        926        925       1035       1036       1047       1046  
       915        916        927        926       1036       1037       1048       1047  
       916        917        928        927       1037       1038       1049       1048  
       917        918        929        928       1038       1039       1050       1049  
       918        919        930        929       1039       1040       1051       1050  
       919        920        931        930       1040       1041       1052       1051  
       920        921        932        931       1041       1042       1053       1052  
       921        922        933        932       1042       1043       1054       1053  
       922        923        934        933       1043       1044       1055       1054  
       923        924        935        934       1044       1045       1056       1055  
       925        926        937        936       1046       1047       1058       1057  
       926        927        938        937       1047       1048       1059       1058  
       927        928        939        938       1048       1049       1060       1059  
       928        929        940        939       1049       1050       1061       1060  
       929        930        941        940       1050       1051       1062       1061  
       930        931        942        941       1051       1052       1063       1062  
       931        932        943        942       1052       1053       1064       1063  
       932        933        944        943       1053       1054       1065       1064  
       933        934        945        944       1054       1055       1066       1065  
       934        935        946        945       1055       1056       1067       1066  
       936        937        948        947       1057       1058       1069       1068  
       937        938        949        948       1058       1059       1070       1069  
       938        939        950        949       1059       1060       1071       1070  
       939        940        951        950       1060       1061       1072       1071  
       940        941        952        951       1061       1062       1073       1072  
       941        942        953        952       1062       1063       1074       1073  
       942        943        954        953       1063       1064       1075       1074  
       943        944        955        954       1064       1065       1076       1075  
       944        945        956        955       1065       1066       1077       1076  
       945        946        957        956       1066       1067       1078       1077  
       947        948        959        958       1068       1069       1080       1079  
       948        949        960        959       1069       1070       1081       1080  
       949        950        961        960       1070       1071       1082       1081  
       950        951        962        961       1071       1072       1083       1082  
       951        952        963        962       1072       1073       1084       1083  
       952        953        964        963       1073       1074       1085       1084  
       953        954        965        964       1074       1075       1086       1085  
       954        955        966        965       1075       1076       1087       1086  
       955        956        967        966       1076       1077       1088       1087  
       956        957        968        967       1077       1078       1089       1088  
       969        970        981        980       1090       1091       1102       1101  
       970        971        982        981       1091       1092       1103       1102  
       971        972        983        982       1092       1093       1104       1103  
       972        973        984        983       1093       1094       1105       1104  
       973        974        985        984       1094       1095       1106       1105  
       974        975        986        985       1095       1096       1107       1106  
       975        976        987        986       1096       1097       1108       1107  
       976        977        988        987       1097       1098       1109       1108  
       977        978        989        988       1098       1099       1110       1109  
       978        979        990        989       1099       1100       1111       1110  
       980        981        992        991       1101       1102       1113       1112  
       981        982        993        992       1102       1103       1114       1113  
       982        983        994        993       1103       1104       1115       1114  
       983        984        995        994       1104       1105       1116       1115  
       984        985        996        995       1105       1106       1117       1116  
       985        986        997        996       1106       1107       1118       1117  
       986        987        998        997       1107       1108       1119       1118  
       987        988        999        998       1108       1109       1120       1119  
       988        989       1000        999       1109       1110       1121       1120  
       989        990       1001       1000       1110       1111       1122       1121  
       991        992       1003       1002       1112       1113       1124       1123  
       992        993       1004       1003       1113       1114       1125       1124  
       993        994       1005       1004       1114       1115       1126       1125  
       994        995       1006       1005       1115       1116       1127       1126  
       995        996       1007       1006       1116       1117       1128       1127  
       996        997       1008       1007       1117       1118       1129       1128  
       997        998       1009       1008       1118       1119       1130       1129  
       998        999       1010       1009       1119       1120       1131       1130  
       999       1000       1011       1010       1120       1121       1132       1131  
      1000       1001       1012       1011       1121       1122       1133       1132  
      1002       1003       1014       1013       1123       1124       1135       1134  
      1003       1004       1015       1014       1124       1125       1136       1135  
      1004       1005       1016       1015       1125       1126       1137       1136  
      1005       1006       1017       1016       1126       1127       1138       1137  
      1006       1007       1018       1017       1127       1128       1139       1138  
      1007       1008       1019       1018       1128       1129       1140       1139  
      1008       1009       1020       1019       1129       1130       1141       1140  
      1009       1010       1021       1020       1130       1131       1142       1141  
      1010       1011       1022       1021       1131       1132       1143       1142  
      1011       1012       1023       1022       1132       1133       1144       1143  
      1013       1014       1025       1024       1134       1135       1146       1145  
      1014       1015       1026       1025       1135       1136       1147       1146  
      1015       1016       1027       1026       1136       1137       1148       1147  
      1016       1017       1028       1027       1137       1138       1149       1148  
      1017       1018       1029       1028       1138       1139       1150       1149  
      1018       1019       1030       1029       1139       1140       1151       1150  
      1019       1020       1031       1030       1140       1141       1152       1151  
      1020       1021       1032       1031       1141       1142       1153       1152  
      1021       1022       1033       1032       1142       1143       1154       1153  
      1022       1023       1034       1033       1143       1144       1155       1154  
      1024       1025       1036       1035       1145       1146       1157       1156  
      1025       1026       1037       1036       1146       1147       1158       1157  
      1026       1027       1038       1037       1147       1148       1159       1158  
      1027       1028       1039       1038       1148       1149       1160       1159  
      1028       1029       1040       1039       1149       1150       1161       1160  
      1029       1030       1041       1040       1150       1151       1162       1161  
      1030       1031       1042       1041       1151       1152       1163       1162  
      1031       1032       1043       1042       1152       1153       1164       1163  
      1032       1033       1044       1043       1153       1154       1165       1164  
      1033       1034       1045       1044       1154       1155       1166       1165  
      1035       1036       1047       1046       1156       1157       1168       1167  
      1036       1037       1048       1047       1157       1158       1169       1168  
      1037       1038       1049       1048       1158       1159       1170       1169  
      1038       1039       1050       1049       1159       1160       1171       1170  
      1039       1040       1051       1050       1160       1161       1172       1171  
      1040       1041       1052       1051       1161       1162       1173       1172  
      1041       1042       1053       1052       1162       1163       1174       1173  
      1042       1043       1054       1053       1163       1164       1175       1174  
      1043       1044       1055       1054       1164       1165       1176       1175  
      1044       1045       1056       1055       1165       1166       1177       1176  
      1046       1047       1058       1057       1167       1168       1179       1178  
      1047       1048       1059       1058       1168       1169       1180       1179  
      1048       1049       1060       1059       1169       1170       1181       1180  
      1049       1050       1061       1060       1170       1171       1182       1181  
      1050       1051       1062       1061       1171       1172       1183       1182  
      1051       1052       1063       1062       1172       1173       1184       1183  
      1052       1053       1064       1063       1173       1174       1185       1184  
      1053       1054       1065       1064       1174       1175       1186       1185  
      1054       1055       1066       1065       1175       1176       1187       1186  
      1055       1056       1067       1066       1176       1177       1188       1187  
      1057       1058       1069       1068       1178       1179       1190       1189  
      1058       1059       1070       1069       1179       1180       1191       1190  
      1059       1060       1071       1070       1180       1181       1192       1191  
      1060       1061       1072       1071       1181       1182       1193       1192  
      1061       1062       1073       1072       1182       1183       1194       1193  
      1062       1063       1074       1073       1183       1184       1195       1194  
      1063       1064       1075       1074       1184       1185       1196       1195  
      1064       1065       1076       1075       1185       1186       1197       1196  
      1065       1066       1077       1076       1186       1187       1198       1197  
      1066       1067       1078       1077       1187       1188       1199       1198  
      1068       1069       1080       1079       1189       1190       1201       1200  
      1069       1070       1081       1080       1190       1191       1202       1201  
      1070       1071       1082       1081       1191       1192       1203       1202  
      1071       1072       1083       1082       1192       1193       1204       1203  
      1072       1073       1084       1083       1193       1194       1205       1204  
      1073       1074       1085       1084       1194       1195       1206       1205  
      1074       1075       1086       1085       1195       1196       1207       1206  
      1075       1076       1087       1086       1196       1197       1208       1207  
      1076       1077       1088       1087       1197       1198       1209       1208  
      1077       1078       1089       1088       1198       1199       1210       1209  
      1090       1091       1102       1101       1211       1212       1223       1222  
      1091       1092       1103       1102       1212       1213       1224       1223  
      1092       1093       1104       1103       1213       1214       1225       1224  
      1093       1094       1105       1104       1214       1215       1226       1225  
      1094       1095       1106       1105       1215       1216       1227       1226  
      1095       1096       1107       1106       1216       1217       1228       1227  
      1096       1097       1108       1107       1217       1218       1229       1228  
      1097       1098       1109       1108       1218       1219       1230       1229  
      1098       1099       1110       1109       1219       1220       1231       1230  
      1099       1100       1111       1110       1220       1221       1232       1231  
      1101       1102       1113       1112       1222       1223       1234       1233  
      1102       1103       1114       1113       1223       1224       1235       1234  
      1103       1104       1115       1114       1224       1225       1236       1235  
      1104       1105       1116       1115       1225       1226       1237       1236  
      1105       1106       1117       1116       1226       1227       1238       1237  
      1106       1107       1118       1117       1227       1228       1239       1238  
      1107       1108       1119       1118       1228       1229       1240       1239  
      1108       1109       1120       1119       1229       1230       1241       1240  
      1109       1110       1121       1120       1230       1231       1242       1241  
      1110       1111       1122       1121       1231       1232       1243       1242  
      1112       1113       1124       1123       1233       1234       1245       1244  
      1113       1114       1125       1124       1234       1235       1246       1245  
      1114       1115       1126       1125       1235       1236       1247       1246  
      1115       1116       1127       1126       1236       1237       1248       1247  
      1116       1117       1128       1127       1237       1238       1249       1248  
      1117       1118       1129       1128       1238       1239       1250       1249  
      1118       1119       1130       1129       1239       1240       1251       1250  
      1119       1120       1131       1130       1240       1241       1252       1251  
      1120       1121       1132       1131       1241       1242       1253       1252  
      1121       1122       1133       1132       1242       1243       1254       1253  
      1123       1124       1135       1134       1244       1245       1256       1255  
      1124       1125       1136       1135       1245       1246       1257       1256  
      1125       1126       1137       1136       1246       1247       1258       1257  
      1126       1127       1138       1137       1247       1248       1259       1258  
      1127       1128       1139       1138       1248       1249       1260       1259  
      1128       1129       1140       1139       1249       1250       1261       1260  
      1129       1130       1141       1140       1250       1251       1262       1261  
      1130       1131       1142       1141       1251       1252       1263       1262  
      1131       1132       1143       1142       1252       1253       1264       1263  
      1132       1133       1144       1143       1253       1254       1265       1264  
      1134       1135       1146       1145       1255       1256       1267       1266  
      1135       1136       1147       1146       1256       1257       1268       1267  
      1136       1137       1148       1147       1257       1258       1269       1268  
      1137       1138       1149       1148       1258       1259       1270       1269  
      1138       1139       1150       1149       1259       1260       1271       1270  
      1139       1140       1151       1150       1260       1261       1272       1271  
      1140       1141       1152       1151       1261       1262       1273       1272  
      1141       1142       1153       1152       1262       1263       1274       1273  
      1142       1143       1154       1153       1263       1264       1275       1274  
      1143       1144       1155       1154       1264       1265       1276       1275  
      1145       1146       1157       1156       1266       1267       1278       1277  
      1146       1147       1158       1157       1267       1268       1279       1278  
      1147       1148       1159       1158       1268       1269       1280       1279  
      1148       1149       1160       1159       1269       1270       1281       1280  
      1149       1150       1161       1160       1270       1271       1282       1281  
      1150       1151       1162       1161       1271       1272       1283       1282  
      1151       1152       1163       1162       1272       1273       1284       1283  
      1152       1153       1164       1163       1273       1274       1285       1284  
      1153       1154       1165       1164       1274       1275       1286       1285  
      1154       1155       1166       1165       1275       1276       1287       1286  
      1156       1157       1168       1167       1277       1278       1289       1288  
      1157       1158       1169       1168       1278       1279       1290       1289  
      1158       1159       1170       1169       1279       1280       1291       1290  
      1159       1160       1171       1170       1280       1281       1292       1291  
      1160       1161       1172       1171       1281       1282       1293       1292  
      1161       1162       1173       1172       1282       1283       1294       1293  
      1162       1163       1174       1173       1283       1284       1295       1294  
      1163       1164       1175       1174       1284       1285       1296       1295  
      1164       1165       1176       1175       1285       1286       1297       1296  
      1165       1166       1177       1176       1286       1287       1298       1297  
      1167       1168       1179       1178       1288       1289       1300       1299  
      1168       1169       1180       1179       1289       1290       1301       1300  
      1169       1170       1181       1180       1290       1291       1302       1301  
      1170       1171       1182       1181       1291       1292       1303       1302  
      1171       1172       1183       1182       1292       1293       1304       1303  
      1172       1173       1184       1183       1293       1294       1305       1304  
      1173       1174       1185       1184       1294       1295       1306       1305  
      1174       1175       1186       1185       1295       1296       1307       1306  
      1175       1176       1187       1186       1296       1297       1308       1307  
      1176       1177       1188       1187       1297       1298       1309       1308  
      1178       1179       1190       1189       1299       1300       1311       1310  
      1179       1180       1191       1190       1300       1301       1312       1311  
      1180       1181       1192       1191       1301       1302       1313       1312  
      1181       1182       1193       1192       1302       1303       1314       1313  
      1182       1183       1194       1193       1303       1304       1315       1314  
      1183       1184       1195       1194       1304       1305       1316       1315  
      1184       1185       1196       1195       1305       1306       1317       1316  
      1185       1186       1197       1196       1306       1307       1318       1317  
      1186       1187       1198       1197       1307       1308       1319       1318  
      1187       1188       1199       1198       1308       1309       1320       1319  
      1189       1190       1201       1200       1310       1311       1322       1321  
      1190       1191       1202       1201       1311       1312       1323       1322  
      1191       1192       1203       1202       1312       1313       1324       1323  
      1192       1193       1204       1203       1313       1314       1325       1324  
      1193       1194       1205       1204       1314       1315       1326       1325  
      1194       1195       1206       1205       1315       1316       1327       1326  
      1195       1196       1207       1206       1316       1317       1328       1327  
      1196       1197       1208       1207       1317       1318       1329       1328  
      1197       1198       1209       1208       1318       1319       1330       1329  
      1198       1199       1210       1209       1319       1320       1331       1330  
      1211       1212       1223       1222       1332       1333       1344       1343  
      1212       1213       1224       1223       1333       1334       1345       1344  
      1213       1214       1225       1224       1334       1335       1346       1345  
      1214       1215       1226       1225       1335       1336       1347       1346  
      1215       1216       1227       1226       1336       1337       1348       1347  
      1216       1217       1228       1227       1337       1338       1349       1348  
      1217       1218       1229       1228       1338       1339       1350       1349  
      1218       1219       1230       1229       1339       1340       1351       1350  
      1219       1220       1231       1230       1340       1341       1352       1351  
      1220       1221       1232       1231       1341       1342       1353       1352  
      1222       1223       1234       1233       1343       1344       1355       1354  
      1223       1224       1235       1234       1344       1345       1356       1355  
      1224       1225       1236       1235       1345       1346       1357       1356  
      1225       1226       1237       1236       1346       1347       1358       1357  
      1226       1227       1238       1237       1347       1348       1359       1358  
      1227       1228       1239       1238       1348       1349       1360       1359  
      1228       1229       1240       1239       1349       1350       1361       1360  
      1229       1230       1241       1240       1350       1351       1362       1361  
      1230       1231       1242       1241       1351       1352       1363       1362  
      1231       1232       1243       1242       1352       1353       1364       1363  
      1233       1234       1245       1244       1354       1355       1366       1365  
      1234       1235       1246       1245       1355       1356       1367       1366  
      1235       1236       1247       1246       1356       1357       1368       1367  
      1236       1237       1248       1247       1357       1358       1369       1368  
      1237       1238       1249       1248       1358       1359       1370       1369  
      1238       1239       1250       1249       1359       1360       1371       1370  
      1239       1240       1251       1250       1360       1361       1372       1371  
      1240       1241       1252       1251       1361       1362       1373       1372  
      1241       1242       1253       1252       1362       1363       1374       1373  
      1242       1243       1254       1253       1363       1364       1375       1374  
      1244       1245       1256       1255       1365       1366       1377       1376  
      1245       1246       1257       1256       1366       1367       1378       1377  
      1246       1247       1258       1257       1367       1368       1379       1378  
      1247       1248       1259       1258       1368       1369       1380       1379  
      1248       1249       1260       1259       1369       1370       1381       1380  
      1249       1250       1261       1260       1370       1371       1382       1381  
      1250       1251       1262       1261       1371       1372       1383       1382  
      1251       1252       1263       1262       1372       1373       1384       1383  
      1252       1253       1264       1263       1373       1374       1385       1384  
      1253       1254       1265       1264       1374       1375       1386       1385  
      1255       1256       1267       1266       1376       1377       1388       1387  
      1256       1257       1268       1267       1377       1378       1389       1388  
      1257       1258       1269       1268       1378       1379       1390       1389  
      1258       1259       1270       1269       1379       1380       1391       1390  
      1259       1260       1271       1270       1380       1381       1392       1391  
      1260       1261       1272       1271       1381       1382       1393       1392  
      1261       1262       1273       1272       1382       1383       1394       1393  
      1262       1263       1274       1273       1383       1384       1395       1394  
      1263       1264       1275       1274       1384       1385       1396       1395  
      1264       1265       1276       1275       1385       1386       1397       1396  
      1266       1267       1278       1277       1387       1388       1399       1398  
      1267       1268       1279       1278       1388       1389       1400       1399  
      1268       1269       1280       1279       1389       1390       1401       1400  
      1269       1270       1281       1280       1390       1391       1402       1401  
      1270       1271       1282       1281       1391       1392       1403       1402  
      1271       1272       1283       1282       1392       1393       1404       1403  
      1272       1273       1284       1283       1393       1394       1405       1404  
      1273       1274       1285       1284       1394       1395       1406       1405  
      1274       1275       1286       1285       1395       1396       1407       1406  
      1275       1276       1287       1286       1396       1397       1408       1407  
      1277       1278       1289       1288       1398       1399       1410       1409  
      1278       1279       1290       1289       1399       1400       1411       1410  
      1279       1280       1291       1290       1400       1401       1412       1411  
      1280       1281       1292       1291       1401       1402       1413       1412  
      1281       1282       1293       1292       1402       1403       1414       1413  
      1282       1283       1294       1293       1403       1404       1415       1414  
      1283       1284       1295       1294       1404       1405       1416       1415  
      1284       1285       1296       1295       1405       1406       1417       1416  
      1285       1286       1297       1296       1406       1407       1418       1417  
      1286       1287       1298       1297       1407       1408       1419       1418  
      1288       1289       1300       1299       1409       1410       1421       1420  
      1289       1290       1301       1300       1410       1411       1422       1421  
      1290       1291       1302       1301       1411       1412       1423       1422  
      1291       1292       1303       1302       1412       1413       1424       1423  
      1292       1293       1304       1303       1413       1414       1425       1424  
      1293       1294       1305       1304       1414       1415       1426       1425  
      1294       1295       1306       1305       1415       1416       1427       1426  
      1295       1296       1307       1306       1416       1417       1428       1427  
      1296       1297       1308       1307       1417       1418       1429       1428  
      1297       1298       1309       1308       1418       1419       1430       1429  
      1299       1300       1311       1310       1420       1421       1432       1431  
      1300       1301       1312       1311       1421       1422       1433       1432  
      1301       1302       1313       1312       1422       1423       1434       1433  
      1302       1303       1314       1313       1423       1424       1435       1434  
      1303       1304       1315       1314       1424       1425       1436       1435  
      1304       1305       1316       1315       1425       1426       1437       1436  
      1305       1306       1317       1316       1426       1427       1438       1437  
      1306       1307       1318       1317       1427       1428       1439       1438  
      1307       1308       1319       1318       1428       1429       1440       1439  
      1308       1309       1320       1319       1429       1430       1441       1440  
      1310       1311       1322       1321       1431       1432       1443       1442  
      1311       1312       1323       1322       1432       1433       1444       1443  
      1312       1313       1324       1323       1433       1434       1445       1444  
      1313       1314       1325       1324       1434       1435       1446       1445  
      1314       1315       1326       1325       1435       1436       1447       1446  
      1315       1316       1327       1326       1436       1437       1448       1447  
      1316       1317       1328       1327       1437       1438       1449       1448  
      1317       1318       1329       1328       1438       1439       1450       1449  
      1318       1319       1330       1329       1439       1440       1451       1450  
      1319       1320       1331       1330       1440       1441       1452       1451  
      1332       1333       1344       1343       1453       1454       1465       1464  
      1333       1334       1345       1344       1454       1455       1466       1465  
      1334       1335       1346       1345       1455       1456       1467       1466  
      1335       1336       1347       1346       1456       1457       1468       1467  
      1336       1337       1348       1347       1457       1458       1469       1468  
      1337       1338       1349       1348       1458       1459       1470       1469  
      1338       1339       1350       1349       1459       1460       1471       1470  
      1339       1340       1351       1350       1460       1461       1472       1471  
      1340       1341       1352       1351       1461       1462       1473       1472  
      1341       1342       1353       1352       1462       1463       1474       1473  
      1343       1344       1355       1354       1464       1465       1476       1475  
      1344       1345       1356       1355       1465       1466       1477       1476  
      1345       1346       1357       1356       1466       1467       1478       1477  
      1346       1347       1358       1357       1467       1468       1479       1478  
      1347       1348       1359       1358       1468       1469       1480       1479  
      1348       1349       1360       1359       1469       1470       1481       1480  
      1349       1350       1361       1360       1470       1471       1482       1481  
      1350       1351       1362       1361       1471       1472       1483       1482  
      1351       1352       1363       1362       1472       1473       1484       1483  
      1352       1353       1364       1363       1473       1474       1485       1484  
      1354       1355       1366       1365       1475       1476       1487       1486  
      1355       1356       1367       1366       1476       1477       1488       1487  
      1356       1357       1368       1367       1477       1478       1489       1488  
      1357       1358       1369       1368       1478       1479       1490       1489  
      1358       1359       1370       1369       1479       1480       1491       1490  
      1359       1360       1371       1370       1480       1481       1492       1491  
      1360       1361       1372       1371       1481       1482       1493       1492  
      1361       1362       1373       1372       1482       1483       1494       1493  
      1362       1363       1374       1373       1483       1484       1495       1494  
      1363       1364       1375       1374       1484       1485       1496       1495  
      1365       1366       1377       1376       1486       1487       1498       1497  
      1366       1367       1378       1377       1487       1488       1499       1498  
      1367       1368       1379       1378       1488       1489       1500       1499  
      1368       1369       1380       1379       1489       1490       1501       1500  
      1369       1370       1381       1380       1490       1491       1502       1501  
      1370       1371       1382       1381       1491       1492       1503       1502  
      1371       1372       1383       1382       1492       1493       1504       1503  
      1372       1373       1384       1383       1493       1494       1505       1504  
      1373       1374       1385       1384       1494       1495       1506       1505  
      1374       1375       1386       1385       1495       1496       1507       1506  
      1376       1377       1388       1387       1497       1498       1509       1508  
      1377       1378       1389       1388       1498       1499       1510       1509  
      1378       1379       1390       1389       1499       1500       1511       1510  
      1379       1380       1391       1390       1500       1501       1512       1511  
      1380       1381       1392       1391       1501       1502       1513       1512  
      1381       1382       1393       1392       1502       1503       1514       1513  
      1382       1383       1394       1393       1503       1504       1515       1514  
      1383       1384       1395       1394       1504       1505       1516       1515  
      1384       1385       1396       1395       1505       1506       1517       1516  
      1385       1386       1397       1396       1506       1507       1518       1517  
      1387       1388       1399       1398       1508       1509       1520       1519  
      1388       1389       1400       1399       1509       1510       1521       1520  
      1389       1390       1401       1400       1510       1511       1522       1521  
      1390       1391       1402       1401       1511       1512       1523       1522  
      1391       1392       1403       1402       1512       1513       1524       1523  
      1392       1393       1404       1403       1513       1514       1525       1524  
      1393       1394       1405       1404       1514       1515       1526       1525  
      1394       1395       1406       1405       1515       1516       1527       1526  
      1395       1396       1407       1406       1516       1517       1528       1527  
      1396       1397       1408       1407       1517       1518       1529       1528  
      1398       1399       1410       1409       1519       1520       1531       1530  
      1399       1400       1411       1410       1520       1521       1532       1531  
      1400       1401       1412       1411       1521       1522       1533       1532  
      1401       1402       1413       1412       1522       1523       1534       1533  
      1402       1403       1414       1413       1523       1524       1535       1534  
      1403       1404       1415       1414       1524       1525       1536       1535  
      1404       1405       1416       1415       1525       1526       1537       1536  
      1405       1406       1417       1416       1526       1527       1538       1537  
      1406       1407       1418       1417       1527       1528       1539       1538  
      1407       1408       1419       1418       1528       1529       1540       1539  
      1409       1410       1421       1420       1530       1531       1542       1541  
      1410       1411       1422       1421       1531       1532       1543       1542  
      1411       1412       1423       1422       1532       1533       1544       1543  
      1412       1413       1424       1423       1533       1534       1545       1544  
      1413       1414       1425       1424       1534       1535       1546       1545  
      1414       1415       1426       1425       1535       1536       1547       1546  
      1415       1416       1427       1426       1536       1537       1548       1547  
      1416       1417       1428       1427       1537       1538       1549       1548  
      1417       1418       1429       1428       1538       1539       1550       1549  
      1418       1419       1430       1429       1539       1540       1551       1550  
      1420       1421       1432       1431       1541       1542       1553       1552  
      1421       1422       1433       1432       1542       1543       1554       1553  
      1422       1423       1434       1433       1543       1544       1555       1554  
      1423       1424       1435       1434       1544       1545       1556       1555  
      1424       1425       1436       1435       1545       1546       1557       1556  
      1425       1426       1437       1436       1546       1547       1558       1557  
      1426       1427       1438       1437       1547       1548       1559       1558  
      1427       1428       1439       1438       1548       1549       1560       1559  
      1428       1429       1440       1439       1549       1550       1561       1560  
      1429       1430       1441       1440       1550       1551       1562       1561  
      1431       1432       1443       1442       1552       1553       1564       1563  
      1432       1433       1444       1443       1553       1554       1565       1564  
      1433       1434       1445       1444       1554       1555       1566       1565  
      1434       1435       1446       1445       1555       1556       1567       1566  
      1435       1436       1447       1446       1556       1557       1568       1567  
      1436       1437       1448       1447       1557       1558       1569       1568  
      1437       1438       1449       1448       1558       1559       1570       1569  
      1438       1439       1450       1449       1559       1560       1571       1570  
      1439       1440       1451       1450       1560       1561       1572       1571  
      1440       1441       1452       1451       1561       1562       1573       1572  
      1453       1454       1465       1464       1574       1575       1586       1585  
      1454       1455       1466       1465       1575       1576       1587       1586  
      1455       1456       1467       1466       1576       1577       1588       1587  
      1456       1457       1468       1467       1577       1578       1589       1588  
      1457       1458       1469       1468       1578       1579       1590       1589  
      1458       1459       1470       1469       1579       1580       1591       1590  
      1459       1460       1471       1470       1580       1581       1592       1591  
      1460       1461       1472       1471       1581       1582       1593       1592  
      1461       1462       1473       1472       1582       1583       1594       1593  
      1462       1463       1474       1473       1583       1584       1595       1594  
      1464       1465       1476       1475       1585       1586       1597       1596  
      1465       1466       1477       1476       1586       1587       1598       1597  
      1466       1467       1478       1477       1587       1588       1599       1598  
      1467       1468       1479       1478       1588       1589       1600       1599  
      1468       1469       1480       1479       1589       1590       1601       1600  
      1469       1470       1481       1480       1590       1591       1602       1601  
      1470       1471       1482       1481       1591       1592       1603       1602  
      1471       1472       1483       1482       1592       1593       1604       1603  
      1472       1473       1484       1483       1593       1594       1605       1604  
      1473       1474       1485       1484       1594       1595       1606       1605  
      1475       1476       1487       1486       1596       1597       1608       1607  
      1476       1477       1488       1487       1597       1598       1609       1608  
      1477       1478       1489       1488       1598       1599       1610       1609  
      1478       1479       1490       1489       1599       1600       1611       1610  
      1479       1480       1491       1490       1600       1601       1612       1611  
      1480       1481       1492       1491       1601       1602       1613       1612  
      1481       1482       1493       1492       1602       1603       1614       1613  
      1482       1483       1494       1493       1603       1604       1615       1614  
      1483       1484       1495       1494       1604       1605       1616       1615  
      1484       1485       1496       1495       1605       1606       1617       1616  
      1486       1487       1498       1497       1607       1608       1619       1618  
      1487       1488       1499       1498       1608       1609       1620       1619  
      1488       1489       1500       1499       1609       1610       1621       1620  
      1489       1490       1501       1500       1610       1611       1622       1621  
      1490       1491       1502       1501       1611       1612       1623       1622  
      1491       1492       1503       1502       1612       1613       1624       1623  
      1492       1493       1504       1503       1613       1614       1625       1624  
      1493       1494       1505       1504       1614       1615       1626       1625  
      1494       1495       1506       1505       1615       1616       1627       1626  
      1495       1496       1507       1506       1616       1617       1628       1627  
      1497       1498       1509       1508       1618       1619       1630       1629  
      1498       1499       1510       1509       1619       1620       1631       1630  
      1499       1500       1511       1510       1620       1621       1632       1631  
      1500       1501       1512       1511       1621       1622       1633       1632  
      1501       1502       1513       1512       1622       1623       1634       1633  
      1502       1503       1514       1513       1623       1624       1635       1634  
      1503       1504       1515       1514       1624       1625       1636       1635  
      1504       1505       1516       1515       1625       1626       1637       1636  
      1505       1506       1517       1516       1626       1627       1638       1637  
      1506       1507       1518       1517       1627       1628       1639       1638  
      1508       1509       1520       1519       1629       1630       1641       1640  
      1509       1510       1521       1520       1630       1631       1642       1641  
      1510       1511       1522       1521       1631       1632       1643       1642  
      1511       1512       1523       1522       1632       1633       1644       1643  
      1512       1513       1524       1523       1633       1634       1645       1644  
      1513       1514       1525       1524       1634       1635       1646       1645  
      1514       1515       1526       1525       1635       1636       1647       1646  
      1515       1516       1527       1526       1636       1637       1648       1647  
      1516       1517       1528       1527       1637       1638       1649       1648  
      1517       1518       1529       1528       1638       1639       1650       1649  
      1519       1520       1531       1530       1640       1641       1652       1651  
      1520       1521       1532       1531       1641       1642       1653       1652  
      1521       1522       1533       1532       1642       1643       1654       1653  
      1522       1523       1534       1533       1643       1644       1655       1654  
      1523       1524       1535       1534       1644       1645       1656       1655  
      1524       1525       1536       1535       1645       1646       1657       1656  
      1525       1526       1537       1536       1646       1647       1658       1657  
      1526       1527       1538       1537       1647       1648       1659       1658  
      1527       1528       1539       1538       1648       1649       1660       1659  
      1528       1529       1540       1539       1649       1650       1661       1660  
      1530       1531       1542       1541       1651       1652       1663       1662  
      1531       1532       1543       1542       1652       1653       1664       1663  
      1532       1533       1544       1543       1653       1654       1665       1664  
      1533       1534       1545       1544       1654       1655       1666       1665  
      1534       1535       1546       1545       1655       1656       1667       1666  
      1535       1536       1547       1546       1656       1657       1668       1667  
      1536       1537       1548       1547       1657       1658       1669       1668  
      1537       1538       1549       1548       1658       1659       1670       1669  
      1538       1539       1550       1549       1659       1660       1671       1670  
      1539       1540       1551       1550       1660       1661       1672       1671  
      1541       1542       1553       1552       1662       1663       1674       1673  
      1542       1543       1554       1553       1663       1664       1675       1674  
      1543       1544       1555       1554       1664       1665       1676       1675  
      1544       1545       1556       1555       1665       1666       1677       1676  
      1545       1546       1557       1556       1666       1667       1678       1677  
      1546       1547       1558       1557       1667       1668       1679       1678  
      1547       1548       1559       1558       1668       1669       1680       1679  
      1548       1549       1560       1559       1669       1670       1681       1680  
      1549       1550       1561       1560       1670       1671       1682       1681  
      1550       1551       1562       1561       1671       1672       1683       1682  
      1552       1553       1564       1563       1673       1674       1685       1684  
      1553       1554       1565       1564       1674       1675       1686       1685  
      1554       1555       1566       1565       1675       1676       1687       1686  
      1555       1556       1567       1566       1676       1677       1688       1687  
      1556       1557       1568       1567       1677       1678       1689       1688  
      1557       1558       1569       1568       1678       1679       1690       1689  
      1558       1559       1570       1569       1679       1680       1691       1690  
      1559       1560       1571       1570       1680       1681       1692       1691  
      1560       1561       1572       1571       1681       1682       1693       1692  
      1561       1562       1573       1572       1682       1683       1694       1693  
      1574       1575       1586       1585       1695       1696       1707       1706  
      1575       1576       1587       1586       1696       1697       1708       1707  
      1576       1577       1588       1587       1697       1698       1709       1708  
      1577       1578       1589       1588       1698       1699       1710       1709  
      1578       1579       1590       1589       1699       1700       1711       1710  
      1579       1580       1591       1590       1700       1701       1712       1711  
      1580       1581       1592       1591       1701       1702       1713       1712  
      1581       1582       1593       1592       1702       1703       1714       1713  
      1582       1583       1594       1593       1703       1704       1715       1714  
      1583       1584       1595       1594       1704       1705       1716       1715  
      1585       1586       1597       1596       1706       1707       1718       1717  
      1586       1587       1598       1597       1707       1708       1719       1718  
      1587       1588       1599       1598       1708       1709       1720       1719  
      1588       1589       1600       1599       1709       1710       1721       1720  
      1589       1590       1601       1600       1710       1711       1722       1721  
      1590       1591       1602       1601       1711       1712       1723       1722  
      1591       1592       1603       1602       1712       1713       1724       1723  
      1592       1593       1604       1603       1713       1714       1725       1724  
      1593       1594       1605       1604       1714       1715       1726       1725  
      1594       1595       1606       1605       1715       1716       1727       1726  
      1596       1597       1608       1607       1717       1718       1729       1728  
      1597       1598       1609       1608       1718       1719       1730       1729  
      1598       1599       1610       1609       1719       1720       1731       1730  
      1599       1600       1611       1610       1720       1721       1732       1731  
      1600       1601       1612       1611       1721       1722       1733       1732  
      1601       1602       1613       1612       1722       1723       1734       1733  
      1602       1603       1614       1613       1723       1724       1735       1734  
      1603       1604       1615       1614       1724       1725       1736       1735  
      1604       1605       1616       1615       1725       1726       1737       1736  
      1605       1606       1617       1616       1726       1727       1738       1737  
      1607       1608       1619       1618       1728       1729       1740       1739  
      1608       1609       1620       1619       1729       1730       1741       1740  
      1609       1610       1621       1620       1730       1731       1742       1741  
      1610       1611       1622       1621       1731       1732       1743       1742  
      1611       1612       1623       1622       1732       1733       1744       1743  
      1612       1613       1624       1623       1733       1734       1745       1744  
      1613       1614       1625       1624       1734       1735       1746       1745  
      1614       1615       1626       1625       1735       1736       1747       1746  
      1615       1616       1627       1626       1736       1737       1748       1747  
      1616       1617       1628       1627       1737       1738       1749       1748  
      1618       1619       1630       1629       1739       1740       1751       1750  
      1619       1620       1631       1630       1740       1741       1752       1751  
      1620       1621       1632       1631       1741       1742       1753       1752  
      1621       1622       1633       1632       1742       1743       1754       1753  
      1622       1623       1634       1633       1743       1744       1755       1754  
      1623       1624       1635       1634       1744       1745       1756       1755  
      1624       1625       1636       1635       1745       1746       1757       1756  
      1625       1626       1637       1636       1746       1747       1758       1757  
      1626       1627       1638       1637       1747       1748       1759       1758  
      1627       1628       1639       1638       1748       1749       1760       1759  
      1629       1630       1641       1640       1750       1751       1762       1761  
      1630       1631       1642       1641       1751       1752       1763       1762  
      1631       1632       1643       1642       1752       1753       1764       1763  
      1632       1633       1644       1643       1753       1754       1765       1764  
      1633       1634       1645       1644       1754       1755       1766       1765  
      1634       1635       1646       1645       1755       1756       1767       1766  
      1635       1636       1647       1646       1756       1757       1768       1767  
      1636       1637       1648       1647       1757       1758       1769       1768  
      1637       1638       1649       1648       1758       1759       1770       1769  
      1638       1639       1650       1649       1759       1760       1771       1770  
      1640       1641       1652       1651       1761       1762       1773       1772  
      1641       1642       1653       1652       1762       1763       1774       1773  
      1642       1643       1654       1653       1763       1764       1775       1774  
      1643       1644       1655       1654       1764       1765       1776       1775  
      1644       1645       1656       1655       1765       1766       1777       1776  
      1645       1646       1657       1656       1766       1767       1778       1777  
      1646       1647       1658       1657       1767       1768       1779       1778  
      1647       1648       1659       1658       1768       1769       1780       1779  
      1648       1649       1660       1659       1769       1770       1781       1780  
      1649       1650       1661       1660       1770       1771       1782       1781  
      1651       1652       1663       1662       1772       1773       1784       1783  
      1652       1653       1664       1663       1773       1774       1785       1784  
      1653       1654       1665       1664       1774       1775       1786       1785  
      1654       1655       1666       1665       1775       1776       1787       1786  
      1655       1656       1667       1666       1776       1777       1788       1787  
      1656       1657       1668       1667       1777       1778       1789       1788  
      1657       1658       1669       1668       1778       1779       1790       1789  
      1658       1659       1670       1669       1779       1780       1791       1790  
      1659       1660       1671       1670       1780       1781       1792       1791  
      1660       1661       1672       1671       1781       1782       1793       1792  
      1662       1663       1674       1673       1783       1784       1795       1794  
      1663       1664       1675       1674       1784       1785       1796       1795  
      1664       1665       1676       1675       1785       1786       1797       1796  
      1665       1666       1677       1676       1786       1787       1798       1797  
      1666       1667       1678       1677       1787       1788       1799       1798  
      1667       1668       1679       1678       1788       1789       1800       1799  
      1668       1669       1680       1679       1789       1790       1801       1800  
      1669       1670       1681       1680       1790       1791       1802       1801  
      1670       1671       1682       1681       1791       1792       1803       1802  
      1671       1672       1683       1682       1792       1793       1804       1803  
      1673       1674       1685       1684       1794       1795       1806       1805  
      1674       1675       1686       1685       1795       1796       1807       1806  
      1675       1676       1687       1686       1796       1797       1808       1807  
      1676       1677       1688       1687       1797       1798       1809       1808  
      1677       1678       1689       1688       1798       1799       1810       1809  
      1678       1679       1690       1689       1799       1800       1811       1810  
      1679       1680       1691       1690       1800       1801       1812       1811  
      1680       1681       1692       1691       1801       1802       1813       1812  
      1681       1682       1693       1692       1802       1803       1814       1813  
      1682       1683       1694       1693       1803       1804       1815       1814  
      1695       1696       1707       1706       1816       1817       1828       1827  
      1696       1697       1708       1707       1817       1818       1829       1828  
      1697       1698       1709       1708       1818       1819       1830       1829  
      1698       1699       1710       1709       1819       1820       1831       1830  
      1699       1700       1711       1710       1820       1821       1832       1831  
      1700       1701       1712       1711       1821       1822       1833       1832  
      1701       1702       1713       1712       1822       1823       1834       1833  
      1702       1703       1714       1713       1823       1824       1835       1834  
      1703       1704       1715       1714       1824       1825       1836       1835  
      1704       1705       1716       1715       1825       1826       1837       1836  
      1706       1707       1718       1717       1827       1828       1839       1838  
      1707       1708       1719       1718       1828       1829       1840       1839  
      1708       1709       1720       1719       1829       1830       1841       1840  
      1709       1710       1721       1720       1830       1831       1842       1841  
      1710       1711       1722       1721       1831       1832       1843       1842  
      1711       1712       1723       1722       1832       1833       1844       1843  
      1712       1713       1724       1723       1833       1834       1845       1844  
      1713       1714       1725       1724       1834       1835       1846       1845  
      1714       1715       1726       1725       1835       1836       1847       1846  
      1715       1716       1727       1726       1836       1837       1848       1847  
      1717       1718       1729       1728       1838       1839       1850       1849  
      1718       1719       1730       1729       1839       1840       1851       1850  
      1719       1720       1731       1730       1840       1841       1852       1851  
      1720       1721       1732       1731       1841       1842       1853       1852  
      1721       1722       1733       1732       1842       1843       1854       1853  
      1722       1723       1734       1733       1843       1844       1855       1854  
      1723       1724       1735       1734       1844       1845       1856       1855  
      1724       1725       1736       1735       1845       1846       1857       1856  
      1725       1726       1737       1736       1846       1847       1858       1857  
      1726       1727       1738       1737       1847       1848       1859       1858  
      1728       1729       1740       1739       1849       1850       1861       1860  
      1729       1730       1741       1740       1850       1851       1862       1861  
      1730       1731       1742       1741       1851       1852       1863       1862  
      1731       1732       1743       1742       1852       1853       1864       1863  
      1732       1733       1744       1743       1853       1854       1865       1864  
      1733       1734       1745       1744       1854       1855       1866       1865  
      1734       1735       1746       1745       1855       1856       1867       1866  
      1735       1736       1747       1746       1856       1857       1868       1867  
      1736       1737       1748       1747       1857       1858       1869       1868  
      1737       1738       1749       1748       1858       1859       1870       1869  
      1739       1740       1751       1750       1860       1861       1872       1871  
      1740       1741       1752       1751       1861       1862       1873       1872  
      1741       1742       1753       1752       1862       1863       1874       1873  
      1742       1743       1754       1753       1863       1864       1875       1874  
      1743       1744       1755       1754       1864       1865       1876       1875  
      1744       1745       1756       1755       1865       1866       1877       1876  
      1745       1746       1757       1756       1866       1867       1878       1877  
      1746       1747       1758       1757       1867       1868       1879       1878  
      1747       1748       1759       1758       1868       1869       1880       1879  
      1748       1749       1760       1759       1869       1870       1881       1880  
      1750       1751       1762       1761       1871       1872       1883       1882  
      1751       1752       1763       1762       1872       1873       1884       1883  
      1752       1753       1764       1763       1873       1874       1885       1884  
      1753       1754       1765       1764       1874       1875       1886       1885  
      1754       1755       1766       1765       1875       1876       1887       1886  
      1755       1756       1767       1766       1876       1877       1888       1887  
      1756       1757       1768       1767       1877       1878       1889       1888  
      1757       1758       1769       1768       1878       1879       1890       1889  
      1758       1759       1770       1769       1879       1880       1891       1890  
      1759       1760       1771       1770       1880       1881       1892       1891  
      1761       1762       1773       1772       1882       1883       1894       1893  
      1762       1763       1774       1773       1883       1884       1895       1894  
      1763       1764       1775       1774       1884       1885       1896       1895  
      1764       1765       1776       1775       1885       1886       1897       1896  
      1765       1766       1777       1776       1886       1887       1898       1897  
      1766       1767       1778       1777       1887       1888       1899       1898  
      1767       1768       1779       1778       1888       1889       1900       1899  
      1768       1769       1780       1779       1889       1890       1901       1900  
      1769       1770       1781       1780       1890       1891       1902       1901  
      1770       1771       1782       1781       1891       1892       1903       1902  
      1772       1773       1784       1783       1893       1894       1905       1904  
      1773       1774       1785       1784       1894       1895       1906       1905  
      1774       1775       1786       1785       1895       1896       1907       1906  
      1775       1776       1787       1786       1896       1897       1908       1907  
      1776       1777       1788       1787       1897       1898       1909       1908  
      1777       1778       1789       1788       1898       1899       1910       1909  
      1778       1779       1790       1789       1899       1900       1911       1910  
      1779       1780       1791       1790       1900       1901       1912       1911  
      1780       1781       1792       1791       1901       1902       1913       1912  
      1781       1782       1793       1792       1902       1903       1914       1913  
      1783       1784       1795       1794       1904       1905       1916       1915  
      1784       1785       1796       1795       1905       1906       1917       1916  
      1785       1786       1797       1796       1906       1907       1918       1917  
      1786       1787       1798       1797       1907       1908       1919       1918  
      1787       1788       1799       1798       1908       1909       1920       1919  
      1788       1789       1800       1799       1909       1910       1921       1920  
      1789       1790       1801       1800       1910       1911       1922       1921  
      1790       1791       1802       1801       1911       1912       1923       1922  
      1791       1792       1803       1802       1912       1913       1924       1923  
      1792       1793       1804       1803       1913       1914       1925       1924  
      1794       1795       1806       1805       1915       1916       1927       1926  
      1795       1796       1807       1806       1916       1917       1928       1927  
      1796       1797       1808       1807       1917       1918       1929       1928  
      1797       1798       1809       1808       1918       1919       1930       1929  
      1798       1799       1810       1809       1919       1920       1931       1930  
      1799       1800       1811       1810       1920       1921       1932       1931  
      1800       1801       1812       1811       1921       1922       1933       1932  
      1801       1802       1813       1812       1922       1923       1934       1933  
      1802       1803       1814       1813       1923       1924       1935       1934  
      1803       1804       1815       1814       1924       1925       1936       1935  
      1816       1817       1828       1827       1937       1938       1949       1948  
      1817       1818       1829       1828       1938       1939       1950       1949  
      1818       1819       1830       1829       1939       1940       1951       1950  
      1819       1820       1831       1830       1940       1941       1952       1951  
      1820       1821       1832       1831       1941       1942       1953       1952  
      1821       1822       1833       1832       1942       1943       1954       1953  
      1822       1823       1834       1833       1943       1944       1955       1954  
      1823       1824       1835       1834       1944       1945       1956       1955  
      1824       1825       1836       1835       1945       1946       1957       1956  
      1825       1826       1837       1836       1946       1947       1958       1957  
      1827       1828       1839       1838       1948       1949       1960       1959  
      1828       1829       1840       1839       1949       1950       1961       1960  
      1829       1830       1841       1840       1950       1951       1962       1961  
      1830       1831       1842       1841       1951       1952       1963       1962  
      1831       1832       1843       1842       1952       1953       1964       1963  
      1832       1833       1844       1843       1953       1954       1965       1964  
      1833       1834       1845       1844       1954       1955       1966       1965  
      1834       1835       1846       1845       1955       1956       1967       1966  
      1835       1836       1847       1846       1956       1957       1968       1967  
      1836       1837       1848       1847       1957       1958       1969       1968  
      1838       1839       1850       1849       1959       1960       1971       1970  
      1839       1840       1851       1850       1960       1961       1972       1971  
      1840       1841       1852       1851       1961       1962       1973       1972  
      1841       1842       1853       1852       1962       1963       1974       1973  
      1842       1843       1854       1853       1963       1964       1975       1974  
      1843       1844       1855       1854       1964       1965       1976       1975  
      1844       1845       1856       1855       1965       1966       1977       1976  
      1845       1846       1857       1856       1966       1967       1978       1977  
      1846       1847       1858       1857       1967       1968       1979       1978  
      1847       1848       1859       1858       1968       1969       1980       1979  
      1849       1850       1861       1860       1970       1971       1982       1981  
      1850       1851       1862       1861       1971       1972       1983       1982  
      1851       1852       1863       1862       1972       1973       1984       1983  
      1852       1853       1864       1863       1973       1974       1985       1984  
      1853       1854       1865       1864       1974       1975       1986       1985  
      1854       1855       1866       1865       1975       1976       1987       1986  
      1855       1856       1867       1866       1976       1977       1988       1987  
      1856       1857       1868       1867       1977       1978       1989       1988  
      1857       1858       1869       1868       1978       1979       1990       1989  
      1858       1859       1870       1869       1979       1980       1991       1990  
      1860       1861       1872       1871       1981       1982       1993       1992  
      1861       1862       1873       1872       1982       1983       1994       1993  
      1862       1863       1874       1873       1983       1984       1995       1994  
      1863       1864       1875       1874       1984       1985       1996       1995  
      1864       1865       1876       1875       1985       1986       1997       1996  
      1865       1866       1877       1876       1986       1987       1998       1997  
      1866       1867       1878       1877       1987       1988       1999       1998  
      1867       1868       1879       1878       1988       1989       2000       1999  
      1868       1869       1880       1879       1989       1990       2001       2000  
      1869       1870       1881       1880       1990       1991       2002       2001  
      1871       1872       1883       1882       1992       1993       2004       2003  
      1872       1873       1884       1883       1993       1994       2005       2004  
      1873       1874       1885       1884       1994       1995       2006       2005  
      1874       1875       1886       1885       1995       1996       2007       2006  
      1875       1876       1887       1886       1996       1997       2008       2007  
      1876       1877       1888       1887       1997       1998       2009       2008  
      1877       1878       1889       1888       1998       1999       2010       2009  
      1878       1879       1890       1889       1999       2000       2011       2010  
      1879       1880       1891       1890       2000       2001       2012       2011  
      1880       1881       1892       1891       2001       2002       2013       2012  
      1882       1883       1894       1893       2003       2004       2015       2014  
      1883       1884       1895       1894       2004       2005       2016       2015  
      1884       1885       1896       1895       2005       2006       2017       2016  
      1885       1886       1897       1896       2006       2007       2018       2017  
      1886       1887       1898       1897       2007       2008       2019       2018  
      1887       1888       1899       1898       2008       2009       2020       2019  
      1888       1889       1900       1899       2009       2010       2021       2020  
      1889       1890       1901       1900       2010       2011       2022       2021  
      1890       1891       1902       1901       2011       2012       2023       2022  
      1891       1892       1903       1902       2012       2013       2024       2023  
      1893       1894       1905       1904       2014       2015       2026       2025  
      1894       1895       1906       1905       2015       2016       2027       2026  
      1895       1896       1907       1906       2016       2017       2028       2027  
      1896       1897       1908       1907       2017       2018       2029       2028  
      1897       1898       1909       1908       2018       2019       2030       2029  
      1898       1899       1910       1909       2019       2020       2031       2030  
      1899       1900       1911       1910       2020       2021       2032       2031  
      1900       1901       1912       1911       2021       2022       2033       2032  
      1901       1902       1913       1912       2022       2023       2034       2033  
      1902       1903       1914       1913       2023       2024       2035       2034  
      1904       1905       1916       1915       2025       2026       2037       2036  
      1905       1906       1917       1916       2026       2027       2038       2037  
      1906       1907       1918       1917       2027       2028       2039       2038  
      1907       1908       1919       1918       2028       2029       2040       2039  
      1908       1909       1920       1919       2029       2030       2041       2040  
      1909       1910       1921       1920       2030       2031       2042       2041  
      1910       1911       1922       1921       2031       2032       2043       2042  
      1911       1912       1923       1922       2032       2033       2044       2043  
      1912       1913       1924       1923       2033       2034       2045       2044  
      1913       1914       1925       1924       2034       2035       2046       2045  
      1915       1916       1927       1926       2036       2037       2048       2047  
      1916       1917       1928       1927       2037       2038       2049       2048  
      1917       1918       1929       1928       2038       2039       2050       2049  
      1918       1919       1930       1929       2039       2040       2051       2050  
      1919       1920       1931       1930       2040       2041       2052       2051  
      1920       1921       1932       1931       2041       2042       2053       2052  
      1921       1922       1933       1932       2042       2043       2054       2053  
      1922       1923       1934       1933       2043       2044       2055       2054  
      1923       1924       1935       1934       2044       2045       2056       2055  
      1924       1925       1936       1935       2045       2046       2057       2056  
      1937       1938       1949       1948       2058       2059       2070       2069  
      1938       1939       1950       1949       2059       2060       2071       2070  
      1939       1940       1951       1950       2060       2061       2072       2071  
      1940       1941       1952       1951       2061       2062       2073       2072  
      1941       1942       1953       1952       2062       2063       2074       2073  
      1942       1943       1954       1953       2063       2064       2075       2074  
      1943       1944       1955       1954       2064       2065       2076       2075  
      1944       1945       1956       1955       2065       2066       2077       2076  
      1945       1946       1957       1956       2066       2067       2078       2077  
      1946       1947       1958       1957       2067       2068       2079       2078  
      1948       1949       1960       1959       2069       2070       2081       2080  
      1949       1950       1961       1960       2070       2071       2082       2081  
      1950       1951       1962       1961       2071       2072       2083       2082  
      1951       1952       1963       1962       2072       2073       2084       2083  
      1952       1953       1964       1963       2073       2074       2085       2084  
      1953       1954       1965       1964       2074       2075       2086       2085  
      1954       1955       1966       1965       2075       2076       2087       2086  
      1955       1956       1967       1966       2076       2077       2088       2087  
      1956       1957       1968       1967       2077       2078       2089       2088  
      1957       1958       1969       1968       2078       2079       2090       2089  
      1959       1960       1971       1970       2080       2081       2092       2091  
      1960       1961       1972       1971       2081       2082       2093       2092  
      1961       1962       1973       1972       2082       2083       2094       2093  
      1962       1963       1974       1973       2083       2084       2095       2094  
      1963       1964       1975       1974       2084       2085       2096       2095  
      1964       1965       1976       1975       2085       2086       2097       2096  
      1965       1966       1977       1976       2086       2087       2098       2097  
      1966       1967       1978       1977       2087       2088       2099       2098  
      1967       1968       1979       1978       2088       2089       2100       2099  
      1968       1969       1980       1979       2089       2090       2101       2100  
      1970       1971       1982       1981       2091       2092       2103       2102  
      1971       1972       1983       1982       2092       2093       2104       2103  
      1972       1973       1984       1983       2093       2094       2105       2104  
      1973       1974       1985       1984       2094       2095       2106       2105  
      1974       1975       1986       1985       2095       2096       2107       2106  
      1975       1976       1987       1986       2096       2097       2108       2107  
      1976       1977       1988       1987       2097       2098       2109       2108  
      1977       1978       1989       1988       2098       2099       2110       2109  
      1978       1979       1990       1989       2099       2100       2111       2110  
      1979       1980       1991       1990       2100       2101       2112       2111  
      1981       1982       1993       1992       2102       2103       2114       2113  
      1982       1983       1994       1993       2103       2104       2115       2114  
      1983       1984       1995       1994       2104       2105       2116       2115  
      1984       1985       1996       1995       2105       2106       2117       2116  
      1985       1986       1997       1996       2106       2107       2118       2117  
      1986       1987       1998       1997       2107       2108       2119       2118  
      1987       1988       1999       1998       2108       2109       2120       2119  
      1988       1989       2000       1999       2109       2110       2121       2120  
      1989       1990       2001       2000       2110       2111       2122       2121  
      1990       1991       2002       2001       2111       2112       2123       2122  
      1992       1993       2004       2003       2113       2114       2125       2124  
      1993       1994       2005       2004       2114       2115       2126       2125  
      1994       1995       2006       2005       2115       2116       2127       2126  
      1995       1996       2007       2006       2116       2117       2128       2127  
      1996       1997       2008       2007       2117       2118       2129       2128  
      1997       1998       2009       2008       2118       2119       2130       2129  
      1998       1999       2010       2009       2119       2120       2131       2130  
      1999       2000       2011       2010       2120       2121       2132       2131  
      2000       2001       2012       2011       2121       2122       2133       2132  
      2001       2002       2013       2012       2122       2123       2134       2133  
      2003       2004       2015       2014       2124       2125       2136       2135  
      2004       2005       2016       2015       2125       2126       2137       2136  
      2005       2006       2017       2016       2126       2127       2138       2137  
      2006       2007       2018       2017       2127       2128       2139       2138  
      2007       2008       2019       2018       2128       2129       2140       2139  
      2008       2009       2020       2019       2129       2130       2141       2140  
      2009       2010       2021       2020       2130       2131       2142       2141  
      2010       2011       2022       2021       2131       2132       2143       2142  
      2011       2012       2023       2022       2132       2133       2144       2143  
      2012       2013       2024       2023       2133       2134       2145       2144  
      2014       2015       2026       2025       2135       2136       2147       2146  
      2015       2016       2027       2026       2136       2137       2148       2147  
      2016       2017       2028       2027       2137       2138       2149       2148  
      2017       2018       2029       2028       2138       2139       2150       2149  
      2018       2019       2030       2029       2139       2140       2151       2150  
      2019       2020       2031       2030       2140       2141       2152       2151  
      2020       2021       2032       2031       2141       2142       2153       2152  
      2021       2022       2033       2032       2142       2143       2154       2153  
      2022       2023       2034       2033       2143       2144       2155       2154  
      2023       2024       2035       2034       2144       2145       2156       2155  
      2025       2026       2037       2036       2146       2147       2158       2157  
      2026       2027       2038       2037       2147       2148       2159       2158  
      2027       2028       2039       2038       2148       2149       2160       2159  
      2028       2029       2040       2039       2149       2150       2161       2160  
      2029       2030       2041       2040       2150       2151       2162       2161  
      2030       2031       2042       2041       2151       2152       2163       2162  
      2031       2032       2043       2042       2152       2153       2164       2163  
      2032       2033       2044       2043       2153       2154       2165       2164  
      2033       2034       2045       2044       2154       2155       2166       2165  
      2034       2035       2046       2045       2155       2156       2167       2166  
      2036       2037       2048       2047       2157       2158       2169       2168  
      2037       2038       2049       2048       2158       2159       2170       2169  
      2038       2039       2050       2049       2159       2160       2171       2170  
      2039       2040       2051       2050       2160       2161       2172       2171  
      2040       2041       2052       2051       2161       2162       2173       2172  
      2041       2042       2053       2052       2162       2163       2174       2173  
      2042       2043       2054       2053       2163       2164       2175       2174  
      2043       2044       2055       2054       2164       2165       2176       2175  
      2044       2045       2056       2055       2165       2166       2177       2176  
      2045       2046       2057       2056       2166       2167       2178       2177  
      2058       2059       2070       2069       2179       2180       2191       2190  
      2059       2060       2071       2070       2180       2181       2192       2191  
      2060       2061       2072       2071       2181       2182       2193       2192  
      2061       2062       2073       2072       2182       2183       2194       2193  
      2062       2063       2074       2073       2183       2184       2195       2194  
      2063       2064       2075       2074       2184       2185       2196       2195  
      2064       2065       2076       2075       2185       2186       2197       2196  
      2065       2066       2077       2076       2186       2187       2198       2197  
      2066       2067       2078       2077       2187       2188       2199       2198  
      2067       2068       2079       2078       2188       2189       2200       2199  
      2069       2070       2081       2080       2190       2191       2202       2201  
      2070       2071       2082       2081       2191       2192       2203       2202  
      2071       2072       2083       2082       2192       2193       2204       2203  
      2072       2073       2084       2083       2193       2194       2205       2204  
      2073       2074       2085       2084       2194       2195       2206       2205  
      2074       2075       2086       2085       2195       2196       2207       2206  
      2075       2076       2087       2086       2196       2197       2208       2207  
      2076       2077       2088       2087       2197       2198       2209       2208  
      2077       2078       2089       2088       2198       2199       2210       2209  
      2078       2079       2090       2089       2199       2200       2211       2210  
      2080       2081       2092       2091       2201       2202       2213       2212  
      2081       2082       2093       2092       2202       2203       2214       2213  
      2082       2083       2094       2093       2203       2204       2215       2214  
      2083       2084       2095       2094       2204       2205       2216       2215  
      2084       2085       2096       2095       2205       2206       2217       2216  
      2085       2086       2097       2096       2206       2207       2218       2217  
      2086       2087       2098       2097       2207       2208       2219       2218  
      2087       2088       2099       2098       2208       2209       2220       2219  
      2088       2089       2100       2099       2209       2210       2221       2220  
      2089       2090       2101       2100       2210       2211       2222       2221  
      2091       2092       2103       2102       2212       2213       2224       2223  
      2092       2093       2104       2103       2213       2214       2225       2224  
      2093       2094       2105       2104       2214       2215       2226       2225  
      2094       2095       2106       2105       2215       2216       2227       2226  
      2095       2096       2107       2106       2216       2217       2228       2227  
      2096       2097       2108       2107       2217       2218       2229       2228  
      2097       2098       2109       2108       2218       2219       2230       2229  
      2098       2099       2110       2109       2219       2220       2231       2230  
      2099       2100       2111       2110       2220       2221       2232       2231  
      2100       2101       2112       2111       2221       2222       2233       2232  
      2102       2103       2114       2113       2223       2224       2235       2234  
      2103       2104       2115       2114       2224       2225       2236       2235  
      2104       2105       2116       2115       2225       2226       2237       2236  
      2105       2106       2117       2116       2226       2227       2238       2237  
      2106       2107       2118       2117       2227       2228       2239       2238  
      2107       2108       2119       2118       2228       2229       2240       2239  
      2108       2109       2120       2119       2229       2230       2241       2240  
      2109       2110       2121       2120       2230       2231       2242       2241  
      2110       2111       2122       2121       2231       2232       2243       2242  
      2111       2112       2123       2122       2232       2233       2244       2243  
      2113       2114       2125       2124       2234       2235       2246       2245  
      2114       2115       2126       2125       2235       2236       2247       2246  
      2115       2116       2127       2126       2236       2237       2248       2247  
      2116       2117       2128       2127       2237       2238       2249       2248  
      2117       2118       2129       2128       2238       2239       2250       2249  
      2118       2119       2130       2129       2239       2240       2251       2250  
      2119       2120       2131       2130       2240       2241       2252       2251  
      2120       2121       2132       2131       2241       2242       2253       2252  
      2121       2122       2133       2132       2242       2243       2254       2253  
      2122       2123       2134       2133       2243       2244       2255       2254  
      2124       2125       2136       2135       2245       2246       2257       2256  
      2125       2126       2137       2136       2246       2247       2258       2257  
      2126       2127       2138       2137       2247       2248       2259       2258  
      2127       2128       2139       2138       2248       2249       2260       2259  
      2128       2129       2140       2139       2249       2250       2261       2260  
      2129       2130       2141       2140       2250       2251       2262       2261  
      2130       2131       2142       2141       2251       2252       2263       2262  
      2131       2132       2143       2142       2252       2253       2264       2263  
      2132       2133       2144       2143       2253       2254       2265       2264  
      2133       2134       2145       2144       2254       2255       2266       2265  
      2135       2136       2147       2146       2256       2257       2268       2267  
      2136       2137       2148       2147       2257       2258       2269       2268  
      2137       2138       2149       2148       2258       2259       2270       2269  
      2138       2139       2150       2149       2259       2260       2271       2270  
      2139       2140       2151       2150       2260       2261       2272       2271  
      2140       2141       2152       2151       2261       2262       2273       2272  
      2141       2142       2153       2152       2262       2263       2274       2273  
      2142       2143       2154       2153       2263       2264       2275       2274  
      2143       2144       2155       2154       2264       2265       2276       2275  
      2144       2145       2156       2155       2265       2266       2277       2276  
      2146       2147       2158       2157       2267       2268       2279       2278  
      2147       2148       2159       2158       2268       2269       2280       2279  
      2148       2149       2160       2159       2269       2270       2281       2280  
      2149       2150       2161       2160       2270       2271       2282       2281  
      2150       2151       2162       2161       2271       2272       2283       2282  
      2151       2152       2163       2162       2272       2273       2284       2283  
      2152       2153       2164       2163       2273       2274       2285       2284  
      2153       2154       2165       2164       2274       2275       2286       2285  
      2154       2155       2166       2165       2275       2276       2287       2286  
      2155       2156       2167       2166       2276       2277       2288       2287  
      2157       2158       2169       2168       2278       2279       2290       2289  
      2158       2159       2170       2169       2279       2280       2291       2290  
      2159       2160       2171       2170       2280       2281       2292       2291  
      2160       2161       2172       2171       2281       2282       2293       2292  
      2161       2162       2173       2172       2282       2283       2294       2293  
      2162       2163       2174       2173       2283       2284       2295       2294  
      2163       2164       2175       2174       2284       2285       2296       2295  
      2164       2165       2176       2175       2285       2286       2297       2296  
      2165       2166       2177       2176       2286       2287       2298       2297  
      2166       2167       2178       2177       2287       2288       2299       2298  
      2179       2180       2191       2190       2300       2301       2312       2311  
      2180       2181       2192       2191       2301       2302       2313       2312  
      2181       2182       2193       2192       2302       2303       2314       2313  
      2182       2183       2194       2193       2303       2304       2315       2314  
      2183       2184       2195       2194       2304       2305       2316       2315  
      2184       2185       2196       2195       2305       2306       2317       2316  
      2185       2186       2197       2196       2306       2307       2318       2317  
      2186       2187       2198       2197       2307       2308       2319       2318  
      2187       2188       2199       2198       2308       2309       2320       2319  
      2188       2189       2200       2199       2309       2310       2321       2320  
      2190       2191       2202       2201       2311       2312       2323       2322  
      2191       2192       2203       2202       2312       2313       2324       2323  
      2192       2193       2204       2203       2313       2314       2325       2324  
      2193       2194       2205       2204       2314       2315       2326       2325  
      2194       2195       2206       2205       2315       2316       2327       2326  
      2195       2196       2207       2206       2316       2317       2328       2327  
      2196       2197       2208       2207       2317       2318       2329       2328  
      2197       2198       2209       2208       2318       2319       2330       2329  
      2198       2199       2210       2209       2319       2320       2331       2330  
      2199       2200       2211       2210       2320       2321       2332       2331  
      2201       2202       2213       2212       2322       2323       2334       2333  
      2202       2203       2214       2213       2323       2324       2335       2334  
      2203       2204       2215       2214       2324       2325       2336       2335  
      2204       2205       2216       2215       2325       2326       2337       2336  
      2205       2206       2217       2216       2326       2327       2338       2337  
      2206       2207       2218       2217       2327       2328       2339       2338  
      2207       2208       2219       2218       2328       2329       2340       2339  
      2208       2209       2220       2219       2329       2330       2341       2340  
      2209       2210       2221       2220       2330       2331       2342       2341  
      2210       2211       2222       2221       2331       2332       2343       2342  
      2212       2213       2224       2223       2333       2334       2345       2344  
      2213       2214       2225       2224       2334       2335       2346       2345  
      2214       2215       2226       2225       2335       2336       2347       2346  
      2215       2216       2227       2226       2336       2337       2348       2347  
      2216       2217       2228       2227       2337       2338       2349       2348  
      2217       2218       2229       2228       2338       2339       2350       2349  
      2218       2219       2230       2229       2339       2340       2351       2350  
      2219       2220       2231       2230       2340       2341       2352       2351  
      2220       2221       2232       2231       2341       2342       2353       2352  
      2221       2222       2233       2232       2342       2343       2354       2353  
      2223       2224       2235       2234       2344       2345       2356       2355  
      2224       2225       2236       2235       2345       2346       2357       2356  
      2225       2226       2237       2236       2346       2347       2358       2357  
      2226       2227       2238       2237       2347       2348       2359       2358  
      2227       2228       2239       2238       2348       2349       2360       2359  
      2228       2229       2240       2239       2349       2350       2361       2360  
      2229       2230       2241       2240       2350       2351       2362       2361  
      2230       2231       2242       2241       2351       2352       2363       2362  
      2231       2232       2243       2242       2352       2353       2364       2363  
      2232       2233       2244       2243       2353       2354       2365       2364  
      2234       2235       2246       2245       2355       2356       2367       2366  
      2235       2236       2247       2246       2356       2357       2368       2367  
      2236       2237       2248       2247       2357       2358       2369       2368  
      2237       2238       2249       2248       2358       2359       2370       2369  
      2238       2239       2250       2249       2359       2360       2371       2370  
      2239       2240       2251       2250       2360       2361       2372       2371  
      2240       2241       2252       2251       2361       2362       2373       2372  
      2241       2242       2253       2252       2362       2363       2374       2373  
      2242       2243       2254       2253       2363       2364       2375       2374  
      2243       2244       2255       2254       2364       2365       2376       2375  
      2245       2246       2257       2256       2366       2367       2378       2377  
      2246       2247       2258       2257       2367       2368       2379       2378  
      2247       2248       2259       2258       2368       2369       2380       2379  
      2248       2249       2260       2259       2369       2370       2381       2380  
      2249       2250       2261       2260       2370       2371       2382       2381  
      2250       2251       2262       2261       2371       2372       2383       2382  
      2251       2252       2263       2262       2372       2373       2384       2383  
      2252       2253       2264       2263       2373       2374       2385       2384  
      2253       2254       2265       2264       2374       2375       2386       2385  
      2254       2255       2266       2265       2375       2376       2387       2386  
      2256       2257       2268       2267       2377       2378       2389       2388  
      2257       2258       2269       2268       2378       2379       2390       2389  
      2258       2259       2270       2269       2379       2380       2391       2390  
      2259       2260       2271       2270       2380       2381       2392       2391  
      2260       2261       2272       2271       2381       2382       2393       2392  
      2261       2262       2273       2272       2382       2383       2394       2393  
      2262       2263       2274       2273       2383       2384       2395       2394  
      2263       2264       2275       2274       2384       2385       2396       2395  
      2264       2265       2276       2275       2385       2386       2397       2396  
      2265       2266       2277       2276       2386       2387       2398       2397  
      2267       2268       2279       2278       2388       2389       2400       2399  
      2268       2269       2280       2279       2389       2390       2401       2400  
      2269       2270       2281       2280       2390       2391       2402       2401  
      2270       2271       2282       2281       2391       2392       2403       2402  
      2271       2272       2283       2282       2392       2393       2404       2403  
      2272       2273       2284       2283       2393       2394       2405       2404  
      2273       2274       2285       2284       2394       2395       2406       2405  
      2274       2275       2286       2285       2395       2396       2407       2406  
      2275       2276       2287       2286       2396       2397       2408       2407  
      2276       2277       2288       2287       2397       2398       2409       2408  
      2278       2279       2290       2289       2399       2400       2411       2410  
      2279       2280       2291       2290       2400       2401       2412       2411  
      2280       2281       2292       2291       2401       2402       2413       2412  
      2281       2282       2293       2292       2402       2403       2414       2413  
      2282       2283       2294       2293       2403       2404       2415       2414  
      2283       2284       2295       2294       2404       2405       2416       2415  
      2284       2285       2296       2295       2405       2406       2417       2416  
      2285       2286       2297       2296       2406       2407       2418       2417  
      2286       2287       2298       2297       2407       2408       2419       2418  
      2287       2288       2299       2298       2408       2409       2420       2419  
      2300       2301       2312       2311       2421       2422       2433       2432  
      2301       2302       2313       2312       2422       2423       2434       2433  
      2302       2303       2314       2313       2423       2424       2435       2434  
      2303       2304       2315       2314       2424       2425       2436       2435  
      2304       2305       2316       2315       2425       2426       2437       2436  
      2305       2306       2317       2316       2426       2427       2438       2437  
      2306       2307       2318       2317       2427       2428       2439       2438  
      2307       2308       2319       2318       2428       2429       2440       2439  
      2308       2309       2320       2319       2429       2430       2441       2440  
      2309       2310       2321       2320       2430       2431       2442       2441  
      2311       2312       2323       2322       2432       2433       2444       2443  
      2312       2313       2324       2323       2433       2434       2445       2444  
      2313       2314       2325       2324       2434       2435       2446       2445  
      2314       2315       2326       2325       2435       2436       2447       2446  
      2315       2316       2327       2326       2436       2437       2448       2447  
      2316       2317       2328       2327       2437       2438       2449       2448  
      2317       2318       2329       2328       2438       2439       2450       2449  
      2318       2319       2330       2329       2439       2440       2451       2450  
      2319       2320       2331       2330       2440       2441       2452       2451  
      2320       2321       2332       2331       2441       2442       2453       2452  
      2322       2323       2334       2333       2443       2444       2455       2454  
      2323       2324       2335       2334       2444       2445       2456       2455  
      2324       2325       2336       2335       2445       2446       2457       2456  
      2325       2326       2337       2336       2446       2447       2458       2457  
      2326       2327       2338       2337       2447       2448       2459       2458  
      2327       2328       2339       2338       2448       2449       2460       2459  
      2328       2329       2340       2339       2449       2450       2461       2460  
      2329       2330       2341       2340       2450       2451       2462       2461  
      2330       2331       2342       2341       2451       2452       2463       2462  
      2331       2332       2343       2342       2452       2453       2464       2463  
      2333       2334       2345       2344       2454       2455       2466       2465  
      2334       2335       2346       2345       2455       2456       2467       2466  
      2335       2336       2347       2346       2456       2457       2468       2467  
      2336       2337       2348       2347       2457       2458       2469       2468  
      2337       2338       2349       2348       2458       2459       2470       2469  
      2338       2339       2350       2349       2459       2460       2471       2470  
      2339       2340       2351       2350       2460       2461       2472       2471  
      2340       2341       2352       2351       2461       2462       2473       2472  
      2341       2342       2353       2352       2462       2463       2474       2473  
      2342       2343       2354       2353       2463       2464       2475       2474  
      2344       2345       2356       2355       2465       2466       2477       2476  
      2345       2346       2357       2356       2466       2467       2478       2477  
      2346       2347       2358       2357       2467       2468       2479       2478  
      2347       2348       2359       2358       2468       2469       2480       2479  
      2348       2349       2360       2359       2469       2470       2481       2480  
      2349       2350       2361       2360       2470       2471       2482       2481  
      2350       2351       2362       2361       2471       2472       2483       2482  
      2351       2352       2363       2362       2472       2473       2484       2483  
      2352       2353       2364       2363       2473       2474       2485       2484  
      2353       2354       2365       2364       2474       2475       2486       2485  
      2355       2356       2367       2366       2476       2477       2488       2487  
      2356       2357       2368       2367       2477       2478       2489       2488  
      2357       2358       2369       2368       2478       2479       2490       2489  
      2358       2359       2370       2369       2479       2480       2491       2490  
      2359       2360       2371       2370       2480       2481       2492       2491  
      2360       2361       2372       2371       2481       2482       2493       2492  
      2361       2362       2373       2372       2482       2483       2494       2493  
      2362       2363       2374       2373       2483       2484       2495       2494  
      2363       2364       2375       2374       2484       2485       2496       2495  
      2364       2365       2376       2375       2485       2486       2497       2496  
      2366       2367       2378       2377       2487       2488       2499       2498  
      2367       2368       2379       2378       2488       2489       2500       2499  
      2368       2369       2380       2379       2489       2490       2501       2500  
      2369       2370       2381       2380       2490       2491       2502       2501  
      2370       2371       2382       2381       2491       2492       2503       2502  
      2371       2372       2383       2382       2492       2493       2504       2503  
      2372       2373       2384       2383       2493       2494       2505       2504  
      2373       2374       2385       2384       2494       2495       2506       2505  
      2374       2375       2386       2385       2495       2496       2507       2506  
      2375       2376       2387       2386       2496       2497       2508       2507  
      2377       2378       2389       2388       2498       2499       2510       2509  
      2378       2379       2390       2389       2499       2500       2511       2510  
      2379       2380       2391       2390       2500       2501       2512       2511  
      2380       2381       2392       2391       2501       2502       2513       2512  
      2381       2382       2393       2392       2502       2503       2514       2513  
      2382       2383       2394       2393       2503       2504       2515       2514  
      2383       2384       2395       2394       2504       2505       2516       2515  
      2384       2385       2396       2395       2505       2506       2517       2516  
      2385       2386       2397       2396       2506       2507       2518       2517  
      2386       2387       2398       2397       2507       2508       2519       2518  
      2388       2389       2400       2399       2509       2510       2521       2520  
      2389       2390       2401       2400       2510       2511       2522       2521  
      2390       2391       2402       2401       2511       2512       2523       2522  
      2391       2392       2403       2402       2512       2513       2524       2523  
      2392       2393       2404       2403       2513       2514       2525       2524  
      2393       2394       2405       2404       2514       2515       2526       2525  
      2394       2395       2406       2405       2515       2516       2527       2526  
      2395       2396       2407       2406       2516       2517       2528       2527  
      2396       2397       2408       2407       2517       2518       2529       2528  
      2397       2398       2409       2408       2518       2519       2530       2529  
      2399       2400       2411       2410       2520       2521       2532       2531  
      2400       2401       2412       2411       2521       2522       2533       2532  
      2401       2402       2413       2412       2522       2523       2534       2533  
      2402       2403       2414       2413       2523       2524       2535       2534  
      2403       2404       2415       2414       2524       2525       2536       2535  
      2404       2405       2416       2415       2525       2526       2537       2536  
      2405       2406       2417       2416       2526       2527       2538       2537  
      2406       2407       2418       2417       2527       2528       2539       2538  
      2407       2408       2419       2418       2528       2529       2540       2539  
      2408       2409       2420       2419       2529       2530       2541       2540  
      2421       2422       2433       2432       2542       2543       2554       2553  
      2422       2423       2434       2433       2543       2544       2555       2554  
      2423       2424       2435       2434       2544       2545       2556       2555  
      2424       2425       2436       2435       2545       2546       2557       2556  
      2425       2426       2437       2436       2546       2547       2558       2557  
      2426       2427       2438       2437       2547       2548       2559       2558  
      2427       2428       2439       2438       2548       2549       2560       2559  
      2428       2429       2440       2439       2549       2550       2561       2560  
      2429       2430       2441       2440       2550       2551       2562       2561  
      2430       2431       2442       2441       2551       2552       2563       2562  
      2432       2433       2444       2443       2553       2554       2565       2564  
      2433       2434       2445       2444       2554       2555       2566       2565  
      2434       2435       2446       2445       2555       2556       2567       2566  
      2435       2436       2447       2446       2556       2557       2568       2567  
      2436       2437       2448       2447       2557       2558       2569       2568  
      2437       2438       2449       2448       2558       2559       2570       2569  
      2438       2439       2450       2449       2559       2560       2571       2570  
      2439       2440       2451       2450       2560       2561       2572       2571  
      2440       2441       2452       2451       2561       2562       2573       2572  
      2441       2442       2453       2452       2562       2563       2574       2573  
      2443       2444       2455       2454       2564       2565       2576       2575  
      2444       2445       2456       2455       2565       2566       2577       2576  
      2445       2446       2457       2456       2566       2567       2578       2577  
      2446       2447       2458       2457       2567       2568       2579       2578  
      2447       2448       2459       2458       2568       2569       2580       2579  
      2448       2449       2460       2459       2569       2570       2581       2580  
      2449       2450       2461       2460       2570       2571       2582       2581  
      2450       2451       2462       2461       2571       2572       2583       2582  
      2451       2452       2463       2462       2572       2573       2584       2583  
      2452       2453       2464       2463       2573       2574       2585       2584  
      2454       2455       2466       2465       2575       2576       2587       2586  
      2455       2456       2467       2466       2576       2577       2588       2587  
      2456       2457       2468       2467       2577       2578       2589       2588  
      2457       2458       2469       2468       2578       2579       2590       2589  
      2458       2459       2470       2469       2579       2580       2591       2590  
      2459       2460       2471       2470       2580       2581       2592       2591  
      2460       2461       2472       2471       2581       2582       2593       2592  
      2461       2462       2473       2472       2582       2583       2594       2593  
      2462       2463       2474       2473       2583       2584       2595       2594  
      2463       2464       2475       2474       2584       2585       2596       2595  
      2465       2466       2477       2476       2586       2587       2598       2597  
      2466       2467       2478       2477       2587       2588       2599       2598  
      2467       2468       2479       2478       2588       2589       2600       2599  
      2468       2469       2480       2479       2589       2590       2601       2600  
      2469       2470       2481       2480       2590       2591       2602       2601  
      2470       2471       2482       2481       2591       2592       2603       2602  
      2471       2472       2483       2482       2592       2593       2604       2603  
      2472       2473       2484       2483       2593       2594       2605       2604  
      2473       2474       2485       2484       2594       2595       2606       2605  
      2474       2475       2486       2485       2595       2596       2607       2606  
      2476       2477       2488       2487       2597       2598       2609       2608  
      2477       2478       2489       2488       2598       2599       2610       2609  
      2478       2479       2490       2489       2599       2600       2611       2610  
      2479       2480       2491       2490       2600       2601       2612       2611  
      2480       2481       2492       2491       2601       2602       2613       2612  
      2481       2482       2493       2492       2602       2603       2614       2613  
      2482       2483       2494       2493       2603       2604       2615       2614  
      2483       2484       2495       2494       2604       2605       2616       2615  
      2484       2485       2496       2495       2605       2606       2617       2616  
      2485       2486       2497       2496       2606       2607       2618       2617  
      2487       2488       2499       2498       2608       2609       2620       2619  
      2488       2489       2500       2499       2609       2610       2621       2620  
      2489       2490       2501       2500       2610       2611       2622       2621  
      2490       2491       2502       2501       2611       2612       2623       2622  
      2491       2492       2503       2502       2612       2613       2624       2623  
      2492       2493       2504       2503       2613       2614       2625       2624  
      2493       2494       2505       2504       2614       2615       2626       2625  
      2494       2495       2506       2505       2615       2616       2627       2626  
      2495       2496       2507       2506       2616       2617       2628       2627  
      2496       2497       2508       2507       2617       2618       2629       2628  
      2498       2499       2510       2509       2619       2620       2631       2630  
      2499       2500       2511       2510       2620       2621       2632       2631  
      2500       2501       2512       2511       2621       2622       2633       2632  
      2501       2502       2513       2512       2622       2623       2634       2633  
      2502       2503       2514       2513       2623       2624       2635       2634  
      2503       2504       2515       2514       2624       2625       2636       2635  
      2504       2505       2516       2515       2625       2626       2637       2636  
      2505       2506       2517       2516       2626       2627       2638       2637  
      2506       2507       2518       2517       2627       2628       2639       2638  
      2507       2508       2519       2518       2628       2629       2640       2639  
      2509       2510       2521       2520       2630       2631       2642       2641  
      2510       2511       2522       2521       2631       2632       2643       2642  
      2511       2512       2523       2522       2632       2633       2644       2643  
      2512       2513       2524       2523       2633       2634       2645       2644  
      2513       2514       2525       2524       2634       2635       2646       2645  
      2514       2515       2526       2525       2635       2636       2647       2646  
      2515       2516       2527       2526       2636       2637       2648       2647  
      2516       2517       2528       2527       2637       2638       2649       2648  
      2517       2518       2529       2528       2638       2639       2650       2649  
      2518       2519       2530       2529       2639       2640       2651       2650  
      2520       2521       2532       2531       2641       2642       2653       2652  
      2521       2522       2533       2532       2642       2643       2654       2653  
      2522       2523       2534       2533       2643       2644       2655       2654  
      2523       2524       2535       2534       2644       2645       2656       2655  
      2524       2525       2536       2535       2645       2646       2657       2656  
      2525       2526       2537       2536       2646       2647       2658       2657  
      2526       2527       2538       2537       2647       2648       2659       2658  
      2527       2528       2539       2538       2648       2649       2660       2659  
      2528       2529       2540       2539       2649       2650       2661       2660  
      2529       2530       2541       2540       2650       2651       2662       2661  
      2542       2543       2554       2553       2663       2664       2675       2674  
      2543       2544       2555       2554       2664       2665       2676       2675  
      2544       2545       2556       2555       2665       2666       2677       2676  
      2545       2546       2557       2556       2666       2667       2678       2677  
      2546       2547       2558       2557       2667       2668       2679       2678  
      2547       2548       2559       2558       2668       2669       2680       2679  
      2548       2549       2560       2559       2669       2670       2681       2680  
      2549       2550       2561       2560       2670       2671       2682       2681  
      2550       2551       2562       2561       2671       2672       2683       2682  
      2551       2552       2563       2562       2672       2673       2684       2683  
      2553       2554       2565       2564       2674       2675       2686       2685  
      2554       2555       2566       2565       2675       2676       2687       2686  
      2555       2556       2567       2566       2676       2677       2688       2687  
      2556       2557       2568       2567       2677       2678       2689       2688  
      2557       2558       2569       2568       2678       2679       2690       2689  
      2558       2559       2570       2569       2679       2680       2691       2690  
      2559       2560       2571       2570       2680       2681       2692       2691  
      2560       2561       2572       2571       2681       2682       2693       2692  
      2561       2562       2573       2572       2682       2683       2694       2693  
      2562       2563       2574       2573       2683       2684       2695       2694  
      2564       2565       2576       2575       2685       2686       2697       2696  
      2565       2566       2577       2576       2686       2687       2698       2697  
      2566       2567       2578       2577       2687       2688       2699       2698  
      2567       2568       2579       2578       2688       2689       2700       2699  
      2568       2569       2580       2579       2689       2690       2701       2700  
      2569       2570       2581       2580       2690       2691       2702       2701  
      2570       2571       2582       2581       2691       2692       2703       2702  
      2571       2572       2583       2582       2692       2693       2704       2703  
      2572       2573       2584       2583       2693       2694       2705       2704  
      2573       2574       2585       2584       2694       2695       2706       2705  
      2575       2576       2587       2586       2696       2697       2708       2707  
      2576       2577       2588       2587       2697       2698       2709       2708  
      2577       2578       2589       2588       2698       2699       2710       2709  
      2578       2579       2590       2589       2699       2700       2711       2710  
      2579       2580       2591       2590       2700       2701       2712       2711  
      2580       2581       2592       2591       2701       2702       2713       2712  
      2581       2582       2593       2592       2702       2703       2714       2713  
      2582       2583       2594       2593       2703       2704       2715       2714  
      2583       2584       2595       2594       2704       2705       2716       2715  
      2584       2585       2596       2595       2705       2706       2717       2716  
      2586       2587       2598       2597       2707       2708       2719       2718  
      2587       2588       2599       2598       2708       2709       2720       2719  
      2588       2589       2600       2599       2709       2710       2721       2720  
      2589       2590       2601       2600       2710       2711       2722       2721  
      2590       2591       2602       2601       2711       2712       2723       2722  
      2591       2592       2603       2602       2712       2713       2724       2723  
      2592       2593       2604       2603       2713       2714       2725       2724  
      2593       2594       2605       2604       2714       2715       2726       2725  
      2594       2595       2606       2605       2715       2716       2727       2726  
      2595       2596       2607       2606       2716       2717       2728       2727  
      2597       2598       2609       2608       2718       2719       2730       2729  
      2598       2599       2610       2609       2719       2720       2731       2730  
      2599       2600       2611       2610       2720       2721       2732       2731  
      2600       2601       2612       2611       2721       2722       2733       2732  
      2601       2602       2613       2612       2722       2723       2734       2733  
      2602       2603       2614       2613       2723       2724       2735       2734  
      2603       2604       2615       2614       2724       2725       2736       2735  
      2604       2605       2616       2615       2725       2726       2737       2736  
      2605       2606       2617       2616       2726       2727       2738       2737  
      2606       2607       2618       2617       2727       2728       2739       2738  
      2608       2609       2620       2619       2729       2730       2741       2740  
      2609       2610       2621       2620       2730       2731       2742       2741  
      2610       2611       2622       2621       2731       2732       2743       2742  
      2611       2612       2623       2622       2732       2733       2744       2743  
      2612       2613       2624       2623       2733       2734       2745       2744  
      2613       2614       2625       2624       2734       2735       2746       2745  
      2614       2615       2626       2625       2735       2736       2747       2746  
      2615       2616       2627       2626       2736       2737       2748       2747  
      2616       2617       2628       2627       2737       2738       2749       2748  
      2617       2618       2629       2628       2738       2739       2750       2749  
      2619       2620       2631       2630       2740       2741       2752       2751  
      2620       2621       2632       2631       2741       2742       2753       2752  
      2621       2622       2633       2632       2742       2743       2754       2753  
      2622       2623       2634       2633       2743       2744       2755       2754  
      2623       2624       2635       2634       2744       2745       2756       2755  
      2624       2625       2636       2635       2745       2746       2757       2756  
      2625       2626       2637       2636       2746       2747       2758       2757  
      2626       2627       2638       2637       2747       2748       2759       2758  
      2627       2628       2639       2638       2748       2749       2760       2759  
      2628       2629       2640       2639       2749       2750       2761       2760  
      2630       2631       2642       2641       2751       2752       2763       2762  
      2631       2632       2643       2642       2752       2753       2764       2763  
      2632       2633       2644       2643       2753       2754       2765       2764  
      2633       2634       2645       2644       2754       2755       2766       2765  
      2634       2635       2646       2645       2755       2756       2767       2766  
      2635       2636       2647       2646       2756       2757       2768       2767  
      2636       2637       2648       2647       2757       2758       2769       2768  
      2637       2638       2649       2648       2758       2759       2770       2769  
      2638       2639       2650       2649       2759       2760       2771       2770  
      2639       2640       2651       2650       2760       2761       2772       2771  
      2641       2642       2653       2652       2762       2763       2774       2773  
      2642       2643       2654       2653       2763       2764       2775       2774  
      2643       2644       2655       2654       2764       2765       2776       2775  
      2644       2645       2656       2655       2765       2766       2777       2776  
      2645       2646       2657       2656       2766       2767       2778       2777  
      2646       2647       2658       2657       2767       2768       2779       2778  
      2647       2648       2659       2658       2768       2769       2780       2779  
      2648       2649       2660       2659       2769       2770       2781       2780  
      2649       2650       2661       2660       2770       2771       2782       2781  
      2650       2651       2662       2661       2771       2772       2783       2782  
      2663       2664       2675       2674       2784       2785       2796       2795  
      2664       2665       2676       2675       2785       2786       2797       2796  
      2665       2666       2677       2676       2786       2787       2798       2797  
      2666       2667       2678       2677       2787       2788       2799       2798  
      2667       2668       2679       2678       2788       2789       2800       2799  
      2668       2669       2680       2679       2789       2790       2801       2800  
      2669       2670       2681       2680       2790       2791       2802       2801  
      2670       2671       2682       2681       2791       2792       2803       2802  
      2671       2672       2683       2682       2792       2793       2804       2803  
      2672       2673       2684       2683       2793       2794       2805       2804  
      2674       2675       2686       2685       2795       2796       2807       2806  
      2675       2676       2687       2686       2796       2797       2808       2807  
      2676       2677       2688       2687       2797       2798       2809       2808  
      2677       2678       2689       2688       2798       2799       2810       2809  
      2678       2679       2690       2689       2799       2800       2811       2810  
      2679       2680       2691       2690       2800       2801       2812       2811  
      2680       2681       2692       2691       2801       2802       2813       2812  
      2681       2682       2693       2692       2802       2803       2814       2813  
      2682       2683       2694       2693       2803       2804       2815       2814  
      2683       2684       2695       2694       2804       2805       2816       2815  
      2685       2686       2697       2696       2806       2807       2818       2817  
      2686       2687       2698       2697       2807       2808       2819       2818  
      2687       2688       2699       2698       2808       2809       2820       2819  
      2688       2689       2700       2699       2809       2810       2821       2820  
      2689       2690       2701       2700       2810       2811       2822       2821  
      2690       2691       2702       2701       2811       2812       2823       2822  
      2691       2692       2703       2702       2812       2813       2824       2823  
      2692       2693       2704       2703       2813       2814       2825       2824  
      2693       2694       2705       2704       2814       2815       2826       2825  
      2694       2695       2706       2705       2815       2816       2827       2826  
      2696       2697       2708       2707       2817       2818       2829       2828  
      2697       2698       2709       2708       2818       2819       2830       2829  
      2698       2699       2710       2709       2819       2820       2831       2830  
      2699       2700       2711       2710       2820       2821       2832       2831  
      2700       2701       2712       2711       2821       2822       2833       2832  
      2701       2702       2713       2712       2822       2823       2834       2833  
      2702       2703       2714       2713       2823       2824       2835       2834  
      2703       2704       2715       2714       2824       2825       2836       2835  
      2704       2705       2716       2715       2825       2826       2837       2836  
      2705       2706       2717       2716       2826       2827       2838       2837  
      2707       2708       2719       2718       2828       2829       2840       2839  
      2708       2709       2720       2719       2829       2830       2841       2840  
      2709       2710       2721       2720       2830       2831       2842       2841  
      2710       2711       2722       2721       2831       2832       2843       2842  
      2711       2712       2723       2722       2832       2833       2844       2843  
      2712       2713       2724       2723       2833       2834       2845       2844  
      2713       2714       2725       2724       2834       2835       2846       2845  
      2714       2715       2726       2725       2835       2836       2847       2846  
      2715       2716       2727       2726       2836       2837       2848       2847  
      2716       2717       2728       2727       2837       2838       2849       2848  
      2718       2719       2730       2729       2839       2840       2851       2850  
      2719       2720       2731       2730       2840       2841       2852       2851  
      2720       2721       2732       2731       2841       2842       2853       2852  
      2721       2722       2733       2732       2842       2843       2854       2853  
      2722       2723       2734       2733       2843       2844       2855       2854  
      2723       2724       2735       2734       2844       2845       2856       2855  
      2724       2725       2736       2735       2845       2846       2857       2856  
      2725       2726       2737       2736       2846       2847       2858       2857  
      2726       2727       2738       2737       2847       2848       2859       2858  
      2727       2728       2739       2738       2848       2849       2860       2859  
      2729       2730       2741       2740       2850       2851       2862       2861  
      2730       2731       2742       2741       2851       2852       2863       2862  
      2731       2732       2743       2742       2852       2853       2864       2863  
      2732       2733       2744       2743       2853       2854       2865       2864  
      2733       2734       2745       2744       2854       2855       2866       2865  
      2734       2735       2746       2745       2855       2856       2867       2866  
      2735       2736       2747       2746       2856       2857       2868       2867  
      2736       2737       2748       2747       2857       2858       2869       2868  
      2737       2738       2749       2748       2858       2859       2870       2869  
      2738       2739       2750       2749       2859       2860       2871       2870  
      2740       2741       2752       2751       2861       2862       2873       2872  
      2741       2742       2753       2752       2862       2863       2874       2873  
      2742       2743       2754       2753       2863       2864       2875       2874  
      2743       2744       2755       2754       2864       2865       2876       2875  
      2744       2745       2756       2755       2865       2866       2877       2876  
      2745       2746       2757       2756       2866       2867       2878       2877  
      2746       2747       2758       2757       2867       2868       2879       2878  
      2747       2748       2759       2758       2868       2869       2880       2879  
      2748       2749       2760       2759       2869       2870       2881       2880  
      2749       2750       2761       2760       2870       2871       2882       2881  
      2751       2752       2763       2762       2872       2873       2884       2883  
      2752       2753       2764       2763       2873       2874       2885       2884  
      2753       2754       2765       2764       2874       2875       2886       2885  
      2754       2755       2766       2765       2875       2876       2887       2886  
      2755       2756       2767       2766       2876       2877       2888       2887  
      2756       2757       2768       2767       2877       2878       2889       2888  
      2757       2758       2769       2768       2878       2879       2890       2889  
      2758       2759       2770       2769       2879       2880       2891       2890  
      2759       2760       2771       2770       2880       2881       2892       2891  
      2760       2761       2772       2771       2881       2882       2893       2892  
      2762       2763       2774       2773       2883       2884       2895       2894  
      2763       2764       2775       2774       2884       2885       2896       2895  
      2764       2765       2776       2775       2885       2886       2897       2896  
      2765       2766       2777       2776       2886       2887       2898       2897  
      2766       2767       2778       2777       2887       2888       2899       2898  
      2767       2768       2779       2778       2888       2889       2900       2899  
      2768       2769       2780       2779       2889       2890       2901       2900  
      2769       2770       2781       2780       2890       2891       2902       2901  
      2770       2771       2782       2781       2891       2892       2903       2902  
      2771       2772       2783       2782       2892       2893       2904       2903  
      2784       2785       2796       2795       2905       2906       2917       2916  
      2785       2786       2797       2796       2906       2907       2918       2917  
      2786       2787       2798       2797       2907       2908       2919       2918  
      2787       2788       2799       2798       2908       2909       2920       2919  
      2788       2789       2800       2799       2909       2910       2921       2920  
      2789       2790       2801       2800       2910       2911       2922       2921  
      2790       2791       2802       2801       2911       2912       2923       2922  
      2791       2792       2803       2802       2912       2913       2924       2923  
      2792       2793       2804       2803       2913       2914       2925       2924  
      2793       2794       2805       2804       2914       2915       2926       2925  
      2795       2796       2807       2806       2916       2917       2928       2927  
      2796       2797       2808       2807       2917       2918       2929       2928  
      2797       2798       2809       2808       2918       2919       2930       2929  
      2798       2799       2810       2809       2919       2920       2931       2930  
      2799       2800       2811       2810       2920       2921       2932       2931  
      2800       2801       2812       2811       2921       2922       2933       2932  
      2801       2802       2813       2812       2922       2923       2934       2933  
      2802       2803       2814       2813       2923       2924       2935       2934  
      2803       2804       2815       2814       2924       2925       2936       2935  
      2804       2805       2816       2815       2925       2926       2937       2936  
      2806       2807       2818       2817       2927       2928       2939       2938  
      2807       2808       2819       2818       2928       2929       2940       2939  
      2808       2809       2820       2819       2929       2930       2941       2940  
      2809       2810       2821       2820       2930       2931       2942       2941  
      2810       2811       2822       2821       2931       2932       2943       2942  
      2811       2812       2823       2822       2932       2933       2944       2943  
      2812       2813       2824       2823       2933       2934       2945       2944  
      2813       2814       2825       2824       2934       2935       2946       2945  
      2814       2815       2826       2825       2935       2936       2947       2946  
      2815       2816       2827       2826       2936       2937       2948       2947  
      2817       2818       2829       2828       2938       2939       2950       2949  
      2818       2819       2830       2829       2939       2940       2951       2950  
      2819       2820       2831       2830       2940       2941       2952       2951  
      2820       2821       2832       2831       2941       2942       2953       2952  
      2821       2822       2833       2832       2942       2943       2954       2953  
      2822       2823       2834       2833       2943       2944       2955       2954  
      2823       2824       2835       2834       2944       2945       2956       2955  
      2824       2825       2836       2835       2945       2946       2957       2956  
      2825       2826       2837       2836       2946       2947       2958       2957  
      2826       2827       2838       2837       2947       2948       2959       2958  
      2828       2829       2840       2839       2949       2950       2961       2960  
      2829       2830       2841       2840       2950       2951       2962       2961  
      2830       2831       2842       2841       2951       2952       2963       2962  
      2831       2832       2843       2842       2952       2953       2964       2963  
      2832       2833       2844       2843       2953       2954       2965       2964  
      2833       2834       2845       2844       2954       2955       2966       2965  
      2834       2835       2846       2845       2955       2956       2967       2966  
      2835       2836       2847       2846       2956       2957       2968       2967  
      2836       2837       2848       2847       2957       2958       2969       2968  
      2837       2838       2849       2848       2958       2959       2970       2969  
      2839       2840       2851       2850       2960       2961       2972       2971  
      2840       2841       2852       2851       2961       2962       2973       2972  
      2841       2842       2853       2852       2962       2963       2974       2973  
      2842       2843       2854       2853       2963       2964       2975       2974  
      2843       2844       2855       2854       2964       2965       2976       2975  
      2844       2845       2856       2855       2965       2966       2977       2976  
      2845       2846       2857       2856       2966       2967       2978       2977  
      2846       2847       2858       2857       2967       2968       2979       2978  
      2847       2848       2859       2858       2968       2969       2980       2979  
      2848       2849       2860       2859       2969       2970       2981       2980  
      2850       2851       2862       2861       2971       2972       2983       2982  
      2851       2852       2863       2862       2972       2973       2984       2983  
      2852       2853       2864       2863       2973       2974       2985       2984  
      2853       2854       2865       2864       2974       2975       2986       2985  
      2854       2855       2866       2865       2975       2976       2987       2986  
      2855       2856       2867       2866       2976       2977       2988       2987  
      2856       2857       2868       2867       2977       2978       2989       2988  
      2857       2858       2869       2868       2978       2979       2990       2989  
      2858       2859       2870       2869       2979       2980       2991       2990  
      2859       2860       2871       2870       2980       2981       2992       2991  
      2861       2862       2873       2872       2982       2983       2994       2993  
      2862       2863       2874       2873       2983       2984       2995       2994  
      2863       2864       2875       2874       2984       2985       2996       2995  
      2864       2865       2876       2875       2985       2986       2997       2996  
      2865       2866       2877       2876       2986       2987       2998       2997  
      2866       2867       2878       2877       2987       2988       2999       2998  
      2867       2868       2879       2878       2988       2989       3000       2999  
      2868       2869       2880       2879       2989       2990       3001       3000  
      2869       2870       2881       2880       2990       2991       3002       3001  
      2870       2871       2882       2881       2991       2992       3003       3002  
      2872       2873       2884       2883       2993       2994       3005       3004  
      2873       2874       2885       2884       2994       2995       3006       3005  
      2874       2875       2886       2885       2995       2996       3007       3006  
      2875       2876       2887       2886       2996       2997       3008       3007  
      2876       2877       2888       2887       2997       2998       3009       3008  
      2877       2878       2889       2888       2998       2999       3010       3009  
      2878       2879       2890       2889       2999       3000       3011       3010  
      2879       2880       2891       2890       3000       3001       3012       3011  
      2880       2881       2892       2891       3001       3002       3013       3012  
      2881       2882       2893       2892       3002       3003       3014       3013  
      2883       2884       2895       2894       3004       3005       3016       3015  
      2884       2885       2896       2895       3005       3006       3017       3016  
      2885       2886       2897       2896       3006       3007       3018       3017  
      2886       2887       2898       2897       3007       3008       3019       3018  
      2887       2888       2899       2898       3008       3009       3020       3019  
      2888       2889       2900       2899       3009       3010       3021       3020  
      2889       2890       2901       2900       3010       3011       3022       3021  
      2890       2891       2902       2901       3011       3012       3023       3022  
      2891       2892       2903       2902       3012       3013       3024       3023  
      2892       2893       2904       2903       3013       3014       3025       3024  
      2905       2906       2917       2916       3026       3027       3038       3037  
      2906       2907       2918       2917       3027       3028       3039       3038  
      2907       2908       2919       2918       3028       3029       3040       3039  
      2908       2909       2920       2919       3029       3030       3041       3040  
      2909       2910       2921       2920       3030       3031       3042       3041  
      2910       2911       2922       2921       3031       3032       3043       3042  
      2911       2912       2923       2922       3032       3033       3044       3043  
      2912       2913       2924       2923       3033       3034       3045       3044  
      2913       2914       2925       2924       3034       3035       3046       3045  
      2914       2915       2926       2925       3035       3036       3047       3046  
      2916       2917       2928       2927       3037       3038       3049       3048  
      2917       2918       2929       2928       3038       3039       3050       3049  
      2918       2919       2930       2929       3039       3040       3051       3050  
      2919       2920       2931       2930       3040       3041       3052       3051  
      2920       2921       2932       2931       3041       3042       3053       3052  
      2921       2922       2933       2932       3042       3043       3054       3053  
      2922       2923       2934       2933       3043       3044       3055       3054  
      2923       2924       2935       2934       3044       3045       3056       3055  
      2924       2925       2936       2935       3045       3046       3057       3056  
      2925       2926       2937       2936       3046       3047       3058       3057  
      2927       2928       2939       2938       3048       3049       3060       3059  
      2928       2929       2940       2939       3049       3050       3061       3060  
      2929       2930       2941       2940       3050       3051       3062       3061  
      2930       2931       2942       2941       3051       3052       3063       3062  
      2931       2932       2943       2942       3052       3053       3064       3063  
      2932       2933       2944       2943       3053       3054       3065       3064  
      2933       2934       2945       2944       3054       3055       3066       3065  
      2934       2935       2946       2945       3055       3056       3067       3066  
      2935       2936       2947       2946       3056       3057       3068       3067  
      2936       2937       2948       2947       3057       3058       3069       3068  
      2938       2939       2950       2949       3059       3060       3071       3070  
      2939       2940       2951       2950       3060       3061       3072       3071  
      2940       2941       2952       2951       3061       3062       3073       3072  
      2941       2942       2953       2952       3062       3063       3074       3073  
      2942       2943       2954       2953       3063       3064       3075       3074  
      2943       2944       2955       2954       3064       3065       3076       3075  
      2944       2945       2956       2955       3065       3066       3077       3076  
      2945       2946       2957       2956       3066       3067       3078       3077  
      2946       2947       2958       2957       3067       3068       3079       3078  
      2947       2948       2959       2958       3068       3069       3080       3079  
      2949       2950       2961       2960       3070       3071       3082       3081  
      2950       2951       2962       2961       3071       3072       3083       3082  
      2951       2952       2963       2962       3072       3073       3084       3083  
      2952       2953       2964       2963       3073       3074       3085       3084  
      2953       2954       2965       2964       3074       3075       3086       3085  
      2954       2955       2966       2965       3075       3076       3087       3086  
      2955       2956       2967       2966       3076       3077       3088       3087  
      2956       2957       2968       2967       3077       3078       3089       3088  
      2957       2958       2969       2968       3078       3079       3090       3089  
      2958       2959       2970       2969       3079       3080       3091       3090  
      2960       2961       2972       2971       3081       3082       3093       3092  
      2961       2962       2973       2972       3082       3083       3094       3093  
      2962       2963       2974       2973       3083       3084       3095       3094  
      2963       2964       2975       2974       3084       3085       3096       3095  
      2964       2965       2976       2975       3085       3086       3097       3096  
      2965       2966       2977       2976       3086       3087       3098       3097  
      2966       2967       2978       2977       3087       3088       3099       3098  
      2967       2968       2979       2978       3088       3089       3100       3099  
      2968       2969       2980       2979       3089       3090       3101       3100  
      2969       2970       2981       2980       3090       3091       3102       3101  
      2971       2972       2983       2982       3092       3093       3104       3103  
      2972       2973       2984       2983       3093       3094       3105       3104  
      2973       2974       2985       2984       3094       3095       3106       3105  
      2974       2975       2986       2985       3095       3096       3107       3106  
      2975       2976       2987       2986       3096       3097       3108       3107  
      2976       2977       2988       2987       3097       3098       3109       3108  
      2977       2978       2989       2988       3098       3099       3110       3109  
      2978       2979       2990       2989       3099       3100       3111       3110  
      2979       2980       2991       2990       3100       3101       3112       3111  
      2980       2981       2992       2991       3101       3102       3113       3112  
      2982       2983       2994       2993       3103       3104       3115       3114  
      2983       2984       2995       2994       3104       3105       3116       3115  
      2984       2985       2996       2995       3105       3106       3117       3116  
      2985       2986       2997       2996       3106       3107       3118       3117  
      2986       2987       2998       2997       3107       3108       3119       3118  
      2987       2988       2999       2998       3108       3109       3120       3119  
      2988       2989       3000       2999       3109       3110       3121       3120  
      2989       2990       3001       3000       3110       3111       3122       3121  
      2990       2991       3002       3001       3111       3112       3123       3122  
      2991       2992       3003       3002       3112       3113       3124       3123  
      2993       2994       3005       3004       3114       3115       3126       3125  
      2994       2995       3006       3005       3115       3116       3127       3126  
      2995       2996       3007       3006       3116       3117       3128       3127  
      2996       2997       3008       3007       3117       3118       3129       3128  
      2997       2998       3009       3008       3118       3119       3130       3129  
      2998       2999       3010       3009       3119       3120       3131       3130  
      2999       3000       3011       3010       3120       3121       3132       3131  
      3000       3001       3012       3011       3121       3122       3133       3132  
      3001       3002       3013       3012       3122       3123       3134       3133  
      3002       3003       3014       3013       3123       3124       3135       3134  
      3004       3005       3016       3015       3125       3126       3137       3136  
      3005       3006       3017       3016       3126       3127       3138       3137  
      3006       3007       3018       3017       3127       3128       3139       3138  
      3007       3008       3019       3018       3128       3129       3140       3139  
      3008       3009       3020       3019       3129       3130       3141       3140  
      3009       3010       3021       3020       3130       3131       3142       3141  
      3010       3011       3022       3021       3131       3132       3143       3142  
      3011       3012       3023       3022       3132       3133       3144       3143  
      3012       3013       3024       3023       3133       3134       3145       3144  
      3013       3014       3025       3024       3134       3135       3146       3145  
      3026       3027       3038       3037       3147       3148       3159       3158  
      3027       3028       3039       3038       3148       3149       3160       3159  
      3028       3029       3040       3039       3149       3150       3161       3160  
      3029       3030       3041       3040       3150       3151       3162       3161  
      3030       3031       3042       3041       3151       3152       3163       3162  
      3031       3032       3043       3042       3152       3153       3164       3163  
      3032       3033       3044       3043       3153       3154       3165       3164  
      3033       3034       3045       3044       3154       3155       3166       3165  
      3034       3035       3046       3045       3155       3156       3167       3166  
      3035       3036       3047       3046       3156       3157       3168       3167  
      3037       3038       3049       3048       3158       3159       3170       3169  
      3038       3039       3050       3049       3159       3160       3171       3170  
      3039       3040       3051       3050       3160       3161       3172       3171  
      3040       3041       3052       3051       3161       3162       3173       3172  
      3041       3042       3053       3052       3162       3163       3174       3173  
      3042       3043       3054       3053       3163       3164       3175       3174  
      3043       3044       3055       3054       3164       3165       3176       3175  
      3044       3045       3056       3055       3165       3166       3177       3176  
      3045       3046       3057       3056       3166       3167       3178       3177  
      3046       3047       3058       3057       3167       3168       3179       3178  
      3048       3049       3060       3059       3169       3170       3181       3180  
      3049       3050       3061       3060       3170       3171       3182       3181  
      3050       3051       3062       3061       3171       3172       3183       3182  
      3051       3052       3063       3062       3172       3173       3184       3183  
      3052       3053       3064       3063       3173       3174       3185       3184  
      3053       3054       3065       3064       3174       3175       3186       3185  
      3054       3055       3066       3065       3175       3176       3187       3186  
      3055       3056       3067       3066       3176       3177       3188       3187  
      3056       3057       3068       3067       3177       3178       3189       3188  
      3057       3058       3069       3068       3178       3179       3190       3189  
      3059       3060       3071       3070       3180       3181       3192       3191  
      3060       3061       3072       3071       3181       3182       3193       3192  
      3061       3062       3073       3072       3182       3183       3194       3193  
      3062       3063       3074       3073       3183       3184       3195       3194  
      3063       3064       3075       3074       3184       3185       3196       3195  
      3064       3065       3076       3075       3185       3186       3197       3196  
      3065       3066       3077       3076       3186       3187       3198       3197  
      3066       3067       3078       3077       3187       3188       3199       3198  
      3067       3068       3079       3078       3188       3189       3200       3199  
      3068       3069       3080       3079       3189       3190       3201       3200  
      3070       3071       3082       3081       3191       3192       3203       3202  
      3071       3072       3083       3082       3192       3193       3204       3203  
      3072       3073       3084       3083       3193       3194       3205       3204  
      3073       3074       3085       3084       3194       3195       3206       3205  
      3074       3075       3086       3085       3195       3196       3207       3206  
      3075       3076       3087       3086       3196       3197       3208       3207  
      3076       3077       3088       3087       3197       3198       3209       3208  
      3077       3078       3089       3088       3198       3199       3210       3209  
      3078       3079       3090       3089       3199       3200       3211       3210  
      3079       3080       3091       3090       3200       3201       3212       3211  
      3081       3082       3093       3092       3202       3203       3214       3213  
      3082       3083       3094       3093       3203       3204       3215       3214  
      3083       3084       3095       3094       3204       3205       3216       3215  
      3084       3085       3096       3095       3205       3206       3217       3216  
      3085       3086       3097       3096       3206       3207       3218       3217  
      3086       3087       3098       3097       3207       3208       3219       3218  
      3087       3088       3099       3098       3208       3209       3220       3219  
      3088       3089       3100       3099       3209       3210       3221       3220  
      3089       3090       3101       3100       3210       3211       3222       3221  
      3090       3091       3102       3101       3211       3212       3223       3222  
      3092       3093       3104       3103       3213       3214       3225       3224  
      3093       3094       3105       3104       3214       3215       3226       3225  
      3094       3095       3106       3105       3215       3216       3227       3226  
      3095       3096       3107       3106       3216       3217       3228       3227  
      3096       3097       3108       3107       3217       3218       3229       3228  
      3097       3098       3109       3108       3218       3219       3230       3229  
      3098       3099       3110       3109       3219       3220       3231       3230  
      3099       3100       3111       3110       3220       3221       3232       3231  
      3100       3101       3112       3111       3221       3222       3233       3232  
      3101       3102       3113       3112       3222       3223       3234       3233  
      3103       3104       3115       3114       3224       3225       3236       3235  
      3104       3105       3116       3115       3225       3226       3237       3236  
      3105       3106       3117       3116       3226       3227       3238       3237  
      3106       3107       3118       3117       3227       3228       3239       3238  
      3107       3108       3119       3118       3228       3229       3240       3239  
      3108       3109       3120       3119       3229       3230       3241       3240  
      3109       3110       3121       3120       3230       3231       3242       3241  
      3110       3111       3122       3121       3231       3232       3243       3242  
      3111       3112       3123       3122       3232       3233       3244       3243  
      3112       3113       3124       3123       3233       3234       3245       3244  
      3114       3115       3126       3125       3235       3236       3247       3246  
      3115       3116       3127       3126       3236       3237       3248       3247  
      3116       3117       3128       3127       3237       3238       3249       3248  
      3117       3118       3129       3128       3238       3239       3250       3249  
      3118       3119       3130       3129       3239       3240       3251       3250  
      3119       3120       3131       3130       3240       3241       3252       3251  
      3120       3121       3132       3131       3241       3242       3253       3252  
      3121       3122       3133       3132       3242       3243       3254       3253  
      3122       3123       3134       3133       3243       3244       3255       3254  
      3123       3124       3135       3134       3244       3245       3256       3255  
      3125       3126       3137       3136       3246       3247       3258       3257  
      3126       3127       3138       3137       3247       3248       3259       3258  
      3127       3128       3139       3138       3248       3249       3260       3259  
      3128       3129       3140       3139       3249       3250       3261       3260  
      3129       3130       3141       3140       3250       3251       3262       3261  
      3130       3131       3142       3141       3251       3252       3263       3262  
      3131       3132       3143       3142       3252       3253       3264       3263  
      3132       3133       3144       3143       3253       3254       3265       3264  
      3133       3134       3145       3144       3254       3255       3266       3265  
      3134       3135       3146       3145       3255       3256       3267       3266  
      3147       3148       3159       3158       3268       3269       3280       3279  
      3148       3149       3160       3159       3269       3270       3281       3280  
      3149       3150       3161       3160       3270       3271       3282       3281  
      3150       3151       3162       3161       3271       3272       3283       3282  
      3151       3152       3163       3162       3272       3273       3284       3283  
      3152       3153       3164       3163       3273       3274       3285       3284  
      3153       3154       3165       3164       3274       3275       3286       3285  
      3154       3155       3166       3165       3275       3276       3287       3286  
      3155       3156       3167       3166       3276       3277       3288       3287  
      3156       3157       3168       3167       3277       3278       3289       3288  
      3158       3159       3170       3169       3279       3280       3291       3290  
      3159       3160       3171       3170       3280       3281       3292       3291  
      3160       3161       3172       3171       3281       3282       3293       3292  
      3161       3162       3173       3172       3282       3283       3294       3293  
      3162       3163       3174       3173       3283       3284       3295       3294  
      3163       3164       3175       3174       3284       3285       3296       3295  
      3164       3165       3176       3175       3285       3286       3297       3296  
      3165       3166       3177       3176       3286       3287       3298       3297  
      3166       3167       3178       3177       3287       3288       3299       3298  
      3167       3168       3179       3178       3288       3289       3300       3299  
      3169       3170       3181       3180       3290       3291       3302       3301  
      3170       3171       3182       3181       3291       3292       3303       3302  
      3171       3172       3183       3182       3292       3293       3304       3303  
      3172       3173       3184       3183       3293       3294       3305       3304  
      3173       3174       3185       3184       3294       3295       3306       3305  
      3174       3175       3186       3185       3295       3296       3307       3306  
      3175       3176       3187       3186       3296       3297       3308       3307  
      3176       3177       3188       3187       3297       3298       3309       3308  
      3177       3178       3189       3188       3298       3299       3310       3309  
      3178       3179       3190       3189       3299       3300       3311       3310  
      3180       3181       3192       3191       3301       3302       3313       3312  
      3181       3182       3193       3192       3302       3303       3314       3313  
      3182       3183       3194       3193       3303       3304       3315       3314  
      3183       3184       3195       3194       3304       3305       3316       3315  
      3184       3185       3196       3195       3305       3306       3317       3316  
      3185       3186       3197       3196       3306       3307       3318       3317  
      3186       3187       3198       3197       3307       3308       3319       3318  
      3187       3188       3199       3198       3308       3309       3320       3319  
      3188       3189       3200       3199       3309       3310       3321       3320  
      3189       3190       3201       3200       3310       3311       3322       3321  
      3191       3192       3203       3202       3312       3313       3324       3323  
      3192       3193       3204       3203       3313       3314       3325       3324  
      3193       3194       3205       3204       3314       3315       3326       3325  
      3194       3195       3206       3205       3315       3316       3327       3326  
      3195       3196       3207       3206       3316       3317       3328       3327  
      3196       3197       3208       3207       3317       3318       3329       3328  
      3197       3198       3209       3208       3318       3319       3330       3329  
      3198       3199       3210       3209       3319       3320       3331       3330  
      3199       3200       3211       3210       3320       3321       3332       3331  
      3200       3201       3212       3211       3321       3322       3333       3332  
      3202       3203       3214       3213       3323       3324       3335       3334  
      3203       3204       3215       3214       3324       3325       3336       3335  
      3204       3205       3216       3215       3325       3326       3337       3336  
      3205       3206       3217       3216       3326       3327       3338       3337  
      3206       3207       3218       3217       3327       3328       3339       3338  
      3207       3208       3219       3218       3328       3329       3340       3339  
      3208       3209       3220       3219       3329       3330       3341       3340  
      3209       3210       3221       3220       3330       3331       3342       3341  
      3210       3211       3222       3221       3331       3332       3343       3342  
      3211       3212       3223       3222       3332       3333       3344       3343  
      3213       3214       3225       3224       3334       3335       3346       3345  
      3214       3215       3226       3225       3335       3336       3347       3346  
      3215       3216       3227       3226       3336       3337       3348       3347  
      3216       3217       3228       3227       3337       3338       3349       3348  
      3217       3218       3229       3228       3338       3339       3350       3349  
      3218       3219       3230       3229       3339       3340       3351       3350  
      3219       3220       3231       3230       3340       3341       3352       3351  
      3220       3221       3232       3231       3341       3342       3353       3352  
      3221       3222       3233       3232       3342       3343       3354       3353  
      3222       3223       3234       3233       3343       3344       3355       3354  
      3224       3225       3236       3235       3345       3346       3357       3356  
      3225       3226       3237       3236       3346       3347       3358       3357  
      3226       3227       3238       3237       3347       3348       3359       3358  
      3227       3228       3239       3238       3348       3349       3360       3359  
      3228       3229       3240       3239       3349       3350       3361       3360  
      3229       3230       3241       3240       3350       3351       3362       3361  
      3230       3231       3242       3241       3351       3352       3363       3362  
      3231       3232       3243       3242       3352       3353       3364       3363  
      3232       3233       3244       3243       3353       3354       3365       3364  
      3233       3234       3245       3244       3354       3355       3366       3365  
      3235       3236       3247       3246       3356       3357       3368       3367  
      3236       3237       3248       3247       3357       3358       3369       3368  
      3237       3238       3249       3248       3358       3359       3370       3369  
      3238       3239       3250       3249       3359       3360       3371       3370  
      3239       3240       3251       3250       3360       3361       3372       3371  
      3240       3241       3252       3251       3361       3362       3373       3372  
      3241       3242       3253       3252       3362       3363       3374       3373  
      3242       3243       3254       3253       3363       3364       3375       3374  
      3243       3244       3255       3254       3364       3365       3376       3375  
      3244       3245       3256       3255       3365       3366       3377       3376  
      3246       3247       3258       3257       3367       3368       3379       3378  
      3247       3248       3259       3258       3368       3369       3380       3379  
      3248       3249       3260       3259       3369       3370       3381       3380  
      3249       3250       3261       3260       3370       3371       3382       3381  
      3250       3251       3262       3261       3371       3372       3383       3382  
      3251       3252       3263       3262       3372       3373       3384       3383  
      3252       3253       3264       3263       3373       3374       3385       3384  
      3253       3254       3265       3264       3374       3375       3386       3385  
      3254       3255       3266       3265       3375       3376       3387       3386  
      3255       3256       3267       3266       3376       3377       3388       3387  
      3268       3269       3280       3279       3389       3390       3401       3400  
      3269       3270       3281       3280       3390       3391       3402       3401  
      3270       3271       3282       3281       3391       3392       3403       3402  
      3271       3272       3283       3282       3392       3393       3404       3403  
      3272       3273       3284       3283       3393       3394       3405       3404  
      3273       3274       3285       3284       3394       3395       3406       3405  
      3274       3275       3286       3285       3395       3396       3407       3406  
      3275       3276       3287       3286       3396       3397       3408       3407  
      3276       3277       3288       3287       3397       3398       3409       3408  
      3277       3278       3289       3288       3398       3399       3410       3409  
      3279       3280       3291       3290       3400       3401       3412       3411  
      3280       3281       3292       3291       3401       3402       3413       3412  
      3281       3282       3293       3292       3402       3403       3414       3413  
      3282       3283       3294       3293       3403       3404       3415       3414  
      3283       3284       3295       3294       3404       3405       3416       3415  
      3284       3285       3296       3295       3405       3406       3417       3416  
      3285       3286       3297       3296       3406       3407       3418       3417  
      3286       3287       3298       3297       3407       3408       3419       3418  
      3287       3288       3299       3298       3408       3409       3420       3419  
      3288       3289       3300       3299       3409       3410       3421       3420  
      3290       3291       3302       3301       3411       3412       3423       3422  
      3291       3292       3303       3302       3412       3413       3424       3423  
      3292       3293       3304       3303       3413       3414       3425       3424  
      3293       3294       3305       3304       3414       3415       3426       3425  
      3294       3295       3306       3305       3415       3416       3427       3426  
      3295       3296       3307       3306       3416       3417       3428       3427  
      3296       3297       3308       3307       3417       3418       3429       3428  
      3297       3298       3309       3308       3418       3419       3430       3429  
      3298       3299       3310       3309       3419       3420       3431       3430  
      3299       3300       3311       3310       3420       3421       3432       3431  
      3301       3302       3313       3312       3422       3423       3434       3433  
      3302       3303       3314       3313       3423       3424       3435       3434  
      3303       3304       3315       3314       3424       3425       3436       3435  
      3304       3305       3316       3315       3425       3426       3437       3436  
      3305       3306       3317       3316       3426       3427       3438       3437  
      3306       3307       3318       3317       3427       3428       3439       3438  
      3307       3308       3319       3318       3428       3429       3440       3439  
      3308       3309       3320       3319       3429       3430       3441       3440  
      3309       3310       3321       3320       3430       3431       3442       3441  
      3310       3311       3322       3321       3431       3432       3443       3442  
      3312       3313       3324       3323       3433       3434       3445       3444  
      3313       3314       3325       3324       3434       3435       3446       3445  
      3314       3315       3326       3325       3435       3436       3447       3446  
      3315       3316       3327       3326       3436       3437       3448       3447  
      3316       3317       3328       3327       3437       3438       3449       3448  
      3317       3318       3329       3328       3438       3439       3450       3449  
      3318       3319       3330       3329       3439       3440       3451       3450  
      3319       3320       3331       3330       3440       3441       3452       3451  
      3320       3321       3332       3331       3441       3442       3453       3452  
      3321       3322       3333       3332       3442       3443       3454       3453  
      3323       3324       3335       3334       3444       3445       3456       3455  
      3324       3325       3336       3335       3445       3446       3457       3456  
      3325       3326       3337       3336       3446       3447       3458       3457  
      3326       3327       3338       3337       3447       3448       3459       3458  
      3327       3328       3339       3338       3448       3449       3460       3459  
      3328       3329       3340       3339       3449       3450       3461       3460  
      3329       3330       3341       3340       3450       3451       3462       3461  
      3330       3331       3342       3341       3451       3452       3463       3462  
      3331       3332       3343       3342       3452       3453       3464       3463  
      3332       3333       3344       3343       3453       3454       3465       3464  
      3334       3335       3346       3345       3455       3456       3467       3466  
      3335       3336       3347       3346       3456       3457       3468       3467  
      3336       3337       3348       3347       3457       3458       3469       3468  
      3337       3338       3349       3348       3458       3459       3470       3469  
      3338       3339       3350       3349       3459       3460       3471       3470  
      3339       3340       3351       3350       3460       3461       3472       3471  
      3340       3341       3352       3351       3461       3462       3473       3472  
      3341       3342       3353       3352       3462       3463       3474       3473  
      3342       3343       3354       3353       3463       3464       3475       3474  
      3343       3344       3355       3354       3464       3465       3476       3475  
      3345       3346       3357       3356       3466       3467       3478       3477  
      3346       3347       3358       3357       3467       3468       3479       3478  
      3347       3348       3359       3358       3468       3469       3480       3479  
      3348       3349       3360       3359       3469       3470       3481       3480  
      3349       3350       3361       3360       3470       3471       3482       3481  
      3350       3351       3362       3361       3471       3472       3483       3482  
      3351       3352       3363       3362       3472       3473       3484       3483  
      3352       3353       3364       3363       3473       3474       3485       3484  
      3353       3354       3365       3364       3474       3475       3486       3485  
      3354       3355       3366       3365       3475       3476       3487       3486  
      3356       3357       3368       3367       3477       3478       3489       3488  
      3357       3358       3369       3368       3478       3479       3490       3489  
      3358       3359       3370       3369       3479       3480       3491       3490  
      3359       3360       3371       3370       3480       3481       3492       3491  
      3360       3361       3372       3371       3481       3482       3493       3492  
      3361       3362       3373       3372       3482       3483       3494       3493  
      3362       3363       3374       3373       3483       3484       3495       3494  
      3363       3364       3375       3374       3484       3485       3496       3495  
      3364       3365       3376       3375       3485       3486       3497       3496  
      3365       3366       3377       3376       3486       3487       3498       3497  
      3367       3368       3379       3378       3488       3489       3500       3499  
      3368       3369       3380       3379       3489       3490       3501       3500  
      3369       3370       3381       3380       3490       3491       3502       3501  
      3370       3371       3382       3381       3491       3492       3503       3502  
      3371       3372       3383       3382       3492       3493       3504       3503  
      3372       3373       3384       3383       3493       3494       3505       3504  
      3373       3374       3385       3384       3494       3495       3506       3505  
      3374       3375       3386       3385       3495       3496       3507       3506  
      3375       3376       3387       3386       3496       3497       3508       3507  
      3376       3377       3388       3387       3497       3498       3509       3508  
      3389       3390       3401       3400       3510       3511       3522       3521  
      3390       3391       3402       3401       3511       3512       3523       3522  
      3391       3392       3403       3402       3512       3513       3524       3523  
      3392       3393       3404       3403       3513       3514       3525       3524  
      3393       3394       3405       3404       3514       3515       3526       3525  
      3394       3395       3406       3405       3515       3516       3527       3526  
      3395       3396       3407       3406       3516       3517       3528       3527  
      3396       3397       3408       3407       3517       3518       3529       3528  
      3397       3398       3409       3408       3518       3519       3530       3529  
      3398       3399       3410       3409       3519       3520       3531       3530  
      3400       3401       3412       3411       3521       3522       3533       3532  
      3401       3402       3413       3412       3522       3523       3534       3533  
      3402       3403       3414       3413       3523       3524       3535       3534  
      3403       3404       3415       3414       3524       3525       3536       3535  
      3404       3405       3416       3415       3525       3526       3537       3536  
      3405       3406       3417       3416       3526       3527       3538       3537  
      3406       3407       3418       3417       3527       3528       3539       3538  
      3407       3408       3419       3418       3528       3529       3540       3539  
      3408       3409       3420       3419       3529       3530       3541       3540  
      3409       3410       3421       3420       3530       3531       3542       3541  
      3411       3412       3423       3422       3532       3533       3544       3543  
      3412       3413       3424       3423       3533       3534       3545       3544  
      3413       3414       3425       3424       3534       3535       3546       3545  
      3414       3415       3426       3425       3535       3536       3547       3546  
      3415       3416       3427       3426       3536       3537       3548       3547  
      3416       3417       3428       3427       3537       3538       3549       3548  
      3417       3418       3429       3428       3538       3539       3550       3549  
      3418       3419       3430       3429       3539       3540       3551       3550  
      3419       3420       3431       3430       3540       3541       3552       3551  
      3420       3421       3432       3431       3541       3542       3553       3552  
      3422       3423       3434       3433       3543       3544       3555       3554  
      3423       3424       3435       3434       3544       3545       3556       3555  
      3424       3425       3436       3435       3545       3546       3557       3556  
      3425       3426       3437       3436       3546       3547       3558       3557  
      3426       3427       3438       3437       3547       3548       3559       3558  
      3427       3428       3439       3438       3548       3549       3560       3559  
      3428       3429       3440       3439       3549       3550       3561       3560  
      3429       3430       3441       3440       3550       3551       3562       3561  
      3430       3431       3442       3441       3551       3552       3563       3562  
      3431       3432       3443       3442       3552       3553       3564       3563  
      3433       3434       3445       3444       3554       3555       3566       3565  
      3434       3435       3446       3445       3555       3556       3567       3566  
      3435       3436       3447       3446       3556       3557       3568       3567  
      3436       3437       3448       3447       3557       3558       3569       3568  
      3437       3438       3449       3448       3558       3559       3570       3569  
      3438       3439       3450       3449       3559       3560       3571       3570  
      3439       3440       3451       3450       3560       3561       3572       3571  
      3440       3441       3452       3451       3561       3562       3573       3572  
      3441       3442       3453       3452       3562       3563       3574       3573  
      3442       3443       3454       3453       3563       3564       3575       3574  
      3444       3445       3456       3455       3565       3566       3577       3576  
      3445       3446       3457       3456       3566       3567       3578       3577  
      3446       3447       3458       3457       3567       3568       3579       3578  
      3447       3448       3459       3458       3568       3569       3580       3579  
      3448       3449       3460       3459       3569       3570       3581       3580  
      3449       3450       3461       3460       3570       3571       3582       3581  
      3450       3451       3462       3461       3571       3572       3583       3582  
      3451       3452       3463       3462       3572       3573       3584       3583  
      3452       3453       3464       3463       3573       3574       3585       3584  
      3453       3454       3465       3464       3574       3575       3586       3585  
      3455       3456       3467       3466       3576       3577       3588       3587  
      3456       3457       3468       3467       3577       3578       3589       3588  
      3457       3458       3469       3468       3578       3579       3590       3589  
      3458       3459       3470       3469       3579       3580       3591       3590  
      3459       3460       3471       3470       3580       3581       3592       3591  
      3460       3461       3472       3471       3581       3582       3593       3592  
      3461       3462       3473       3472       3582       3583       3594       3593  
      3462       3463       3474       3473       3583       3584       3595       3594  
      3463       3464       3475       3474       3584       3585       3596       3595  
      3464       3465       3476       3475       3585       3586       3597       3596  
      3466       3467       3478       3477       3587       3588       3599       3598  
      3467       3468       3479       3478       3588       3589       3600       3599  
      3468       3469       3480       3479       3589       3590       3601       3600  
      3469       3470       3481       3480       3590       3591       3602       3601  
      3470       3471       3482       3481       3591       3592       3603       3602  
      3471       3472       3483       3482       3592       3593       3604       3603  
      3472       3473       3484       3483       3593       3594       3605       3604  
      3473       3474       3485       3484       3594       3595       3606       3605  
      3474       3475       3486       3485       3595       3596       3607       3606  
      3475       3476       3487       3486       3596       3597       3608       3607  
      3477       3478       3489       3488       3598       3599       3610       3609  
      3478       3479       3490       3489       3599       3600       3611       3610  
      3479       3480       3491       3490       3600       3601       3612       3611  
      3480       3481       3492       3491       3601       3602       3613       3612  
      3481       3482       3493       3492       3602       3603       3614       3613  
      3482       3483       3494       3493       3603       3604       3615       3614  
      3483       3484       3495       3494       3604       3605       3616       3615  
      3484       3485       3496       3495       3605       3606       3617       3616  
      3485       3486       3497       3496       3606       3607       3618       3617  
      3486       3487       3498       3497       3607       3608       3619       3618  
      3488       3489       3500       3499       3609       3610       3621       3620  
      3489       3490       3501       3500       3610       3611       3622       3621  
      3490       3491       3502       3501       3611       3612       3623       3622  
      3491       3492       3503       3502       3612       3613       3624       3623  
      3492       3493       3504       3503       3613       3614       3625       3624  
      3493       3494       3505       3504       3614       3615       3626       3625  
      3494       3495       3506       3505       3615       3616       3627       3626  
      3495       3496       3507       3506       3616       3617       3628       3627  
      3496       3497       3508       3507       3617       3618       3629       3628  
      3497       3498       3509       3508       3618       3619       3630       3629  
      3510       3511       3522       3521       3631       3632       3643       3642  
      3511       3512       3523       3522       3632       3633       3644       3643  
      3512       3513       3524       3523       3633       3634       3645       3644  
      3513       3514       3525       3524       3634       3635       3646       3645  
      3514       3515       3526       3525       3635       3636       3647       3646  
      3515       3516       3527       3526       3636       3637       3648       3647  
      3516       3517       3528       3527       3637       3638       3649       3648  
      3517       3518       3529       3528       3638       3639       3650       3649  
      3518       3519       3530       3529       3639       3640       3651       3650  
      3519       3520       3531       3530       3640       3641       3652       3651  
      3521       3522       3533       3532       3642       3643       3654       3653  
      3522       3523       3534       3533       3643       3644       3655       3654  
      3523       3524       3535       3534       3644       3645       3656       3655  
      3524       3525       3536       3535       3645       3646       3657       3656  
      3525       3526       3537       3536       3646       3647       3658       3657  
      3526       3527       3538       3537       3647       3648       3659       3658  
      3527       3528       3539       3538       3648       3649       3660       3659  
      3528       3529       3540       3539       3649       3650       3661       3660  
      3529       3530       3541       3540       3650       3651       3662       3661  
      3530       3531       3542       3541       3651       3652       3663       3662  
      3532       3533       3544       3543       3653       3654       3665       3664  
      3533       3534       3545       3544       3654       3655       3666       3665  
      3534       3535       3546       3545       3655       3656       3667       3666  
      3535       3536       3547       3546       3656       3657       3668       3667  
      3536       3537       3548       3547       3657       3658       3669       3668  
      3537       3538       3549       3548       3658       3659       3670       3669  
      3538       3539       3550       3549       3659       3660       3671       3670  
      3539       3540       3551       3550       3660       3661       3672       3671  
      3540       3541       3552       3551       3661       3662       3673       3672  
      3541       3542       3553       3552       3662       3663       3674       3673  
      3543       3544       3555       3554       3664       3665       3676       3675  
      3544       3545       3556       3555       3665       3666       3677       3676  
      3545       3546       3557       3556       3666       3667       3678       3677  
      3546       3547       3558       3557       3667       3668       3679       3678  
      3547       3548       3559       3558       3668       3669       3680       3679  
      3548       3549       3560       3559       3669       3670       3681       3680  
      3549       3550       3561       3560       3670       3671       3682       3681  
      3550       3551       3562       3561       3671       3672       3683       3682  
      3551       3552       3563       3562       3672       3673       3684       3683  
      3552       3553       3564       3563       3673       3674       3685       3684  
      3554       3555       3566       3565       3675       3676       3687       3686  
      3555       3556       3567       3566       3676       3677       3688       3687  
      3556       3557       3568       3567       3677       3678       3689       3688  
      3557       3558       3569       3568       3678       3679       3690       3689  
      3558       3559       3570       3569       3679       3680       3691       3690  
      3559       3560       3571       3570       3680       3681       3692       3691  
      3560       3561       3572       3571       3681       3682       3693       3692  
      3561       3562       3573       3572       3682       3683       3694       3693  
      3562       3563       3574       3573       3683       3684       3695       3694  
      3563       3564       3575       3574       3684       3685       3696       3695  
      3565       3566       3577       3576       3686       3687       3698       3697  
      3566       3567       3578       3577       3687       3688       3699       3698  
      3567       3568       3579       3578       3688       3689       3700       3699  
      3568       3569       3580       3579       3689       3690       3701       3700  
      3569       3570       3581       3580       3690       3691       3702       3701  
      3570       3571       3582       3581       3691       3692       3703       3702  
      3571       3572       3583       3582       3692       3693       3704       3703  
      3572       3573       3584       3583       3693       3694       3705       3704  
      3573       3574       3585       3584       3694       3695       3706       3705  
      3574       3575       3586       3585       3695       3696       3707       3706  
      3576       3577       3588       3587       3697       3698       3709       3708  
      3577       3578       3589       3588       3698       3699       3710       3709  
      3578       3579       3590       3589       3699       3700       3711       3710  
      3579       3580       3591       3590       3700       3701       3712       3711  
      3580       3581       3592       3591       3701       3702       3713       3712  
      3581       3582       3593       3592       3702       3703       3714       3713  
      3582       3583       3594       3593       3703       3704       3715       3714  
      3583       3584       3595       3594       3704       3705       3716       3715  
      3584       3585       3596       3595       3705       3706       3717       3716  
      3585       3586       3597       3596       3706       3707       3718       3717  
      3587       3588       3599       3598       3708       3709       3720       3719  
      3588       3589       3600       3599       3709       3710       3721       3720  
      3589       3590       3601       3600       3710       3711       3722       3721  
      3590       3591       3602       3601       3711       3712       3723       3722  
      3591       3592       3603       3602       3712       3713       3724       3723  
      3592       3593       3604       3603       3713       3714       3725       3724  
      3593       3594       3605       3604       3714       3715       3726       3725  
      3594       3595       3606       3605       3715       3716       3727       3726  
      3595       3596       3607       3606       3716       3717       3728       3727  
      3596       3597       3608       3607       3717       3718       3729       3728  
      3598       3599       3610       3609       3719       3720       3731       3730  
      3599       3600       3611       3610       3720       3721       3732       3731  
      3600       3601       3612       3611       3721       3722       3733       3732  
      3601       3602       3613       3612       3722       3723       3734       3733  
      3602       3603       3614       3613       3723       3724       3735       3734  
      3603       3604       3615       3614       3724       3725       3736       3735  
      3604       3605       3616       3615       3725       3726       3737       3736  
      3605       3606       3617       3616       3726       3727       3738       3737  
      3606       3607       3618       3617       3727       3728       3739       3738  
      3607       3608       3619       3618       3728       3729       3740       3739  
      3609       3610       3621       3620       3730       3731       3742       3741  
      3610       3611       3622       3621       3731       3732       3743       3742  
      3611       3612       3623       3622       3732       3733       3744       3743  
      3612       3613       3624       3623       3733       3734       3745       3744  
      3613       3614       3625       3624       3734       3735       3746       3745  
      3614       3615       3626       3625       3735       3736       3747       3746  
      3615       3616       3627       3626       3736       3737       3748       3747  
      3616       3617       3628       3627       3737       3738       3749       3748  
      3617       3618       3629       3628       3738       3739       3750       3749  
      3618       3619       3630       3629       3739       3740       3751       3750  
      3631       3632       3643       3642       3752       3753       3764       3763  
      3632       3633       3644       3643       3753       3754       3765       3764  
      3633       3634       3645       3644       3754       3755       3766       3765  
      3634       3635       3646       3645       3755       3756       3767       3766  
      3635       3636       3647       3646       3756       3757       3768       3767  
      3636       3637       3648       3647       3757       3758       3769       3768  
      3637       3638       3649       3648       3758       3759       3770       3769  
      3638       3639       3650       3649       3759       3760       3771       3770  
      3639       3640       3651       3650       3760       3761       3772       3771  
      3640       3641       3652       3651       3761       3762       3773       3772  
      3642       3643       3654       3653       3763       3764       3775       3774  
      3643       3644       3655       3654       3764       3765       3776       3775  
      3644       3645       3656       3655       3765       3766       3777       3776  
      3645       3646       3657       3656       3766       3767       3778       3777  
      3646       3647       3658       3657       3767       3768       3779       3778  
      3647       3648       3659       3658       3768       3769       3780       3779  
      3648       3649       3660       3659       3769       3770       3781       3780  
      3649       3650       3661       3660       3770       3771       3782       3781  
      3650       3651       3662       3661       3771       3772       3783       3782  
      3651       3652       3663       3662       3772       3773       3784       3783  
      3653       3654       3665       3664       3774       3775       3786       3785  
      3654       3655       3666       3665       3775       3776       3787       3786  
      3655       3656       3667       3666       3776       3777       3788       3787  
      3656       3657       3668       3667       3777       3778       3789       3788  
      3657       3658       3669       3668       3778       3779       3790       3789  
      3658       3659       3670       3669       3779       3780       3791       3790  
      3659       3660       3671       3670       3780       3781       3792       3791  
      3660       3661       3672       3671       3781       3782       3793       3792  
      3661       3662       3673       3672       3782       3783       3794       3793  
      3662       3663       3674       3673       3783       3784       3795       3794  
      3664       3665       3676       3675       3785       3786       3797       3796  
      3665       3666       3677       3676       3786       3787       3798       3797  
      3666       3667       3678       3677       3787       3788       3799       3798  
      3667       3668       3679       3678       3788       3789       3800       3799  
      3668       3669       3680       3679       3789       3790       3801       3800  
      3669       3670       3681       3680       3790       3791       3802       3801  
      3670       3671       3682       3681       3791       3792       3803       3802  
      3671       3672       3683       3682       3792       3793       3804       3803  
      3672       3673       3684       3683       3793       3794       3805       3804  
      3673       3674       3685       3684       3794       3795       3806       3805  
      3675       3676       3687       3686       3796       3797       3808       3807  
      3676       3677       3688       3687       3797       3798       3809       3808  
      3677       3678       3689       3688       3798       3799       3810       3809  
      3678       3679       3690       3689       3799       3800       3811       3810  
      3679       3680       3691       3690       3800       3801       3812       3811  
      3680       3681       3692       3691       3801       3802       3813       3812  
      3681       3682       3693       3692       3802       3803       3814       3813  
      3682       3683       3694       3693       3803       3804       3815       3814  
      3683       3684       3695       3694       3804       3805       3816       3815  
      3684       3685       3696       3695       3805       3806       3817       3816  
      3686       3687       3698       3697       3807       3808       3819       3818  
      3687       3688       3699       3698       3808       3809       3820       3819  
      3688       3689       3700       3699       3809       3810       3821       3820  
      3689       3690       3701       3700       3810       3811       3822       3821  
      3690       3691       3702       3701       3811       3812       3823       3822  
      3691       3692       3703       3702       3812       3813       3824       3823  
      3692       3693       3704       3703       3813       3814       3825       3824  
      3693       3694       3705       3704       3814       3815       3826       3825  
      3694       3695       3706       3705       3815       3816       3827       3826  
      3695       3696       3707       3706       3816       3817       3828       3827  
      3697       3698       3709       3708       3818       3819       3830       3829  
      3698       3699       3710       3709       3819       3820       3831       3830  
      3699       3700       3711       3710       3820       3821       3832       3831  
      3700       3701       3712       3711       3821       3822       3833       3832  
      3701       3702       3713       3712       3822       3823       3834       3833  
      3702       3703       3714       3713       3823       3824       3835       3834  
      3703       3704       3715       3714       3824       3825       3836       3835  
      3704       3705       3716       3715       3825       3826       3837       3836  
      3705       3706       3717       3716       3826       3827       3838       3837  
      3706       3707       3718       3717       3827       3828       3839       3838  
      3708       3709       3720       3719       3829       3830       3841       3840  
      3709       3710       3721       3720       3830       3831       3842       3841  
      3710       3711       3722       3721       3831       3832       3843       3842  
      3711       3712       3723       3722       3832       3833       3844       3843  
      3712       3713       3724       3723       3833       3834       3845       3844  
      3713       3714       3725       3724       3834       3835       3846       3845  
      3714       3715       3726       3725       3835       3836       3847       3846  
      3715       3716       3727       3726       3836       3837       3848       3847  
      3716       3717       3728       3727       3837       3838       3849       3848  
      3717       3718       3729       3728       3838       3839       3850       3849  
      3719       3720       3731       3730       3840       3841       3852       3851  
      3720       3721       3732       3731       3841       3842       3853       3852  
      3721       3722       3733       3732       3842       3843       3854       3853  
      3722       3723       3734       3733       3843       3844       3855       3854  
      3723       3724       3735       3734       3844       3845       3856       3855  
      3724       3725       3736       3735       3845       3846       3857       3856  
      3725       3726       3737       3736       3846       3847       3858       3857  
      3726       3727       3738       3737       3847       3848       3859       3858  
      3727       3728       3739       3738       3848       3849       3860       3859  
      3728       3729       3740       3739       3849       3850       3861       3860  
      3730       3731       3742       3741       3851       3852       3863       3862  
      3731       3732       3743       3742       3852       3853       3864       3863  
      3732       3733       3744       3743       3853       3854       3865       3864  
      3733       3734       3745       3744       3854       3855       3866       3865  
      3734       3735       3746       3745       3855       3856       3867       3866  
      3735       3736       3747       3746       3856       3857       3868       3867  
      3736       3737       3748       3747       3857       3858       3869       3868  
      3737       3738       3749       3748       3858       3859       3870       3869  
      3738       3739       3750       3749       3859       3860       3871       3870  
      3739       3740       3751       3750       3860       3861       3872       3871  
      3752       3753       3764       3763       3873       3874       3885       3884  
      3753       3754       3765       3764       3874       3875       3886       3885  
      3754       3755       3766       3765       3875       3876       3887       3886  
      3755       3756       3767       3766       3876       3877       3888       3887  
      3756       3757       3768       3767       3877       3878       3889       3888  
      3757       3758       3769       3768       3878       3879       3890       3889  
      3758       3759       3770       3769       3879       3880       3891       3890  
      3759       3760       3771       3770       3880       3881       3892       3891  
      3760       3761       3772       3771       3881       3882       3893       3892  
      3761       3762       3773       3772       3882       3883       3894       3893  
      3763       3764       3775       3774       3884       3885       3896       3895  
      3764       3765       3776       3775       3885       3886       3897       3896  
      3765       3766       3777       3776       3886       3887       3898       3897  
      3766       3767       3778       3777       3887       3888       3899       3898  
      3767       3768       3779       3778       3888       3889       3900       3899  
      3768       3769       3780       3779       3889       3890       3901       3900  
      3769       3770       3781       3780       3890       3891       3902       3901  
      3770       3771       3782       3781       3891       3892       3903       3902  
      3771       3772       3783       3782       3892       3893       3904       3903  
      3772       3773       3784       3783       3893       3894       3905       3904  
      3774       3775       3786       3785       3895       3896       3907       3906  
      3775       3776       3787       3786       3896       3897       3908       3907  
      3776       3777       3788       3787       3897       3898       3909       3908  
      3777       3778       3789       3788       3898       3899       3910       3909  
      3778       3779       3790       3789       3899       3900       3911       3910  
      3779       3780       3791       3790       3900       3901       3912       3911  
      3780       3781       3792       3791       3901       3902       3913       3912  
      3781       3782       3793       3792       3902       3903       3914       3913  
      3782       3783       3794       3793       3903       3904       3915       3914  
      3783       3784       3795       3794       3904       3905       3916       3915  
      3785       3786       3797       3796       3906       3907       3918       3917  
      3786       3787       3798       3797       3907       3908       3919       3918  
      3787       3788       3799       3798       3908       3909       3920       3919  
      3788       3789       3800       3799       3909       3910       3921       3920  
      3789       3790       3801       3800       3910       3911       3922       3921  
      3790       3791       3802       3801       3911       3912       3923       3922  
      3791       3792       3803       3802       3912       3913       3924       3923  
      3792       3793       3804       3803       3913       3914       3925       3924  
      3793       3794       3805       3804       3914       3915       3926       3925  
      3794       3795       3806       3805       3915       3916       3927       3926  
      3796       3797       3808       3807       3917       3918       3929       3928  
      3797       3798       3809       3808       3918       3919       3930       3929  
      3798       3799       3810       3809       3919       3920       3931       3930  
      3799       3800       3811       3810       3920       3921       3932       3931  
      3800       3801       3812       3811       3921       3922       3933       3932  
      3801       3802       3813       3812       3922       3923       3934       3933  
      3802       3803       3814       3813       3923       3924       3935       3934  
      3803       3804       3815       3814       3924       3925       3936       3935  
      3804       3805       3816       3815       3925       3926       3937       3936  
      3805       3806       3817       3816       3926       3927       3938       3937  
      3807       3808       3819       3818       3928       3929       3940       3939  
      3808       3809       3820       3819       3929       3930       3941       3940  
      3809       3810       3821       3820       3930       3931       3942       3941  
      3810       3811       3822       3821       3931       3932       3943       3942  
      3811       3812       3823       3822       3932       3933       3944       3943  
      3812       3813       3824       3823       3933       3934       3945       3944  
      3813       3814       3825       3824       3934       3935       3946       3945  
      3814       3815       3826       3825       3935       3936       3947       3946  
      3815       3816       3827       3826       3936       3937       3948       3947  
      3816       3817       3828       3827       3937       3938       3949       3948  
      3818       3819       3830       3829       3939       3940       3951       3950  
      3819       3820       3831       3830       3940       3941       3952       3951  
      3820       3821       3832       3831       3941       3942       3953       3952  
      3821       3822       3833       3832       3942       3943       3954       3953  
      3822       3823       3834       3833       3943       3944       3955       3954  
      3823       3824       3835       3834       3944       3945       3956       3955  
      3824       3825       3836       3835       3945       3946       3957       3956  
      3825       3826       3837       3836       3946       3947       3958       3957  
      3826       3827       3838       3837       3947       3948       3959       3958  
      3827       3828       3839       3838       3948       3949       3960       3959  
      3829       3830       3841       3840       3950       3951       3962       3961  
      3830       3831       3842       3841       3951       3952       3963       3962  
      3831       3832       3843       3842       3952       3953       3964       3963  
      3832       3833       3844       3843       3953       3954       3965       3964  
      3833       3834       3845       3844       3954       3955       3966       3965  
      3834       3835       3846       3845       3955       3956       3967       3966  
      3835       3836       3847       3846       3956       3957       3968       3967  
      3836       3837       3848       3847       3957       3958       3969       3968  
      3837       3838       3849       3848       3958       3959       3970       3969  
      3838       3839       3850       3849       3959       3960       3971       3970  
      3840       3841       3852       3851       3961       3962       3973       3972  
      3841       3842       3853       3852       3962       3963       3974       3973  
      3842       3843       3854       3853       3963       3964       3975       3974  
      3843       3844       3855       3854       3964       3965       3976       3975  
      3844       3845       3856       3855       3965       3966       3977       3976  
      3845       3846       3857       3856       3966       3967       3978       3977  
      3846       3847       3858       3857       3967       3968       3979       3978  
      3847       3848       3859       3858       3968       3969       3980       3979  
      3848       3849       3860       3859       3969       3970       3981       3980  
      3849       3850       3861       3860       3970       3971       3982       3981  
      3851       3852       3863       3862       3972       3973       3984       3983  
      3852       3853       3864       3863       3973       3974       3985       3984  
      3853       3854       3865       3864       3974       3975       3986       3985  
      3854       3855       3866       3865       3975       3976       3987       3986  
      3855       3856       3867       3866       3976       3977       3988       3987  
      3856       3857       3868       3867       3977       3978       3989       3988  
      3857       3858       3869       3868       3978       3979       3990       3989  
      3858       3859       3870       3869       3979       3980       3991       3990  
      3859       3860       3871       3870       3980       3981       3992       3991  
      3860       3861       3872       3871       3981       3982       3993       3992  
      3873       3874       3885       3884       3994       3995       4006       4005  
      3874       3875       3886       3885       3995       3996       4007       4006  
      3875       3876       3887       3886       3996       3997       4008       4007  
      3876       3877       3888       3887       3997       3998       4009       4008  
      3877       3878       3889       3888       3998       3999       4010       4009  
      3878       3879       3890       3889       3999       4000       4011       4010  
      3879       3880       3891       3890       4000       4001       4012       4011  
      3880       3881       3892       3891       4001       4002       4013       4012  
      3881       3882       3893       3892       4002       4003       4014       4013  
      3882       3883       3894       3893       4003       4004       4015       4014  
      3884       3885       3896       3895       4005       4006       4017       4016  
      3885       3886       3897       3896       4006       4007       4018       4017  
      3886       3887       3898       3897       4007       4008       4019       4018  
      3887       3888       3899       3898       4008       4009       4020       4019  
      3888       3889       3900       3899       4009       4010       4021       4020  
      3889       3890       3901       3900       4010       4011       4022       4021  
      3890       3891       3902       3901       4011       4012       4023       4022  
      3891       3892       3903       3902       4012       4013       4024       4023  
      3892       3893       3904       3903       4013       4014       4025       4024  
      3893       3894       3905       3904       4014       4015       4026       4025  
      3895       3896       3907       3906       4016       4017       4028       4027  
      3896       3897       3908       3907       4017       4018       4029       4028  
      3897       3898       3909       3908       4018       4019       4030       4029  
      3898       3899       3910       3909       4019       4020       4031       4030  
      3899       3900       3911       3910       4020       4021       4032       4031  
      3900       3901       3912       3911       4021       4022       4033       4032  
      3901       3902       3913       3912       4022       4023       4034       4033  
      3902       3903       3914       3913       4023       4024       4035       4034  
      3903       3904       3915       3914       4024       4025       4036       4035  
      3904       3905       3916       3915       4025       4026       4037       4036  
      3906       3907       3918       3917       4027       4028       4039       4038  
      3907       3908       3919       3918       4028       4029       4040       4039  
      3908       3909       3920       3919       4029       4030       4041       4040  
      3909       3910       3921       3920       4030       4031       4042       4041  
      3910       3911       3922       3921       4031       4032       4043       4042  
      3911       3912       3923       3922       4032       4033       4044       4043  
      3912       3913       3924       3923       4033       4034       4045       4044  
      3913       3914       3925       3924       4034       4035       4046       4045  
      3914       3915       3926       3925       4035       4036       4047       4046  
      3915       3916       3927       3926       4036       4037       4048       4047  
      3917       3918       3929       3928       4038       4039       4050       4049  
      3918       3919       3930       3929       4039       4040       4051       4050  
      3919       3920       3931       3930       4040       4041       4052       4051  
      3920       3921       3932       3931       4041       4042       4053       4052  
      3921       3922       3933       3932       4042       4043       4054       4053  
      3922       3923       3934       3933       4043       4044       4055       4054  
      3923       3924       3935       3934       4044       4045       4056       4055  
      3924       3925       3936       3935       4045       4046       4057       4056  
      3925       3926       3937       3936       4046       4047       4058       4057  
      3926       3927       3938       3937       4047       4048       4059       4058  
      3928       3929       3940       3939       4049       4050       4061       4060  
      3929       3930       3941       3940       4050       4051       4062       4061  
      3930       3931       3942       3941       4051       4052       4063       4062  
      3931       3932       3943       3942       4052       4053       4064       4063  
      3932       3933       3944       3943       4053       4054       4065       4064  
      3933       3934       3945       3944       4054       4055       4066       4065  
      3934       3935       3946       3945       4055       4056       4067       4066  
      3935       3936       3947       3946       4056       4057       4068       4067  
      3936       3937       3948       3947       4057       4058       4069       4068  
      3937       3938       3949       3948       4058       4059       4070       4069  
      3939       3940       3951       3950       4060       4061       4072       4071  
      3940       3941       3952       3951       4061       4062       4073       4072  
      3941       3942       3953       3952       4062       4063       4074       4073  
      3942       3943       3954       3953       4063       4064       4075       4074  
      3943       3944       3955       3954       4064       4065       4076       4075  
      3944       3945       3956       3955       4065       4066       4077       4076  
      3945       3946       3957       3956       4066       4067       4078       4077  
      3946       3947       3958       3957       4067       4068       4079       4078  
      3947       3948       3959       3958       4068       4069       4080       4079  
      3948       3949       3960       3959       4069       4070       4081       4080  
      3950       3951       3962       3961       4071       4072       4083       4082  
      3951       3952       3963       3962       4072       4073       4084       4083  
      3952       3953       3964       3963       4073       4074       4085       4084  
      3953       3954       3965       3964       4074       4075       4086       4085  
      3954       3955       3966       3965       4075       4076       4087       4086  
      3955       3956       3967       3966       4076       4077       4088       4087  
      3956       3957       3968       3967       4077       4078       4089       4088  
      3957       3958       3969       3968       4078       4079       4090       4089  
      3958       3959       3970       3969       4079       4080       4091       4090  
      3959       3960       3971       3970       4080       4081       4092       4091  
      3961       3962       3973       3972       4082       4083       4094       4093  
      3962       3963       3974       3973       4083       4084       4095       4094  
      3963       3964       3975       3974       4084       4085       4096       4095  
      3964       3965       3976       3975       4085       4086       4097       4096  
      3965       3966       3977       3976       4086       4087       4098       4097  
      3966       3967       3978       3977       4087       4088       4099       4098  
      3967       3968       3979       3978       4088       4089       4100       4099  
      3968       3969       3980       3979       4089       4090       4101       4100  
      3969       3970       3981       3980       4090       4091       4102       4101  
      3970       3971       3982       3981       4091       4092       4103       4102  
      3972       3973       3984       3983       4093       4094       4105       4104  
      3973       3974       3985       3984       4094       4095       4106       4105  
      3974       3975       3986       3985       4095       4096       4107       4106  
      3975       3976       3987       3986       4096       4097       4108       4107  
      3976       3977       3988       3987       4097       4098       4109       4108  
      3977       3978       3989       3988       4098       4099       4110       4109  
      3978       3979       3990       3989       4099       4100       4111       4110  
      3979       3980       3991       3990       4100       4101       4112       4111  
      3980       3981       3992       3991       4101       4102       4113       4112  
      3981       3982       3993       3992       4102       4103       4114       4113  
      3994       3995       4006       4005       4115       4116       4127       4126  
      3995       3996       4007       4006       4116       4117       4128       4127  
      3996       3997       4008       4007       4117       4118       4129       4128  
      3997       3998       4009       4008       4118       4119       4130       4129  
      3998       3999       4010       4009       4119       4120       4131       4130  
      3999       4000       4011       4010       4120       4121       4132       4131  
      4000       4001       4012       4011       4121       4122       4133       4132  
      4001       4002       4013       4012       4122       4123       4134       4133  
      4002       4003       4014       4013       4123       4124       4135       4134  
      4003       4004       4015       4014       4124       4125       4136       4135  
      4005       4006       4017       4016       4126       4127       4138       4137  
      4006       4007       4018       4017       4127       4128       4139       4138  
      4007       4008       4019       4018       4128       4129       4140       4139  
      4008       4009       4020       4019       4129       4130       4141       4140  
      4009       4010       4021       4020       4130       4131       4142       4141  
      4010       4011       4022       4021       4131       4132       4143       4142  
      4011       4012       4023       4022       4132       4133       4144       4143  
      4012       4013       4024       4023       4133       4134       4145       4144  
      4013       4014       4025       4024       4134       4135       4146       4145  
      4014       4015       4026       4025       4135       4136       4147       4146  
      4016       4017       4028       4027       4137       4138       4149       4148  
      4017       4018       4029       4028       4138       4139       4150       4149  
      4018       4019       4030       4029       4139       4140       4151       4150  
      4019       4020       4031       4030       4140       4141       4152       4151  
      4020       4021       4032       4031       4141       4142       4153       4152  
      4021       4022       4033       4032       4142       4143       4154       4153  
      4022       4023       4034       4033       4143       4144       4155       4154  
      4023       4024       4035       4034       4144       4145       4156       4155  
      4024       4025       4036       4035       4145       4146       4157       4156  
      4025       4026       4037       4036       4146       4147       4158       4157  
      4027       4028       4039       4038       4148       4149       4160       4159  
      4028       4029       4040       4039       4149       4150       4161       4160  
      4029       4030       4041       4040       4150       4151       4162       4161  
      4030       4031       4042       4041       4151       4152       4163       4162  
      4031       4032       4043       4042       4152       4153       4164       4163  
      4032       4033       4044       4043       4153       4154       4165       4164  
      4033       4034       4045       4044       4154       4155       4166       4165  
      4034       4035       4046       4045       4155       4156       4167       4166  
      4035       4036       4047       4046       4156       4157       4168       4167  
      4036       4037       4048       4047       4157       4158       4169       4168  
      4038       4039       4050       4049       4159       4160       4171       4170  
      4039       4040       4051       4050       4160       4161       4172       4171  
      4040       4041       4052       4051       4161       4162       4173       4172  
      4041       4042       4053       4052       4162       4163       4174       4173  
      4042       4043       4054       4053       4163       4164       4175       4174  
      4043       4044       4055       4054       4164       4165       4176       4175  
      4044       4045       4056       4055       4165       4166       4177       4176  
      4045       4046       4057       4056       4166       4167       4178       4177  
      4046       4047       4058       4057       4167       4168       4179       4178  
      4047       4048       4059       4058       4168       4169       4180       4179  
      4049       4050       4061       4060       4170       4171       4182       4181  
      4050       4051       4062       4061       4171       4172       4183       4182  
      4051       4052       4063       4062       4172       4173       4184       4183  
      4052       4053       4064       4063       4173       4174       4185       4184  
      4053       4054       4065       4064       4174       4175       4186       4185  
      4054       4055       4066       4065       4175       4176       4187       4186  
      4055       4056       4067       4066       4176       4177       4188       4187  
      4056       4057       4068       4067       4177       4178       4189       4188  
      4057       4058       4069       4068       4178       4179       4190       4189  
      4058       4059       4070       4069       4179       4180       4191       4190  
      4060       4061       4072       4071       4181       4182       4193       4192  
      4061       4062       4073       4072       4182       4183       4194       4193  
      4062       4063       4074       4073       4183       4184       4195       4194  
      4063       4064       4075       4074       4184       4185       4196       4195  
      4064       4065       4076       4075       4185       4186       4197       4196  
      4065       4066       4077       4076       4186       4187       4198       4197  
      4066       4067       4078       4077       4187       4188       4199       4198  
      4067       4068       4079       4078       4188       4189       4200       4199  
      4068       4069       4080       4079       4189       4190       4201       4200  
      4069       4070       4081       4080       4190       4191       4202       4201  
      4071       4072       4083       4082       4192       4193       4204       4203  
      4072       4073       4084       4083       4193       4194       4205       4204  
      4073       4074       4085       4084       4194       4195       4206       4205  
      4074       4075       4086       4085       4195       4196       4207       4206  
      4075       4076       4087       4086       4196       4197       4208       4207  
      4076       4077       4088       4087       4197       4198       4209       4208  
      4077       4078       4089       4088       4198       4199       4210       4209  
      4078       4079       4090       4089       4199       4200       4211       4210  
      4079       4080       4091       4090       4200       4201       4212       4211  
      4080       4081       4092       4091       4201       4202       4213       4212  
      4082       4083       4094       4093       4203       4204       4215       4214  
      4083       4084       4095       4094       4204       4205       4216       4215  
      4084       4085       4096       4095       4205       4206       4217       4216  
      4085       4086       4097       4096       4206       4207       4218       4217  
      4086       4087       4098       4097       4207       4208       4219       4218  
      4087       4088       4099       4098       4208       4209       4220       4219  
      4088       4089       4100       4099       4209       4210       4221       4220  
      4089       4090       4101       4100       4210       4211       4222       4221  
      4090       4091       4102       4101       4211       4212       4223       4222  
      4091       4092       4103       4102       4212       4213       4224       4223  
      4093       4094       4105       4104       4214       4215       4226       4225  
      4094       4095       4106       4105       4215       4216       4227       4226  
      4095       4096       4107       4106       4216       4217       4228       4227  
      4096       4097       4108       4107       4217       4218       4229       4228  
      4097       4098       4109       4108       4218       4219       4230       4229  
      4098       4099       4110       4109       4219       4220       4231       4230  
      4099       4100       4111       4110       4220       4221       4232       4231  
      4100       4101       4112       4111       4221       4222       4233       4232  
      4101       4102       4113       4112       4222       4223       4234       4233  
      4102       4103       4114       4113       4223       4224       4235       4234  
      4115       4116       4127       4126       4236       4237       4248       4247  
      4116       4117       4128       4127       4237       4238       4249       4248  
      4117       4118       4129       4128       4238       4239       4250       4249  
      4118       4119       4130       4129       4239       4240       4251       4250  
      4119       4120       4131       4130       4240       4241       4252       4251  
      4120       4121       4132       4131       4241       4242       4253       4252  
      4121       4122       4133       4132       4242       4243       4254       4253  
      4122       4123       4134       4133       4243       4244       4255       4254  
      4123       4124       4135       4134       4244       4245       4256       4255  
      4124       4125       4136       4135       4245       4246       4257       4256  
      4126       4127       4138       4137       4247       4248       4259       4258  
      4127       4128       4139       4138       4248       4249       4260       4259  
      4128       4129       4140       4139       4249       4250       4261       4260  
      4129       4130       4141       4140       4250       4251       4262       4261  
      4130       4131       4142       4141       4251       4252       4263       4262  
      4131       4132       4143       4142       4252       4253       4264       4263  
      4132       4133       4144       4143       4253       4254       4265       4264  
      4133       4134       4145       4144       4254       4255       4266       4265  
      4134       4135       4146       4145       4255       4256       4267       4266  
      4135       4136       4147       4146       4256       4257       4268       4267  
      4137       4138       4149       4148       4258       4259       4270       4269  
      4138       4139       4150       4149       4259       4260       4271       4270  
      4139       4140       4151       4150       4260       4261       4272       4271  
      4140       4141       4152       4151       4261       4262       4273       4272  
      4141       4142       4153       4152       4262       4263       4274       4273  
      4142       4143       4154       4153       4263       4264       4275       4274  
      4143       4144       4155       4154       4264       4265       4276       4275  
      4144       4145       4156       4155       4265       4266       4277       4276  
      4145       4146       4157       4156       4266       4267       4278       4277  
      4146       4147       4158       4157       4267       4268       4279       4278  
      4148       4149       4160       4159       4269       4270       4281       4280  
      4149       4150       4161       4160       4270       4271       4282       4281  
      4150       4151       4162       4161       4271       4272       4283       4282  
      4151       4152       4163       4162       4272       4273       4284       4283  
      4152       4153       4164       4163       4273       4274       4285       4284  
      4153       4154       4165       4164       4274       4275       4286       4285  
      4154       4155       4166       4165       4275       4276       4287       4286  
      4155       4156       4167       4166       4276       4277       4288       4287  
      4156       4157       4168       4167       4277       4278       4289       4288  
      4157       4158       4169       4168       4278       4279       4290       4289  
      4159       4160       4171       4170       4280       4281       4292       4291  
      4160       4161       4172       4171       4281       4282       4293       4292  
      4161       4162       4173       4172       4282       4283       4294       4293  
      4162       4163       4174       4173       4283       4284       4295       4294  
      4163       4164       4175       4174       4284       4285       4296       4295  
      4164       4165       4176       4175       4285       4286       4297       4296  
      4165       4166       4177       4176       4286       4287       4298       4297  
      4166       4167       4178       4177       4287       4288       4299       4298  
      4167       4168       4179       4178       4288       4289       4300       4299  
      4168       4169       4180       4179       4289       4290       4301       4300  
      4170       4171       4182       4181       4291       4292       4303       4302  
      4171       4172       4183       4182       4292       4293       4304       4303  
      4172       4173       4184       4183       4293       4294       4305       4304  
      4173       4174       4185       4184       4294       4295       4306       4305  
      4174       4175       4186       4185       4295       4296       4307       4306  
      4175       4176       4187       4186       4296       4297       4308       4307  
      4176       4177       4188       4187       4297       4298       4309       4308  
      4177       4178       4189       4188       4298       4299       4310       4309  
      4178       4179       4190       4189       4299       4300       4311       4310  
      4179       4180       4191       4190       4300       4301       4312       4311  
      4181       4182       4193       4192       4302       4303       4314       4313  
      4182       4183       4194       4193       4303       4304       4315       4314  
      4183       4184       4195       4194       4304       4305       4316       4315  
      4184       4185       4196       4195       4305       4306       4317       4316  
      4185       4186       4197       4196       4306       4307       4318       4317  
      4186       4187       4198       4197       4307       4308       4319       4318  
      4187       4188       4199       4198       4308       4309       4320       4319  
      4188       4189       4200       4199       4309       4310       4321       4320  
      4189       4190       4201       4200       4310       4311       4322       4321  
      4190       4191       4202       4201       4311       4312       4323       4322  
      4192       4193       4204       4203       4313       4314       4325       4324  
      4193       4194       4205       4204       4314       4315       4326       4325  
      4194       4195       4206       4205       4315       4316       4327       4326  
      4195       4196       4207       4206       4316       4317       4328       4327  
      4196       4197       4208       4207       4317       4318       4329       4328  
      4197       4198       4209       4208       4318       4319       4330       4329  
      4198       4199       4210       4209       4319       4320       4331       4330  
      4199       4200       4211       4210       4320       4321       4332       4331  
      4200       4201       4212       4211       4321       4322       4333       4332  
      4201       4202       4213       4212       4322       4323       4334       4333  
      4203       4204       4215       4214       4324       4325       4336       4335  
      4204       4205       4216       4215       4325       4326       4337       4336  
      4205       4206       4217       4216       4326       4327       4338       4337  
      4206       4207       4218       4217       4327       4328       4339       4338  
      4207       4208       4219       4218       4328       4329       4340       4339  
      4208       4209       4220       4219       4329       4330       4341       4340  
      4209       4210       4221       4220       4330       4331       4342       4341  
      4210       4211       4222       4221       4331       4332       4343       4342  
      4211       4212       4223       4222       4332       4333       4344       4343  
      4212       4213       4224       4223       4333       4334       4345       4344  
      4214       4215       4226       4225       4335       4336       4347       4346  
      4215       4216       4227       4226       4336       4337       4348       4347  
      4216       4217       4228       4227       4337       4338       4349       4348  
      4217       4218       4229       4228       4338       4339       4350       4349  
      4218       4219       4230       4229       4339       4340       4351       4350  
      4219       4220       4231       4230       4340       4341       4352       4351  
      4220       4221       4232       4231       4341       4342       4353       4352  
      4221       4222       4233       4232       4342       4343       4354       4353  
      4222       4223       4234       4233       4343       4344       4355       4354  
      4223       4224       4235       4234       4344       4345       4356       4355  
      4236       4237       4248       4247       4357       4358       4369       4368  
      4237       4238       4249       4248       4358       4359       4370       4369  
      4238       4239       4250       4249       4359       4360       4371       4370  
      4239       4240       4251       4250       4360       4361       4372       4371  
      4240       4241       4252       4251       4361       4362       4373       4372  
      4241       4242       4253       4252       4362       4363       4374       4373  
      4242       4243       4254       4253       4363       4364       4375       4374  
      4243       4244       4255       4254       4364       4365       4376       4375  
      4244       4245       4256       4255       4365       4366       4377       4376  
      4245       4246       4257       4256       4366       4367       4378       4377  
      4247       4248       4259       4258       4368       4369       4380       4379  
      4248       4249       4260       4259       4369       4370       4381       4380  
      4249       4250       4261       4260       4370       4371       4382       4381  
      4250       4251       4262       4261       4371       4372       4383       4382  
      4251       4252       4263       4262       4372       4373       4384       4383  
      4252       4253       4264       4263       4373       4374       4385       4384  
      4253       4254       4265       4264       4374       4375       4386       4385  
      4254       4255       4266       4265       4375       4376       4387       4386  
      4255       4256       4267       4266       4376       4377       4388       4387  
      4256       4257       4268       4267       4377       4378       4389       4388  
      4258       4259       4270       4269       4379       4380       4391       4390  
      4259       4260       4271       4270       4380       4381       4392       4391  
      4260       4261       4272       4271       4381       4382       4393       4392  
      4261       4262       4273       4272       4382       4383       4394       4393  
      4262       4263       4274       4273       4383       4384       4395       4394  
      4263       4264       4275       4274       4384       4385       4396       4395  
      4264       4265       4276       4275       4385       4386       4397       4396  
      4265       4266       4277       4276       4386       4387       4398       4397  
      4266       4267       4278       4277       4387       4388       4399       4398  
      4267       4268       4279       4278       4388       4389       4400       4399  
      4269       4270       4281       4280       4390       4391       4402       4401  
      4270       4271       4282       4281       4391       4392       4403       4402  
      4271       4272       4283       4282       4392       4393       4404       4403  
      4272       4273       4284       4283       4393       4394       4405       4404  
      4273       4274       4285       4284       4394       4395       4406       4405  
      4274       4275       4286       4285       4395       4396       4407       4406  
      4275       4276       4287       4286       4396       4397       4408       4407  
      4276       4277       4288       4287       4397       4398       4409       4408  
      4277       4278       4289       4288       4398       4399       4410       4409  
      4278       4279       4290       4289       4399       4400       4411       4410  
      4280       4281       4292       4291       4401       4402       4413       4412  
      4281       4282       4293       4292       4402       4403       4414       4413  
      4282       4283       4294       4293       4403       4404       4415       4414  
      4283       4284       4295       4294       4404       4405       4416       4415  
      4284       4285       4296       4295       4405       4406       4417       4416  
      4285       4286       4297       4296       4406       4407       4418       4417  
      4286       4287       4298       4297       4407       4408       4419       4418  
      4287       4288       4299       4298       4408       4409       4420       4419  
      4288       4289       4300       4299       4409       4410       4421       4420  
      4289       4290       4301       4300       4410       4411       4422       4421  
      4291       4292       4303       4302       4412       4413       4424       4423  
      4292       4293       4304       4303       4413       4414       4425       4424  
      4293       4294       4305       4304       4414       4415       4426       4425  
      4294       4295       4306       4305       4415       4416       4427       4426  
      4295       4296       4307       4306       4416       4417       4428       4427  
      4296       4297       4308       4307       4417       4418       4429       4428  
      4297       4298       4309       4308       4418       4419       4430       4429  
      4298       4299       4310       4309       4419       4420       4431       4430  
      4299       4300       4311       4310       4420       4421       4432       4431  
      4300       4301       4312       4311       4421       4422       4433       4432  
      4302       4303       4314       4313       4423       4424       4435       4434  
      4303       4304       4315       4314       4424       4425       4436       4435  
      4304       4305       4316       4315       4425       4426       4437       4436  
      4305       4306       4317       4316       4426       4427       4438       4437  
      4306       4307       4318       4317       4427       4428       4439       4438  
      4307       4308       4319       4318       4428       4429       4440       4439  
      4308       4309       4320       4319       4429       4430       4441       4440  
      4309       4310       4321       4320       4430       4431       4442       4441  
      4310       4311       4322       4321       4431       4432       4443       4442  
      4311       4312       4323       4322       4432       4433       4444       4443  
      4313       4314       4325       4324       4434       4435       4446       4445  
      4314       4315       4326       4325       4435       4436       4447       4446  
      4315       4316       4327       4326       4436       4437       4448       4447  
      4316       4317       4328       4327       4437       4438       4449       4448  
      4317       4318       4329       4328       4438       4439       4450       4449  
      4318       4319       4330       4329       4439       4440       4451       4450  
      4319       4320       4331       4330       4440       4441       4452       4451  
      4320       4321       4332       4331       4441       4442       4453       4452  
      4321       4322       4333       4332       4442       4443       4454       4453  
      4322       4323       4334       4333       4443       4444       4455       4454  
      4324       4325       4336       4335       4445       4446       4457       4456  
      4325       4326       4337       4336       4446       4447       4458       4457  
      4326       4327       4338       4337       4447       4448       4459       4458  
      4327       4328       4339       4338       4448       4449       4460       4459  
      4328       4329       4340       4339       4449       4450       4461       4460  
      4329       4330       4341       4340       4450       4451       4462       4461  
      4330       4331       4342       4341       4451       4452       4463       4462  
      4331       4332       4343       4342       4452       4453       4464       4463  
      4332       4333       4344       4343       4453       4454       4465       4464  
      4333       4334       4345       4344       4454       4455       4466       4465  
      4335       4336       4347       4346       4456       4457       4468       4467  
      4336       4337       4348       4347       4457       4458       4469       4468  
      4337       4338       4349       4348       4458       4459       4470       4469  
      4338       4339       4350       4349       4459       4460       4471       4470  
      4339       4340       4351       4350       4460       4461       4472       4471  
      4340       4341       4352       4351       4461       4462       4473       4472  
      4341       4342       4353       4352       4462       4463       4474       4473  
      4342       4343       4354       4353       4463       4464       4475       4474  
      4343       4344       4355       4354       4464       4465       4476       4475  
      4344       4345       4356       4355       4465       4466       4477       4476  
      4357       4358       4369       4368       4478       4479       4490       4489  
      4358       4359       4370       4369       4479       4480       4491       4490  
      4359       4360       4371       4370       4480       4481       4492       4491  
      4360       4361       4372       4371       4481       4482       4493       4492  
      4361       4362       4373       4372       4482       4483       4494       4493  
      4362       4363       4374       4373       4483       4484       4495       4494  
      4363       4364       4375       4374       4484       4485       4496       4495  
      4364       4365       4376       4375       4485       4486       4497       4496  
      4365       4366       4377       4376       4486       4487       4498       4497  
      4366       4367       4378       4377       4487       4488       4499       4498  
      4368       4369       4380       4379       4489       4490       4501       4500  
      4369       4370       4381       4380       4490       4491       4502       4501  
      4370       4371       4382       4381       4491       4492       4503       4502  
      4371       4372       4383       4382       4492       4493       4504       4503  
      4372       4373       4384       4383       4493       4494       4505       4504  
      4373       4374       4385       4384       4494       4495       4506       4505  
      4374       4375       4386       4385       4495       4496       4507       4506  
      4375       4376       4387       4386       4496       4497       4508       4507  
      4376       4377       4388       4387       4497       4498       4509       4508  
      4377       4378       4389       4388       4498       4499       4510       4509  
      4379       4380       4391       4390       4500       4501       4512       4511  
      4380       4381       4392       4391       4501       4502       4513       4512  
      4381       4382       4393       4392       4502       4503       4514       4513  
      4382       4383       4394       4393       4503       4504       4515       4514  
      4383       4384       4395       4394       4504       4505       4516       4515  
      4384       4385       4396       4395       4505       4506       4517       4516  
      4385       4386       4397       4396       4506       4507       4518       4517  
      4386       4387       4398       4397       4507       4508       4519       4518  
      4387       4388       4399       4398       4508       4509       4520       4519  
      4388       4389       4400       4399       4509       4510       4521       4520  
      4390       4391       4402       4401       4511       4512       4523       4522  
      4391       4392       4403       4402       4512       4513       4524       4523  
      4392       4393       4404       4403       4513       4514       4525       4524  
      4393       4394       4405       4404       4514       4515       4526       4525  
      4394       4395       4406       4405       4515       4516       4527       4526  
      4395       4396       4407       4406       4516       4517       4528       4527  
      4396       4397       4408       4407       4517       4518       4529       4528  
      4397       4398       4409       4408       4518       4519       4530       4529  
      4398       4399       4410       4409       4519       4520       4531       4530  
      4399       4400       4411       4410       4520       4521       4532       4531  
      4401       4402       4413       4412       4522       4523       4534       4533  
      4402       4403       4414       4413       4523       4524       4535       4534  
      4403       4404       4415       4414       4524       4525       4536       4535  
      4404       4405       4416       4415       4525       4526       4537       4536  
      4405       4406       4417       4416       4526       4527       4538       4537  
      4406       4407       4418       4417       4527       4528       4539       4538  
      4407       4408       4419       4418       4528       4529       4540       4539  
      4408       4409       4420       4419       4529       4530       4541       4540  
      4409       4410       4421       4420       4530       4531       4542       4541  
      4410       4411       4422       4421       4531       4532       4543       4542  
      4412       4413       4424       4423       4533       4534       4545       4544  
      4413       4414       4425       4424       4534       4535       4546       4545  
      4414       4415       4426       4425       4535       4536       4547       4546  
      4415       4416       4427       4426       4536       4537       4548       4547  
      4416       4417       4428       4427       4537       4538       4549       4548  
      4417       4418       4429       4428       4538       4539       4550       4549  
      4418       4419       4430       4429       4539       4540       4551       4550  
      4419       4420       4431       4430       4540       4541       4552       4551  
      4420       4421       4432       4431       4541       4542       4553       4552  
      4421       4422       4433       4432       4542       4543       4554       4553  
      4423       4424       4435       4434       4544       4545       4556       4555  
      4424       4425       4436       4435       4545       4546       4557       4556  
      4425       4426       4437       4436       4546       4547       4558       4557  
      4426       4427       4438       4437       4547       4548       4559       4558  
      4427       4428       4439       4438       4548       4549       4560       4559  
      4428       4429       4440       4439       4549       4550       4561       4560  
      4429       4430       4441       4440       4550       4551       4562       4561  
      4430       4431       4442       4441       4551       4552       4563       4562  
      4431       4432       4443       4442       4552       4553       4564       4563  
      4432       4433       4444       4443       4553       4554       4565       4564  
      4434       4435       4446       4445       4555       4556       4567       4566  
      4435       4436       4447       4446       4556       4557       4568       4567  
      4436       4437       4448       4447       4557       4558       4569       4568  
      4437       4438       4449       4448       4558       4559       4570       4569  
      4438       4439       4450       4449       4559       4560       4571       4570  
      4439       4440       4451       4450       4560       4561       4572       4571  
      4440       4441       4452       4451       4561       4562       4573       4572  
      4441       4442       4453       4452       4562       4563       4574       4573  
      4442       4443       4454       4453       4563       4564       4575       4574  
      4443       4444       4455       4454       4564       4565       4576       4575  
      4445       4446       4457       4456       4566       4567       4578       4577  
      4446       4447       4458       4457       4567       4568       4579       4578  
      4447       4448       4459       4458       4568       4569       4580       4579  
      4448       4449       4460       4459       4569       4570       4581       4580  
      4449       4450       4461       4460       4570       4571       4582       4581  
      4450       4451       4462       4461       4571       4572       4583       4582  
      4451       4452       4463       4462       4572       4573       4584       4583  
      4452       4453       4464       4463       4573       4574       4585       4584  
      4453       4454       4465       4464       4574       4575       4586       4585  
      4454       4455       4466       4465       4575       4576       4587       4586  
      4456       4457       4468       4467       4577       4578       4589       4588  
      4457       4458       4469       4468       4578       4579       4590       4589  
      4458       4459       4470       4469       4579       4580       4591       4590  
      4459       4460       4471       4470       4580       4581       4592       4591  
      4460       4461       4472       4471       4581       4582       4593       4592  
      4461       4462       4473       4472       4582       4583       4594       4593  
      4462       4463       4474       4473       4583       4584       4595       4594  
      4463       4464       4475       4474       4584       4585       4596       4595  
      4464       4465       4476       4475       4585       4586       4597       4596  
      4465       4466       4477       4476       4586       4587       4598       4597  
      4478       4479       4490       4489       4599       4600       4611       4610  
      4479       4480       4491       4490       4600       4601       4612       4611  
      4480       4481       4492       4491       4601       4602       4613       4612  
      4481       4482       4493       4492       4602       4603       4614       4613  
      4482       4483       4494       4493       4603       4604       4615       4614  
      4483       4484       4495       4494       4604       4605       4616       4615  
      4484       4485       4496       4495       4605       4606       4617       4616  
      4485       4486       4497       4496       4606       4607       4618       4617  
      4486       4487       4498       4497       4607       4608       4619       4618  
      4487       4488       4499       4498       4608       4609       4620       4619  
      4489       4490       4501       4500       4610       4611       4622       4621  
      4490       4491       4502       4501       4611       4612       4623       4622  
      4491       4492       4503       4502       4612       4613       4624       4623  
      4492       4493       4504       4503       4613       4614       4625       4624  
      4493       4494       4505       4504       4614       4615       4626       4625  
      4494       4495       4506       4505       4615       4616       4627       4626  
      4495       4496       4507       4506       4616       4617       4628       4627  
      4496       4497       4508       4507       4617       4618       4629       4628  
      4497       4498       4509       4508       4618       4619       4630       4629  
      4498       4499       4510       4509       4619       4620       4631       4630  
      4500       4501       4512       4511       4621       4622       4633       4632  
      4501       4502       4513       4512       4622       4623       4634       4633  
      4502       4503       4514       4513       4623       4624       4635       4634  
      4503       4504       4515       4514       4624       4625       4636       4635  
      4504       4505       4516       4515       4625       4626       4637       4636  
      4505       4506       4517       4516       4626       4627       4638       4637  
      4506       4507       4518       4517       4627       4628       4639       4638  
      4507       4508       4519       4518       4628       4629       4640       4639  
      4508       4509       4520       4519       4629       4630       4641       4640  
      4509       4510       4521       4520       4630       4631       4642       4641  
      4511       4512       4523       4522       4632       4633       4644       4643  
      4512       4513       4524       4523       4633       4634       4645       4644  
      4513       4514       4525       4524       4634       4635       4646       4645  
      4514       4515       4526       4525       4635       4636       4647       4646  
      4515       4516       4527       4526       4636       4637       4648       4647  
      4516       4517       4528       4527       4637       4638       4649       4648  
      4517       4518       4529       4528       4638       4639       4650       4649  
      4518       4519       4530       4529       4639       4640       4651       4650  
      4519       4520       4531       4530       4640       4641       4652       4651  
      4520       4521       4532       4531       4641       4642       4653       4652  
      4522       4523       4534       4533       4643       4644       4655       4654  
      4523       4524       4535       4534       4644       4645       4656       4655  
      4524       4525       4536       4535       4645       4646       4657       4656  
      4525       4526       4537       4536       4646       4647       4658       4657  
      4526       4527       4538       4537       4647       4648       4659       4658  
      4527       4528       4539       4538       4648       4649       4660       4659  
      4528       4529       4540       4539       4649       4650       4661       4660  
      4529       4530       4541       4540       4650       4651       4662       4661  
      4530       4531       4542       4541       4651       4652       4663       4662  
      4531       4532       4543       4542       4652       4653       4664       4663  
      4533       4534       4545       4544       4654       4655       4666       4665  
      4534       4535       4546       4545       4655       4656       4667       4666  
      4535       4536       4547       4546       4656       4657       4668       4667  
      4536       4537       4548       4547       4657       4658       4669       4668  
      4537       4538       4549       4548       4658       4659       4670       4669  
      4538       4539       4550       4549       4659       4660       4671       4670  
      4539       4540       4551       4550       4660       4661       4672       4671  
      4540       4541       4552       4551       4661       4662       4673       4672  
      4541       4542       4553       4552       4662       4663       4674       4673  
      4542       4543       4554       4553       4663       4664       4675       4674  
      4544       4545       4556       4555       4665       4666       4677       4676  
      4545       4546       4557       4556       4666       4667       4678       4677  
      4546       4547       4558       4557       4667       4668       4679       4678  
      4547       4548       4559       4558       4668       4669       4680       4679  
      4548       4549       4560       4559       4669       4670       4681       4680  
      4549       4550       4561       4560       4670       4671       4682       4681  
      4550       4551       4562       4561       4671       4672       4683       4682  
      4551       4552       4563       4562       4672       4673       4684       4683  
      4552       4553       4564       4563       4673       4674       4685       4684  
      4553       4554       4565       4564       4674       4675       4686       4685  
      4555       4556       4567       4566       4676       4677       4688       4687  
      4556       4557       4568       4567       4677       4678       4689       4688  
      4557       4558       4569       4568       4678       4679       4690       4689  
      4558       4559       4570       4569       4679       4680       4691       4690  
      4559       4560       4571       4570       4680       4681       4692       4691  
      4560       4561       4572       4571       4681       4682       4693       4692  
      4561       4562       4573       4572       4682       4683       4694       4693  
      4562       4563       4574       4573       4683       4684       4695       4694  
      4563       4564       4575       4574       4684       4685       4696       4695  
      4564       4565       4576       4575       4685       4686       4697       4696  
      4566       4567       4578       4577       4687       4688       4699       4698  
      4567       4568       4579       4578       4688       4689       4700       4699  
      4568       4569       4580       4579       4689       4690       4701       4700  
      4569       4570       4581       4580       4690       4691       4702       4701  
      4570       4571       4582       4581       4691       4692       4703       4702  
      4571       4572       4583       4582       4692       4693       4704       4703  
      4572       4573       4584       4583       4693       4694       4705       4704  
      4573       4574       4585       4584       4694       4695       4706       4705  
      4574       4575       4586       4585       4695       4696       4707       4706  
      4575       4576       4587       4586       4696       4697       4708       4707  
      4577       4578       4589       4588       4698       4699       4710       4709  
      4578       4579       4590       4589       4699       4700       4711       4710  
      4579       4580       4591       4590       4700       4701       4712       4711  
      4580       4581       4592       4591       4701       4702       4713       4712  
      4581       4582       4593       4592       4702       4703       4714       4713  
      4582       4583       4594       4593       4703       4704       4715       4714  
      4583       4584       4595       4594       4704       4705       4716       4715  
      4584       4585       4596       4595       4705       4706       4717       4716  
      4585       4586       4597       4596       4706       4707       4718       4717  
      4586       4587       4598       4597       4707       4708       4719       4718  
      4599       4600       4611       4610       4720       4721       4732       4731  
      4600       4601       4612       4611       4721       4722       4733       4732  
      4601       4602       4613       4612       4722       4723       4734       4733  
      4602       4603       4614       4613       4723       4724       4735       4734  
      4603       4604       4615       4614       4724       4725       4736       4735  
      4604       4605       4616       4615       4725       4726       4737       4736  
      4605       4606       4617       4616       4726       4727       4738       4737  
      4606       4607       4618       4617       4727       4728       4739       4738  
      4607       4608       4619       4618       4728       4729       4740       4739  
      4608       4609       4620       4619       4729       4730       4741       4740  
      4610       4611       4622       4621       4731       4732       4743       4742  
      4611       4612       4623       4622       4732       4733       4744       4743  
      4612       4613       4624       4623       4733       4734       4745       4744  
      4613       4614       4625       4624       4734       4735       4746       4745  
      4614       4615       4626       4625       4735       4736       4747       4746  
      4615       4616       4627       4626       4736       4737       4748       4747  
      4616       4617       4628       4627       4737       4738       4749       4748  
      4617       4618       4629       4628       4738       4739       4750       4749  
      4618       4619       4630       4629       4739       4740       4751       4750  
      4619       4620       4631       4630       4740       4741       4752       4751  
      4621       4622       4633       4632       4742       4743       4754       4753  
      4622       4623       4634       4633       4743       4744       4755       4754  
      4623       4624       4635       4634       4744       4745       4756       4755  
      4624       4625       4636       4635       4745       4746       4757       4756  
      4625       4626       4637       4636       4746       4747       4758       4757  
      4626       4627       4638       4637       4747       4748       4759       4758  
      4627       4628       4639       4638       4748       4749       4760       4759  
      4628       4629       4640       4639       4749       4750       4761       4760  
      4629       4630       4641       4640       4750       4751       4762       4761  
      4630       4631       4642       4641       4751       4752       4763       4762  
      4632       4633       4644       4643       4753       4754       4765       4764  
      4633       4634       4645       4644       4754       4755       4766       4765  
      4634       4635       4646       4645       4755       4756       4767       4766  
      4635       4636       4647       4646       4756       4757       4768       4767  
      4636       4637       4648       4647       4757       4758       4769       4768  
      4637       4638       4649       4648       4758       4759       4770       4769  
      4638       4639       4650       4649       4759       4760       4771       4770  
      4639       4640       4651       4650       4760       4761       4772       4771  
      4640       4641       4652       4651       4761       4762       4773       4772  
      4641       4642       4653       4652       4762       4763       4774       4773  
      4643       4644       4655       4654       4764       4765       4776       4775  
      4644       4645       4656       4655       4765       4766       4777       4776  
      4645       4646       4657       4656       4766       4767       4778       4777  
      4646       4647       4658       4657       4767       4768       4779       4778  
      4647       4648       4659       4658       4768       4769       4780       4779  
      4648       4649       4660       4659       4769       4770       4781       4780  
      4649       4650       4661       4660       4770       4771       4782       4781  
      4650       4651       4662       4661       4771       4772       4783       4782  
      4651       4652       4663       4662       4772       4773       4784       4783  
      4652       4653       4664       4663       4773       4774       4785       4784  
      4654       4655       4666       4665       4775       4776       4787       4786  
      4655       4656       4667       4666       4776       4777       4788       4787  
      4656       4657       4668       4667       4777       4778       4789       4788  
      4657       4658       4669       4668       4778       4779       4790       4789  
      4658       4659       4670       4669       4779       4780       4791       4790  
      4659       4660       4671       4670       4780       4781       4792       4791  
      4660       4661       4672       4671       4781       4782       4793       4792  
      4661       4662       4673       4672       4782       4783       4794       4793  
      4662       4663       4674       4673       4783       4784       4795       4794  
      4663       4664       4675       4674       4784       4785       4796       4795  
      4665       4666       4677       4676       4786       4787       4798       4797  
      4666       4667       4678       4677       4787       4788       4799       4798  
      4667       4668       4679       4678       4788       4789       4800       4799  
      4668       4669       4680       4679       4789       4790       4801       4800  
      4669       4670       4681       4680       4790       4791       4802       4801  
      4670       4671       4682       4681       4791       4792       4803       4802  
      4671       4672       4683       4682       4792       4793       4804       4803  
      4672       4673       4684       4683       4793       4794       4805       4804  
      4673       4674       4685       4684       4794       4795       4806       4805  
      4674       4675       4686       4685       4795       4796       4807       4806  
      4676       4677       4688       4687       4797       4798       4809       4808  
      4677       4678       4689       4688       4798       4799       4810       4809  
      4678       4679       4690       4689       4799       4800       4811       4810  
      4679       4680       4691       4690       4800       4801       4812       4811  
      4680       4681       4692       4691       4801       4802       4813       4812  
      4681       4682       4693       4692       4802       4803       4814       4813  
      4682       4683       4694       4693       4803       4804       4815       4814  
      4683       4684       4695       4694       4804       4805       4816       4815  
      4684       4685       4696       4695       4805       4806       4817       4816  
      4685       4686       4697       4696       4806       4807       4818       4817  
      4687       4688       4699       4698       4808       4809       4820       4819  
      4688       4689       4700       4699       4809       4810       4821       4820  
      4689       4690       4701       4700       4810       4811       4822       4821  
      4690       4691       4702       4701       4811       4812       4823       4822  
      4691       4692       4703       4702       4812       4813       4824       4823  
      4692       4693       4704       4703       4813       4814       4825       4824  
      4693       4694       4705       4704       4814       4815       4826       4825  
      4694       4695       4706       4705       4815       4816       4827       4826  
      4695       4696       4707       4706       4816       4817       4828       4827  
      4696       4697       4708       4707       4817       4818       4829       4828  
      4698       4699       4710       4709       4819       4820       4831       4830  
      4699       4700       4711       4710       4820       4821       4832       4831  
      4700       4701       4712       4711       4821       4822       4833       4832  
      4701       4702       4713       4712       4822       4823       4834       4833  
      4702       4703       4714       4713       4823       4824       4835       4834  
      4703       4704       4715       4714       4824       4825       4836       4835  
      4704       4705       4716       4715       4825       4826       4837       4836  
      4705       4706       4717       4716       4826       4827       4838       4837  
      4706       4707       4718       4717       4827       4828       4839       4838  
      4707       4708       4719       4718       4828       4829       4840       4839  
      4720       4721       4732       4731       4841       4842       4853       4852  
      4721       4722       4733       4732       4842       4843       4854       4853  
      4722       4723       4734       4733       4843       4844       4855       4854  
      4723       4724       4735       4734       4844       4845       4856       4855  
      4724       4725       4736       4735       4845       4846       4857       4856  
      4725       4726       4737       4736       4846       4847       4858       4857  
      4726       4727       4738       4737       4847       4848       4859       4858  
      4727       4728       4739       4738       4848       4849       4860       4859  
      4728       4729       4740       4739       4849       4850       4861       4860  
      4729       4730       4741       4740       4850       4851       4862       4861  
      4731       4732       4743       4742       4852       4853       4864       4863  
      4732       4733       4744       4743       4853       4854       4865       4864  
      4733       4734       4745       4744       4854       4855       4866       4865  
      4734       4735       4746       4745       4855       4856       4867       4866  
      4735       4736       4747       4746       4856       4857       4868       4867  
      4736       4737       4748       4747       4857       4858       4869       4868  
      4737       4738       4749       4748       4858       4859       4870       4869  
      4738       4739       4750       4749       4859       4860       4871       4870  
      4739       4740       4751       4750       4860       4861       4872       4871  
      4740       4741       4752       4751       4861       4862       4873       4872  
      4742       4743       4754       4753       4863       4864       4875       4874  
      4743       4744       4755       4754       4864       4865       4876       4875  
      4744       4745       4756       4755       4865       4866       4877       4876  
      4745       4746       4757       4756       4866       4867       4878       4877  
      4746       4747       4758       4757       4867       4868       4879       4878  
      4747       4748       4759       4758       4868       4869       4880       4879  
      4748       4749       4760       4759       4869       4870       4881       4880  
      4749       4750       4761       4760       4870       4871       4882       4881  
      4750       4751       4762       4761       4871       4872       4883       4882  
      4751       4752       4763       4762       4872       4873       4884       4883  
      4753       4754       4765       4764       4874       4875       4886       4885  
      4754       4755       4766       4765       4875       4876       4887       4886  
      4755       4756       4767       4766       4876       4877       4888       4887  
      4756       4757       4768       4767       4877       4878       4889       4888  
      4757       4758       4769       4768       4878       4879       4890       4889  
      4758       4759       4770       4769       4879       4880       4891       4890  
      4759       4760       4771       4770       4880       4881       4892       4891  
      4760       4761       4772       4771       4881       4882       4893       4892  
      4761       4762       4773       4772       4882       4883       4894       4893  
      4762       4763       4774       4773       4883       4884       4895       4894  
      4764       4765       4776       4775       4885       4886       4897       4896  
      4765       4766       4777       4776       4886       4887       4898       4897  
      4766       4767       4778       4777       4887       4888       4899       4898  
      4767       4768       4779       4778       4888       4889       4900       4899  
      4768       4769       4780       4779       4889       4890       4901       4900  
      4769       4770       4781       4780       4890       4891       4902       4901  
      4770       4771       4782       4781       4891       4892       4903       4902  
      4771       4772       4783       4782       4892       4893       4904       4903  
      4772       4773       4784       4783       4893       4894       4905       4904  
      4773       4774       4785       4784       4894       4895       4906       4905  
      4775       4776       4787       4786       4896       4897       4908       4907  
      4776       4777       4788       4787       4897       4898       4909       4908  
      4777       4778       4789       4788       4898       4899       4910       4909  
      4778       4779       4790       4789       4899       4900       4911       4910  
      4779       4780       4791       4790       4900       4901       4912       4911  
      4780       4781       4792       4791       4901       4902       4913       4912  
      4781       4782       4793       4792       4902       4903       4914       4913  
      4782       4783       4794       4793       4903       4904       4915       4914  
      4783       4784       4795       4794       4904       4905       4916       4915  
      4784       4785       4796       4795       4905       4906       4917       4916  
      4786       4787       4798       4797       4907       4908       4919       4918  
      4787       4788       4799       4798       4908       4909       4920       4919  
      4788       4789       4800       4799       4909       4910       4921       4920  
      4789       4790       4801       4800       4910       4911       4922       4921  
      4790       4791       4802       4801       4911       4912       4923       4922  
      4791       4792       4803       4802       4912       4913       4924       4923  
      4792       4793       4804       4803       4913       4914       4925       4924  
      4793       4794       4805       4804       4914       4915       4926       4925  
      4794       4795       4806       4805       4915       4916       4927       4926  
      4795       4796       4807       4806       4916       4917       4928       4927  
      4797       4798       4809       4808       4918       4919       4930       4929  
      4798       4799       4810       4809       4919       4920       4931       4930  
      4799       4800       4811       4810       4920       4921       4932       4931  
      4800       4801       4812       4811       4921       4922       4933       4932  
      4801       4802       4813       4812       4922       4923       4934       4933  
      4802       4803       4814       4813       4923       4924       4935       4934  
      4803       4804       4815       4814       4924       4925       4936       4935  
      4804       4805       4816       4815       4925       4926       4937       4936  
      4805       4806       4817       4816       4926       4927       4938       4937  
      4806       4807       4818       4817       4927       4928       4939       4938  
      4808       4809       4820       4819       4929       4930       4941       4940  
      4809       4810       4821       4820       4930       4931       4942       4941  
      4810       4811       4822       4821       4931       4932       4943       4942  
      4811       4812       4823       4822       4932       4933       4944       4943  
      4812       4813       4824       4823       4933       4934       4945       4944  
      4813       4814       4825       4824       4934       4935       4946       4945  
      4814       4815       4826       4825       4935       4936       4947       4946  
      4815       4816       4827       4826       4936       4937       4948       4947  
      4816       4817       4828       4827       4937       4938       4949       4948  
      4817       4818       4829       4828       4938       4939       4950       4949  
      4819       4820       4831       4830       4940       4941       4952       4951  
      4820       4821       4832       4831       4941       4942       4953       4952  
      4821       4822       4833       4832       4942       4943       4954       4953  
      4822       4823       4834       4833       4943       4944       4955       4954  
      4823       4824       4835       4834       4944       4945       4956       4955  
      4824       4825       4836       4835       4945       4946       4957       4956  
      4825       4826       4837       4836       4946       4947       4958       4957  
      4826       4827       4838       4837       4947       4948       4959       4958  
      4827       4828       4839       4838       4948       4949       4960       4959  
      4828       4829       4840       4839       4949       4950       4961       4960  
      4841       4842       4853       4852       4962       4963       4974       4973  
      4842       4843       4854       4853       4963       4964       4975       4974  
      4843       4844       4855       4854       4964       4965       4976       4975  
      4844       4845       4856       4855       4965       4966       4977       4976  
      4845       4846       4857       4856       4966       4967       4978       4977  
      4846       4847       4858       4857       4967       4968       4979       4978  
      4847       4848       4859       4858       4968       4969       4980       4979  
      4848       4849       4860       4859       4969       4970       4981       4980  
      4849       4850       4861       4860       4970       4971       4982       4981  
      4850       4851       4862       4861       4971       4972       4983       4982  
      4852       4853       4864       4863       4973       4974       4985       4984  
      4853       4854       4865       4864       4974       4975       4986       4985  
      4854       4855       4866       4865       4975       4976       4987       4986  
      4855       4856       4867       4866       4976       4977       4988       4987  
      4856       4857       4868       4867       4977       4978       4989       4988  
      4857       4858       4869       4868       4978       4979       4990       4989  
      4858       4859       4870       4869       4979       4980       4991       4990  
      4859       4860       4871       4870       4980       4981       4992       4991  
      4860       4861       4872       4871       4981       4982       4993       4992  
      4861       4862       4873       4872       4982       4983       4994       4993  
      4863       4864       4875       4874       4984       4985       4996       4995  
      4864       4865       4876       4875       4985       4986       4997       4996  
      4865       4866       4877       4876       4986       4987       4998       4997  
      4866       4867       4878       4877       4987       4988       4999       4998  
      4867       4868       4879       4878       4988       4989       5000       4999  
      4868       4869       4880       4879       4989       4990       5001       5000  
      4869       4870       4881       4880       4990       4991       5002       5001  
      4870       4871       4882       4881       4991       4992       5003       5002  
      4871       4872       4883       4882       4992       4993       5004       5003  
      4872       4873       4884       4883       4993       4994       5005       5004  
      4874       4875       4886       4885       4995       4996       5007       5006  
      4875       4876       4887       4886       4996       4997       5008       5007  
      4876       4877       4888       4887       4997       4998       5009       5008  
      4877       4878       4889       4888       4998       4999       5010       5009  
      4878       4879       4890       4889       4999       5000       5011       5010  
      4879       4880       4891       4890       5000       5001       5012       5011  
      4880       4881       4892       4891       5001       5002       5013       5012  
      4881       4882       4893       4892       5002       5003       5014       5013  
      4882       4883       4894       4893       5003       5004       5015       5014  
      4883       4884       4895       4894       5004       5005       5016       5015  
      4885       4886       4897       4896       5006       5007       5018       5017  
      4886       4887       4898       4897       5007       5008       5019       5018  
      4887       4888       4899       4898       5008       5009       5020       5019  
      4888       4889       4900       4899       5009       5010       5021       5020  
      4889       4890       4901       4900       5010       5011       5022       5021  
      4890       4891       4902       4901       5011       5012       5023       5022  
      4891       4892       4903       4902       5012       5013       5024       5023  
      4892       4893       4904       4903       5013       5014       5025       5024  
      4893       4894       4905       4904       5014       5015       5026       5025  
      4894       4895       4906       4905       5015       5016       5027       5026  
      4896       4897       4908       4907       5017       5018       5029       5028  
      4897       4898       4909       4908       5018       5019       5030       5029  
      4898       4899       4910       4909       5019       5020       5031       5030  
      4899       4900       4911       4910       5020       5021       5032       5031  
      4900       4901       4912       4911       5021       5022       5033       5032  
      4901       4902       4913       4912       5022       5023       5034       5033  
      4902       4903       4914       4913       5023       5024       5035       5034  
      4903       4904       4915       4914       5024       5025       5036       5035  
      4904       4905       4916       4915       5025       5026       5037       5036  
      4905       4906       4917       4916       5026       5027       5038       5037  
      4907       4908       4919       4918       5028       5029       5040       5039  
      4908       4909       4920       4919       5029       5030       5041       5040  
      4909       4910       4921       4920       5030       5031       5042       5041  
      4910       4911       4922       4921       5031       5032       5043       5042  
      4911       4912       4923       4922       5032       5033       5044       5043  
      4912       4913       4924       4923       5033       5034       5045       5044  
      4913       4914       4925       4924       5034       5035       5046       5045  
      4914       4915       4926       4925       5035       5036       5047       5046  
      4915       4916       4927       4926       5036       5037       5048       5047  
      4916       4917       4928       4927       5037       5038       5049       5048  
      4918       4919       4930       4929       5039       5040       5051       5050  
      4919       4920       4931       4930       5040       5041       5052       5051  
      4920       4921       4932       4931       5041       5042       5053       5052  
      4921       4922       4933       4932       5042       5043       5054       5053  
      4922       4923       4934       4933       5043       5044       5055       5054  
      4923       4924       4935       4934       5044       5045       5056       5055  
      4924       4925       4936       4935       5045       5046       5057       5056  
      4925       4926       4937       4936       5046       5047       5058       5057  
      4926       4927       4938       4937       5047       5048       5059       5058  
      4927       4928       4939       4938       5048       5049       5060       5059  
      4929       4930       4941       4940       5050       5051       5062       5061  
      4930       4931       4942       4941       5051       5052       5063       5062  
      4931       4932       4943       4942       5052       5053       5064       5063  
      4932       4933       4944       4943       5053       5054       5065       5064  
      4933       4934       4945       4944       5054       5055       5066       5065  
      4934       4935       4946       4945       5055       5056       5067       5066  
      4935       4936       4947       4946       5056       5057       5068       5067  
      4936       4937       4948       4947       5057       5058       5069       5068  
      4937       4938       4949       4948       5058       5059       5070       5069  
      4938       4939       4950       4949       5059       5060       5071       5070  
      4940       4941       4952       4951       5061       5062       5073       5072  
      4941       4942       4953       4952       5062       5063       5074       5073  
      4942       4943       4954       4953       5063       5064       5075       5074  
      4943       4944       4955       4954       5064       5065       5076       5075  
      4944       4945       4956       4955       5065       5066       5077       5076  
      4945       4946       4957       4956       5066       5067       5078       5077  
      4946       4947       4958       4957       5067       5068       5079       5078  
      4947       4948       4959       4958       5068       5069       5080       5079  
      4948       4949       4960       4959       5069       5070       5081       5080  
      4949       4950       4961       4960       5070       5071       5082       5081  
      4962       4963       4974       4973       5083       5084       5095       5094  
      4963       4964       4975       4974       5084       5085       5096       5095  
      4964       4965       4976       4975       5085       5086       5097       5096  
      4965       4966       4977       4976       5086       5087       5098       5097  
      4966       4967       4978       4977       5087       5088       5099       5098  
      4967       4968       4979       4978       5088       5089       5100       5099  
      4968       4969       4980       4979       5089       5090       5101       5100  
      4969       4970       4981       4980       5090       5091       5102       5101  
      4970       4971       4982       4981       5091       5092       5103       5102  
      4971       4972       4983       4982       5092       5093       5104       5103  
      4973       4974       4985       4984       5094       5095       5106       5105  
      4974       4975       4986       4985       5095       5096       5107       5106  
      4975       4976       4987       4986       5096       5097       5108       5107  
      4976       4977       4988       4987       5097       5098       5109       5108  
      4977       4978       4989       4988       5098       5099       5110       5109  
      4978       4979       4990       4989       5099       5100       5111       5110  
      4979       4980       4991       4990       5100       5101       5112       5111  
      4980       4981       4992       4991       5101       5102       5113       5112  
      4981       4982       4993       4992       5102       5103       5114       5113  
      4982       4983       4994       4993       5103       5104       5115       5114  
      4984       4985       4996       4995       5105       5106       5117       5116  
      4985       4986       4997       4996       5106       5107       5118       5117  
      4986       4987       4998       4997       5107       5108       5119       5118  
      4987       4988       4999       4998       5108       5109       5120       5119  
      4988       4989       5000       4999       5109       5110       5121       5120  
      4989       4990       5001       5000       5110       5111       5122       5121  
      4990       4991       5002       5001       5111       5112       5123       5122  
      4991       4992       5003       5002       5112       5113       5124       5123  
      4992       4993       5004       5003       5113       5114       5125       5124  
      4993       4994       5005       5004       5114       5115       5126       5125  
      4995       4996       5007       5006       5116       5117       5128       5127  
      4996       4997       5008       5007       5117       5118       5129       5128  
      4997       4998       5009       5008       5118       5119       5130       5129  
      4998       4999       5010       5009       5119       5120       5131       5130  
      4999       5000       5011       5010       5120       5121       5132       5131  
      5000       5001       5012       5011       5121       5122       5133       5132  
      5001       5002       5013       5012       5122       5123       5134       5133  
      5002       5003       5014       5013       5123       5124       5135       5134  
      5003       5004       5015       5014       5124       5125       5136       5135  
      5004       5005       5016       5015       5125       5126       5137       5136  
      5006       5007       5018       5017       5127       5128       5139       5138  
      5007       5008       5019       5018       5128       5129       5140       5139  
      5008       5009       5020       5019       5129       5130       5141       5140  
      5009       5010       5021       5020       5130       5131       5142       5141  
      5010       5011       5022       5021       5131       5132       5143       5142  
      5011       5012       5023       5022       5132       5133       5144       5143  
      5012       5013       5024       5023       5133       5134       5145       5144  
      5013       5014       5025       5024       5134       5135       5146       5145  
      5014       5015       5026       5025       5135       5136       5147       5146  
      5015       5016       5027       5026       5136       5137       5148       5147  
      5017       5018       5029       5028       5138       5139       5150       5149  
      5018       5019       5030       5029       5139       5140       5151       5150  
      5019       5020       5031       5030       5140       5141       5152       5151  
      5020       5021       5032       5031       5141       5142       5153       5152  
      5021       5022       5033       5032       5142       5143       5154       5153  
      5022       5023       5034       5033       5143       5144       5155       5154  
      5023       5024       5035       5034       5144       5145       5156       5155  
      5024       5025       5036       5035       5145       5146       5157       5156  
      5025       5026       5037       5036       5146       5147       5158       5157  
      5026       5027       5038       5037       5147       5148       5159       5158  
      5028       5029       5040       5039       5149       5150       5161       5160  
      5029       5030       5041       5040       5150       5151       5162       5161  
      5030       5031       5042       5041       5151       5152       5163       5162  
      5031       5032       5043       5042       5152       5153       5164       5163  
      5032       5033       5044       5043       5153       5154       5165       5164  
      5033       5034       5045       5044       5154       5155       5166       5165  
      5034       5035       5046       5045       5155       5156       5167       5166  
      5035       5036       5047       5046       5156       5157       5168       5167  
      5036       5037       5048       5047       5157       5158       5169       5168  
      5037       5038       5049       5048       5158       5159       5170       5169  
      5039       5040       5051       5050       5160       5161       5172       5171  
      5040       5041       5052       5051       5161       5162       5173       5172  
      5041       5042       5053       5052       5162       5163       5174       5173  
      5042       5043       5054       5053       5163       5164       5175       5174  
      5043       5044       5055       5054       5164       5165       5176       5175  
      5044       5045       5056       5055       5165       5166       5177       5176  
      5045       5046       5057       5056       5166       5167       5178       5177  
      5046       5047       5058       5057       5167       5168       5179       5178  
      5047       5048       5059       5058       5168       5169       5180       5179  
      5048       5049       5060       5059       5169       5170       5181       5180  
      5050       5051       5062       5061       5171       5172       5183       5182  
      5051       5052       5063       5062       5172       5173       5184       5183  
      5052       5053       5064       5063       5173       5174       5185       5184  
      5053       5054       5065       5064       5174       5175       5186       5185  
      5054       5055       5066       5065       5175       5176       5187       5186  
      5055       5056       5067       5066       5176       5177       5188       5187  
      5056       5057       5068       5067       5177       5178       5189       5188  
      5057       5058       5069       5068       5178       5179       5190       5189  
      5058       5059       5070       5069       5179       5180       5191       5190  
      5059       5060       5071       5070       5180       5181       5192       5191  
      5061       5062       5073       5072       5182       5183       5194       5193  
      5062       5063       5074       5073       5183       5184       5195       5194  
      5063       5064       5075       5074       5184       5185       5196       5195  
      5064       5065       5076       5075       5185       5186       5197       5196  
      5065       5066       5077       5076       5186       5187       5198       5197  
      5066       5067       5078       5077       5187       5188       5199       5198  
      5067       5068       5079       5078       5188       5189       5200       5199  
      5068       5069       5080       5079       5189       5190       5201       5200  
      5069       5070       5081       5080       5190       5191       5202       5201  
      5070       5071       5082       5081       5191       5192       5203       5202  
      5083       5084       5095       5094       5204       5205       5216       5215  
      5084       5085       5096       5095       5205       5206       5217       5216  
      5085       5086       5097       5096       5206       5207       5218       5217  
      5086       5087       5098       5097       5207       5208       5219       5218  
      5087       5088       5099       5098       5208       5209       5220       5219  
      5088       5089       5100       5099       5209       5210       5221       5220  
      5089       5090       5101       5100       5210       5211       5222       5221  
      5090       5091       5102       5101       5211       5212       5223       5222  
      5091       5092       5103       5102       5212       5213       5224       5223  
      5092       5093       5104       5103       5213       5214       5225       5224  
      5094       5095       5106       5105       5215       5216       5227       5226  
      5095       5096       5107       5106       5216       5217       5228       5227  
      5096       5097       5108       5107       5217       5218       5229       5228  
      5097       5098       5109       5108       5218       5219       5230       5229  
      5098       5099       5110       5109       5219       5220       5231       5230  
      5099       5100       5111       5110       5220       5221       5232       5231  
      5100       5101       5112       5111       5221       5222       5233       5232  
      5101       5102       5113       5112       5222       5223       5234       5233  
      5102       5103       5114       5113       5223       5224       5235       5234  
      5103       5104       5115       5114       5224       5225       5236       5235  
      5105       5106       5117       5116       5226       5227       5238       5237  
      5106       5107       5118       5117       5227       5228       5239       5238  
      5107       5108       5119       5118       5228       5229       5240       5239  
      5108       5109       5120       5119       5229       5230       5241       5240  
      5109       5110       5121       5120       5230       5231       5242       5241  
      5110       5111       5122       5121       5231       5232       5243       5242  
      5111       5112       5123       5122       5232       5233       5244       5243  
      5112       5113       5124       5123       5233       5234       5245       5244  
      5113       5114       5125       5124       5234       5235       5246       5245  
      5114       5115       5126       5125       5235       5236       5247       5246  
      5116       5117       5128       5127       5237       5238       5249       5248  
      5117       5118       5129       5128       5238       5239       5250       5249  
      5118       5119       5130       5129       5239       5240       5251       5250  
      5119       5120       5131       5130       5240       5241       5252       5251  
      5120       5121       5132       5131       5241       5242       5253       5252  
      5121       5122       5133       5132       5242       5243       5254       5253  
      5122       5123       5134       5133       5243       5244       5255       5254  
      5123       5124       5135       5134       5244       5245       5256       5255  
      5124       5125       5136       5135       5245       5246       5257       5256  
      5125       5126       5137       5136       5246       5247       5258       5257  
      5127       5128       5139       5138       5248       5249       5260       5259  
      5128       5129       5140       5139       5249       5250       5261       5260  
      5129       5130       5141       5140       5250       5251       5262       5261  
      5130       5131       5142       5141       5251       5252       5263       5262  
      5131       5132       5143       5142       5252       5253       5264       5263  
      5132       5133       5144       5143       5253       5254       5265       5264  
      5133       5134       5145       5144       5254       5255       5266       5265  
      5134       5135       5146       5145       5255       5256       5267       5266  
      5135       5136       5147       5146       5256       5257       5268       5267  
      5136       5137       5148       5147       5257       5258       5269       5268  
      5138       5139       5150       5149       5259       5260       5271       5270  
      5139       5140       5151       5150       5260       5261       5272       5271  
      5140       5141       5152       5151       5261       5262       5273       5272  
      5141       5142       5153       5152       5262       5263       5274       5273  
      5142       5143       5154       5153       5263       5264       5275       5274  
      5143       5144       5155       5154       5264       5265       5276       5275  
      5144       5145       5156       5155       5265       5266       5277       5276  
      5145       5146       5157       5156       5266       5267       5278       5277  
      5146       5147       5158       5157       5267       5268       5279       5278  
      5147       5148       5159       5158       5268       5269       5280       5279  
      5149       5150       5161       5160       5270       5271       5282       5281  
      5150       5151       5162       5161       5271       5272       5283       5282  
      5151       5152       5163       5162       5272       5273       5284       5283  
      5152       5153       5164       5163       5273       5274       5285       5284  
      5153       5154       5165       5164       5274       5275       5286       5285  
      5154       5155       5166       5165       5275       5276       5287       5286  
      5155       5156       5167       5166       5276       5277       5288       5287  
      5156       5157       5168       5167       5277       5278       5289       5288  
      5157       5158       5169       5168       5278       5279       5290       5289  
      5158       5159       5170       5169       5279       5280       5291       5290  
      5160       5161       5172       5171       5281       5282       5293       5292  
      5161       5162       5173       5172       5282       5283       5294       5293  
      5162       5163       5174       5173       5283       5284       5295       5294  
      5163       5164       5175       5174       5284       5285       5296       5295  
      5164       5165       5176       5175       5285       5286       5297       5296  
      5165       5166       5177       5176       5286       5287       5298       5297  
      5166       5167       5178       5177       5287       5288       5299       5298  
      5167       5168       5179       5178       5288       5289       5300       5299  
      5168       5169       5180       5179       5289       5290       5301       5300  
      5169       5170       5181       5180       5290       5291       5302       5301  
      5171       5172       5183       5182       5292       5293       5304       5303  
      5172       5173       5184       5183       5293       5294       5305       5304  
      5173       5174       5185       5184       5294       5295       5306       5305  
      5174       5175       5186       5185       5295       5296       5307       5306  
      5175       5176       5187       5186       5296       5297       5308       5307  
      5176       5177       5188       5187       5297       5298       5309       5308  
      5177       5178       5189       5188       5298       5299       5310       5309  
      5178       5179       5190       5189       5299       5300       5311       5310  
      5179       5180       5191       5190       5300       5301       5312       5311  
      5180       5181       5192       5191       5301       5302       5313       5312  
      5182       5183       5194       5193       5303       5304       5315       5314  
      5183       5184       5195       5194       5304       5305       5316       5315  
      5184       5185       5196       5195       5305       5306       5317       5316  
      5185       5186       5197       5196       5306       5307       5318       5317  
      5186       5187       5198       5197       5307       5308       5319       5318  
      5187       5188       5199       5198       5308       5309       5320       5319  
      5188       5189       5200       5199       5309       5310       5321       5320  
      5189       5190       5201       5200       5310       5311       5322       5321  
      5190       5191       5202       5201       5311       5312       5323       5322  
      5191       5192       5203       5202       5312       5313       5324       5323  
      5204       5205       5216       5215       5325       5326       5337       5336  
      5205       5206       5217       5216       5326       5327       5338       5337  
      5206       5207       5218       5217       5327       5328       5339       5338  
      5207       5208       5219       5218       5328       5329       5340       5339  
      5208       5209       5220       5219       5329       5330       5341       5340  
      5209       5210       5221       5220       5330       5331       5342       5341  
      5210       5211       5222       5221       5331       5332       5343       5342  
      5211       5212       5223       5222       5332       5333       5344       5343  
      5212       5213       5224       5223       5333       5334       5345       5344  
      5213       5214       5225       5224       5334       5335       5346       5345  
      5215       5216       5227       5226       5336       5337       5348       5347  
      5216       5217       5228       5227       5337       5338       5349       5348  
      5217       5218       5229       5228       5338       5339       5350       5349  
      5218       5219       5230       5229       5339       5340       5351       5350  
      5219       5220       5231       5230       5340       5341       5352       5351  
      5220       5221       5232       5231       5341       5342       5353       5352  
      5221       5222       5233       5232       5342       5343       5354       5353  
      5222       5223       5234       5233       5343       5344       5355       5354  
      5223       5224       5235       5234       5344       5345       5356       5355  
      5224       5225       5236       5235       5345       5346       5357       5356  
      5226       5227       5238       5237       5347       5348       5359       5358  
      5227       5228       5239       5238       5348       5349       5360       5359  
      5228       5229       5240       5239       5349       5350       5361       5360  
      5229       5230       5241       5240       5350       5351       5362       5361  
      5230       5231       5242       5241       5351       5352       5363       5362  
      5231       5232       5243       5242       5352       5353       5364       5363  
      5232       5233       5244       5243       5353       5354       5365       5364  
      5233       5234       5245       5244       5354       5355       5366       5365  
      5234       5235       5246       5245       5355       5356       5367       5366  
      5235       5236       5247       5246       5356       5357       5368       5367  
      5237       5238       5249       5248       5358       5359       5370       5369  
      5238       5239       5250       5249       5359       5360       5371       5370  
      5239       5240       5251       5250       5360       5361       5372       5371  
      5240       5241       5252       5251       5361       5362       5373       5372  
      5241       5242       5253       5252       5362       5363       5374       5373  
      5242       5243       5254       5253       5363       5364       5375       5374  
      5243       5244       5255       5254       5364       5365       5376       5375  
      5244       5245       5256       5255       5365       5366       5377       5376  
      5245       5246       5257       5256       5366       5367       5378       5377  
      5246       5247       5258       5257       5367       5368       5379       5378  
      5248       5249       5260       5259       5369       5370       5381       5380  
      5249       5250       5261       5260       5370       5371       5382       5381  
      5250       5251       5262       5261       5371       5372       5383       5382  
      5251       5252       5263       5262       5372       5373       5384       5383  
      5252       5253       5264       5263       5373       5374       5385       5384  
      5253       5254       5265       5264       5374       5375       5386       5385  
      5254       5255       5266       5265       5375       5376       5387       5386  
      5255       5256       5267       5266       5376       5377       5388       5387  
      5256       5257       5268       5267       5377       5378       5389       5388  
      5257       5258       5269       5268       5378       5379       5390       5389  
      5259       5260       5271       5270       5380       5381       5392       5391  
      5260       5261       5272       5271       5381       5382       5393       5392  
      5261       5262       5273       5272       5382       5383       5394       5393  
      5262       5263       5274       5273       5383       5384       5395       5394  
      5263       5264       5275       5274       5384       5385       5396       5395  
      5264       5265       5276       5275       5385       5386       5397       5396  
      5265       5266       5277       5276       5386       5387       5398       5397  
      5266       5267       5278       5277       5387       5388       5399       5398  
      5267       5268       5279       5278       5388       5389       5400       5399  
      5268       5269       5280       5279       5389       5390       5401       5400  
      5270       5271       5282       5281       5391       5392       5403       5402  
      5271       5272       5283       5282       5392       5393       5404       5403  
      5272       5273       5284       5283       5393       5394       5405       5404  
      5273       5274       5285       5284       5394       5395       5406       5405  
      5274       5275       5286       5285       5395       5396       5407       5406  
      5275       5276       5287       5286       5396       5397       5408       5407  
      5276       5277       5288       5287       5397       5398       5409       5408  
      5277       5278       5289       5288       5398       5399       5410       5409  
      5278       5279       5290       5289       5399       5400       5411       5410  
      5279       5280       5291       5290       5400       5401       5412       5411  
      5281       5282       5293       5292       5402       5403       5414       5413  
      5282       5283       5294       5293       5403       5404       5415       5414  
      5283       5284       5295       5294       5404       5405       5416       5415  
      5284       5285       5296       5295       5405       5406       5417       5416  
      5285       5286       5297       5296       5406       5407       5418       5417  
      5286       5287       5298       5297       5407       5408       5419       5418  
      5287       5288       5299       5298       5408       5409       5420       5419  
      5288       5289       5300       5299       5409       5410       5421       5420  
      5289       5290       5301       5300       5410       5411       5422       5421  
      5290       5291       5302       5301       5411       5412       5423       5422  
      5292       5293       5304       5303       5413       5414       5425       5424  
      5293       5294       5305       5304       5414       5415       5426       5425  
      5294       5295       5306       5305       5415       5416       5427       5426  
      5295       5296       5307       5306       5416       5417       5428       5427  
      5296       5297       5308       5307       5417       5418       5429       5428  
      5297       5298       5309       5308       5418       5419       5430       5429  
      5298       5299       5310       5309       5419       5420       5431       5430  
      5299       5300       5311       5310       5420       5421       5432       5431  
      5300       5301       5312       5311       5421       5422       5433       5432  
      5301       5302       5313       5312       5422       5423       5434       5433  
      5303       5304       5315       5314       5424       5425       5436       5435  
      5304       5305       5316       5315       5425       5426       5437       5436  
      5305       5306       5317       5316       5426       5427       5438       5437  
      5306       5307       5318       5317       5427       5428       5439       5438  
      5307       5308       5319       5318       5428       5429       5440       5439  
      5308       5309       5320       5319       5429       5430       5441       5440  
      5309       5310       5321       5320       5430       5431       5442       5441  
      5310       5311       5322       5321       5431       5432       5443       5442  
      5311       5312       5323       5322       5432       5433       5444       5443  
      5312       5313       5324       5323       5433       5434       5445       5444  
      5325       5326       5337       5336       5446       5447       5458       5457  
      5326       5327       5338       5337       5447       5448       5459       5458  
      5327       5328       5339       5338       5448       5449       5460       5459  
      5328       5329       5340       5339       5449       5450       5461       5460  
      5329       5330       5341       5340       5450       5451       5462       5461  
      5330       5331       5342       5341       5451       5452       5463       5462  
      5331       5332       5343       5342       5452       5453       5464       5463  
      5332       5333       5344       5343       5453       5454       5465       5464  
      5333       5334       5345       5344       5454       5455       5466       5465  
      5334       5335       5346       5345       5455       5456       5467       5466  
      5336       5337       5348       5347       5457       5458       5469       5468  
      5337       5338       5349       5348       5458       5459       5470       5469  
      5338       5339       5350       5349       5459       5460       5471       5470  
      5339       5340       5351       5350       5460       5461       5472       5471  
      5340       5341       5352       5351       5461       5462       5473       5472  
      5341       5342       5353       5352       5462       5463       5474       5473  
      5342       5343       5354       5353       5463       5464       5475       5474  
      5343       5344       5355       5354       5464       5465       5476       5475  
      5344       5345       5356       5355       5465       5466       5477       5476  
      5345       5346       5357       5356       5466       5467       5478       5477  
      5347       5348       5359       5358       5468       5469       5480       5479  
      5348       5349       5360       5359       5469       5470       5481       5480  
      5349       5350       5361       5360       5470       5471       5482       5481  
      5350       5351       5362       5361       5471       5472       5483       5482  
      5351       5352       5363       5362       5472       5473       5484       5483  
      5352       5353       5364       5363       5473       5474       5485       5484  
      5353       5354       5365       5364       5474       5475       5486       5485  
      5354       5355       5366       5365       5475       5476       5487       5486  
      5355       5356       5367       5366       5476       5477       5488       5487  
      5356       5357       5368       5367       5477       5478       5489       5488  
      5358       5359       5370       5369       5479       5480       5491       5490  
      5359       5360       5371       5370       5480       5481       5492       5491  
      5360       5361       5372       5371       5481       5482       5493       5492  
      5361       5362       5373       5372       5482       5483       5494       5493  
      5362       5363       5374       5373       5483       5484       5495       5494  
      5363       5364       5375       5374       5484       5485       5496       5495  
      5364       5365       5376       5375       5485       5486       5497       5496  
      5365       5366       5377       5376       5486       5487       5498       5497  
      5366       5367       5378       5377       5487       5488       5499       5498  
      5367       5368       5379       5378       5488       5489       5500       5499  
      5369       5370       5381       5380       5490       5491       5502       5501  
      5370       5371       5382       5381       5491       5492       5503       5502  
      5371       5372       5383       5382       5492       5493       5504       5503  
      5372       5373       5384       5383       5493       5494       5505       5504  
      5373       5374       5385       5384       5494       5495       5506       5505  
      5374       5375       5386       5385       5495       5496       5507       5506  
      5375       5376       5387       5386       5496       5497       5508       5507  
      5376       5377       5388       5387       5497       5498       5509       5508  
      5377       5378       5389       5388       5498       5499       5510       5509  
      5378       5379       5390       5389       5499       5500       5511       5510  
      5380       5381       5392       5391       5501       5502       5513       5512  
      5381       5382       5393       5392       5502       5503       5514       5513  
      5382       5383       5394       5393       5503       5504       5515       5514  
      5383       5384       5395       5394       5504       5505       5516       5515  
      5384       5385       5396       5395       5505       5506       5517       5516  
      5385       5386       5397       5396       5506       5507       5518       5517  
      5386       5387       5398       5397       5507       5508       5519       5518  
      5387       5388       5399       5398       5508       5509       5520       5519  
      5388       5389       5400       5399       5509       5510       5521       5520  
      5389       5390       5401       5400       5510       5511       5522       5521  
      5391       5392       5403       5402       5512       5513       5524       5523  
      5392       5393       5404       5403       5513       5514       5525       5524  
      5393       5394       5405       5404       5514       5515       5526       5525  
      5394       5395       5406       5405       5515       5516       5527       5526  
      5395       5396       5407       5406       5516       5517       5528       5527  
      5396       5397       5408       5407       5517       5518       5529       5528  
      5397       5398       5409       5408       5518       5519       5530       5529  
      5398       5399       5410       5409       5519       5520       5531       5530  
      5399       5400       5411       5410       5520       5521       5532       5531  
      5400       5401       5412       5411       5521       5522       5533       5532  
      5402       5403       5414       5413       5523       5524       5535       5534  
      5403       5404       5415       5414       5524       5525       5536       5535  
      5404       5405       5416       5415       5525       5526       5537       5536  
      5405       5406       5417       5416       5526       5527       5538       5537  
      5406       5407       5418       5417       5527       5528       5539       5538  
      5407       5408       5419       5418       5528       5529       5540       5539  
      5408       5409       5420       5419       5529       5530       5541       5540  
      5409       5410       5421       5420       5530       5531       5542       5541  
      5410       5411       5422       5421       5531       5532       5543       5542  
      5411       5412       5423       5422       5532       5533       5544       5543  
      5413       5414       5425       5424       5534       5535       5546       5545  
      5414       5415       5426       5425       5535       5536       5547       5546  
      5415       5416       5427       5426       5536       5537       5548       5547  
      5416       5417       5428       5427       5537       5538       5549       5548  
      5417       5418       5429       5428       5538       5539       5550       5549  
      5418       5419       5430       5429       5539       5540       5551       5550  
      5419       5420       5431       5430       5540       5541       5552       5551  
      5420       5421       5432       5431       5541       5542       5553       5552  
      5421       5422       5433       5432       5542       5543       5554       5553  
      5422       5423       5434       5433       5543       5544       5555       5554  
      5424       5425       5436       5435       5545       5546       5557       5556  
      5425       5426       5437       5436       5546       5547       5558       5557  
      5426       5427       5438       5437       5547       5548       5559       5558  
      5427       5428       5439       5438       5548       5549       5560       5559  
      5428       5429       5440       5439       5549       5550       5561       5560  
      5429       5430       5441       5440       5550       5551       5562       5561  
      5430       5431       5442       5441       5551       5552       5563       5562  
      5431       5432       5443       5442       5552       5553       5564       5563  
      5432       5433       5444       5443       5553       5554       5565       5564  
      5433       5434       5445       5444       5554       5555       5566       5565  
      5446       5447       5458       5457       5567       5568       5579       5578  
      5447       5448       5459       5458       5568       5569       5580       5579  
      5448       5449       5460       5459       5569       5570       5581       5580  
      5449       5450       5461       5460       5570       5571       5582       5581  
      5450       5451       5462       5461       5571       5572       5583       5582  
      5451       5452       5463       5462       5572       5573       5584       5583  
      5452       5453       5464       5463       5573       5574       5585       5584  
      5453       5454       5465       5464       5574       5575       5586       5585  
      5454       5455       5466       5465       5575       5576       5587       5586  
      5455       5456       5467       5466       5576       5577       5588       5587  
      5457       5458       5469       5468       5578       5579       5590       5589  
      5458       5459       5470       5469       5579       5580       5591       5590  
      5459       5460       5471       5470       5580       5581       5592       5591  
      5460       5461       5472       5471       5581       5582       5593       5592  
      5461       5462       5473       5472       5582       5583       5594       5593  
      5462       5463       5474       5473       5583       5584       5595       5594  
      5463       5464       5475       5474       5584       5585       5596       5595  
      5464       5465       5476       5475       5585       5586       5597       5596  
      5465       5466       5477       5476       5586       5587       5598       5597  
      5466       5467       5478       5477       5587       5588       5599       5598  
      5468       5469       5480       5479       5589       5590       5601       5600  
      5469       5470       5481       5480       5590       5591       5602       5601  
      5470       5471       5482       5481       5591       5592       5603       5602  
      5471       5472       5483       5482       5592       5593       5604       5603  
      5472       5473       5484       5483       5593       5594       5605       5604  
      5473       5474       5485       5484       5594       5595       5606       5605  
      5474       5475       5486       5485       5595       5596       5607       5606  
      5475       5476       5487       5486       5596       5597       5608       5607  
      5476       5477       5488       5487       5597       5598       5609       5608  
      5477       5478       5489       5488       5598       5599       5610       5609  
      5479       5480       5491       5490       5600       5601       5612       5611  
      5480       5481       5492       5491       5601       5602       5613       5612  
      5481       5482       5493       5492       5602       5603       5614       5613  
      5482       5483       5494       5493       5603       5604       5615       5614  
      5483       5484       5495       5494       5604       5605       5616       5615  
      5484       5485       5496       5495       5605       5606       5617       5616  
      5485       5486       5497       5496       5606       5607       5618       5617  
      5486       5487       5498       5497       5607       5608       5619       5618  
      5487       5488       5499       5498       5608       5609       5620       5619  
      5488       5489       5500       5499       5609       5610       5621       5620  
      5490       5491       5502       5501       5611       5612       5623       5622  
      5491       5492       5503       5502       5612       5613       5624       5623  
      5492       5493       5504       5503       5613       5614       5625       5624  
      5493       5494       5505       5504       5614       5615       5626       5625  
      5494       5495       5506       5505       5615       5616       5627       5626  
      5495       5496       5507       5506       5616       5617       5628       5627  
      5496       5497       5508       5507       5617       5618       5629       5628  
      5497       5498       5509       5508       5618       5619       5630       5629  
      5498       5499       5510       5509       5619       5620       5631       5630  
      5499       5500       5511       5510       5620       5621       5632       5631  
      5501       5502       5513       5512       5622       5623       5634       5633  
      5502       5503       5514       5513       5623       5624       5635       5634  
      5503       5504       5515       5514       5624       5625       5636       5635  
      5504       5505       5516       5515       5625       5626       5637       5636  
      5505       5506       5517       5516       5626       5627       5638       5637  
      5506       5507       5518       5517       5627       5628       5639       5638  
      5507       5508       5519       5518       5628       5629       5640       5639  
      5508       5509       5520       5519       5629       5630       5641       5640  
      5509       5510       5521       5520       5630       5631       5642       5641  
      5510       5511       5522       5521       5631       5632       5643       5642  
      5512       5513       5524       5523       5633       5634       5645       5644  
      5513       5514       5525       5524       5634       5635       5646       5645  
      5514       5515       5526       5525       5635       5636       5647       5646  
      5515       5516       5527       5526       5636       5637       5648       5647  
      5516       5517       5528       5527       5637       5638       5649       5648  
      5517       5518       5529       5528       5638       5639       5650       5649  
      5518       5519       5530       5529       5639       5640       5651       5650  
      5519       5520       5531       5530       5640       5641       5652       5651  
      5520       5521       5532       5531       5641       5642       5653       5652  
      5521       5522       5533       5532       5642       5643       5654       5653  
      5523       5524       5535       5534       5644       5645       5656       5655  
      5524       5525       5536       5535       5645       5646       5657       5656  
      5525       5526       5537       5536       5646       5647       5658       5657  
      5526       5527       5538       5537       5647       5648       5659       5658  
      5527       5528       5539       5538       5648       5649       5660       5659  
      5528       5529       5540       5539       5649       5650       5661       5660  
      5529       5530       5541       5540       5650       5651       5662       5661  
      5530       5531       5542       5541       5651       5652       5663       5662  
      5531       5532       5543       5542       5652       5653       5664       5663  
      5532       5533       5544       5543       5653       5654       5665       5664  
      5534       5535       5546       5545       5655       5656       5667       5666  
      5535       5536       5547       5546       5656       5657       5668       5667  
      5536       5537       5548       5547       5657       5658       5669       5668  
      5537       5538       5549       5548       5658       5659       5670       5669  
      5538       5539       5550       5549       5659       5660       5671       5670  
      5539       5540       5551       5550       5660       5661       5672       5671  
      5540       5541       5552       5551       5661       5662       5673       5672  
      5541       5542       5553       5552       5662       5663       5674       5673  
      5542       5543       5554       5553       5663       5664       5675       5674  
      5543       5544       5555       5554       5664       5665       5676       5675  
      5545       5546       5557       5556       5666       5667       5678       5677  
      5546       5547       5558       5557       5667       5668       5679       5678  
      5547       5548       5559       5558       5668       5669       5680       5679  
      5548       5549       5560       5559       5669       5670       5681       5680  
      5549       5550       5561       5560       5670       5671       5682       5681  
      5550       5551       5562       5561       5671       5672       5683       5682  
      5551       5552       5563       5562       5672       5673       5684       5683  
      5552       5553       5564       5563       5673       5674       5685       5684  
      5553       5554       5565       5564       5674       5675       5686       5685  
      5554       5555       5566       5565       5675       5676       5687       5686  
      5567       5568       5579       5578       5688       5689       5700       5699  
      5568       5569       5580       5579       5689       5690       5701       5700  
      5569       5570       5581       5580       5690       5691       5702       5701  
      5570       5571       5582       5581       5691       5692       5703       5702  
      5571       5572       5583       5582       5692       5693       5704       5703  
      5572       5573       5584       5583       5693       5694       5705       5704  
      5573       5574       5585       5584       5694       5695       5706       5705  
      5574       5575       5586       5585       5695       5696       5707       5706  
      5575       5576       5587       5586       5696       5697       5708       5707  
      5576       5577       5588       5587       5697       5698       5709       5708  
      5578       5579       5590       5589       5699       5700       5711       5710  
      5579       5580       5591       5590       5700       5701       5712       5711  
      5580       5581       5592       5591       5701       5702       5713       5712  
      5581       5582       5593       5592       5702       5703       5714       5713  
      5582       5583       5594       5593       5703       5704       5715       5714  
      5583       5584       5595       5594       5704       5705       5716       5715  
      5584       5585       5596       5595       5705       5706       5717       5716  
      5585       5586       5597       5596       5706       5707       5718       5717  
      5586       5587       5598       5597       5707       5708       5719       5718  
      5587       5588       5599       5598       5708       5709       5720       5719  
      5589       5590       5601       5600       5710       5711       5722       5721  
      5590       5591       5602       5601       5711       5712       5723       5722  
      5591       5592       5603       5602       5712       5713       5724       5723  
      5592       5593       5604       5603       5713       5714       5725       5724  
      5593       5594       5605       5604       5714       5715       5726       5725  
      5594       5595       5606       5605       5715       5716       5727       5726  
      5595       5596       5607       5606       5716       5717       5728       5727  
      5596       5597       5608       5607       5717       5718       5729       5728  
      5597       5598       5609       5608       5718       5719       5730       5729  
      5598       5599       5610       5609       5719       5720       5731       5730  
      5600       5601       5612       5611       5721       5722       5733       5732  
      5601       5602       5613       5612       5722       5723       5734       5733  
      5602       5603       5614       5613       5723       5724       5735       5734  
      5603       5604       5615       5614       5724       5725       5736       5735  
      5604       5605       5616       5615       5725       5726       5737       5736  
      5605       5606       5617       5616       5726       5727       5738       5737  
      5606       5607       5618       5617       5727       5728       5739       5738  
      5607       5608       5619       5618       5728       5729       5740       5739  
      5608       5609       5620       5619       5729       5730       5741       5740  
      5609       5610       5621       5620       5730       5731       5742       5741  
      5611       5612       5623       5622       5732       5733       5744       5743  
      5612       5613       5624       5623       5733       5734       5745       5744  
      5613       5614       5625       5624       5734       5735       5746       5745  
      5614       5615       5626       5625       5735       5736       5747       5746  
      5615       5616       5627       5626       5736       5737       5748       5747  
      5616       5617       5628       5627       5737       5738       5749       5748  
      5617       5618       5629       5628       5738       5739       5750       5749  
      5618       5619       5630       5629       5739       5740       5751       5750  
      5619       5620       5631       5630       5740       5741       5752       5751  
      5620       5621       5632       5631       5741       5742       5753       5752  
      5622       5623       5634       5633       5743       5744       5755       5754  
      5623       5624       5635       5634       5744       5745       5756       5755  
      5624       5625       5636       5635       5745       5746       5757       5756  
      5625       5626       5637       5636       5746       5747       5758       5757  
      5626       5627       5638       5637       5747       5748       5759       5758  
      5627       5628       5639       5638       5748       5749       5760       5759  
      5628       5629       5640       5639       5749       5750       5761       5760  
      5629       5630       5641       5640       5750       5751       5762       5761  
      5630       5631       5642       5641       5751       5752       5763       5762  
      5631       5632       5643       5642       5752       5753       5764       5763  
      5633       5634       5645       5644       5754       5755       5766       5765  
      5634       5635       5646       5645       5755       5756       5767       5766  
      5635       5636       5647       5646       5756       5757       5768       5767  
      5636       5637       5648       5647       5757       5758       5769       5768  
      5637       5638       5649       5648       5758       5759       5770       5769  
      5638       5639       5650       5649       5759       5760       5771       5770  
      5639       5640       5651       5650       5760       5761       5772       5771  
      5640       5641       5652       5651       5761       5762       5773       5772  
      5641       5642       5653       5652       5762       5763       5774       5773  
      5642       5643       5654       5653       5763       5764       5775       5774  
      5644       5645       5656       5655       5765       5766       5777       5776  
      5645       5646       5657       5656       5766       5767       5778       5777  
      5646       5647       5658       5657       5767       5768       5779       5778  
      5647       5648       5659       5658       5768       5769       5780       5779  
      5648       5649       5660       5659       5769       5770       5781       5780  
      5649       5650       5661       5660       5770       5771       5782       5781  
      5650       5651       5662       5661       5771       5772       5783       5782  
      5651       5652       5663       5662       5772       5773       5784       5783  
      5652       5653       5664       5663       5773       5774       5785       5784  
      5653       5654       5665       5664       5774       5775       5786       5785  
      5655       5656       5667       5666       5776       5777       5788       5787  
      5656       5657       5668       5667       5777       5778       5789       5788  
      5657       5658       5669       5668       5778       5779       5790       5789  
      5658       5659       5670       5669       5779       5780       5791       5790  
      5659       5660       5671       5670       5780       5781       5792       5791  
      5660       5661       5672       5671       5781       5782       5793       5792  
      5661       5662       5673       5672       5782       5783       5794       5793  
      5662       5663       5674       5673       5783       5784       5795       5794  
      5663       5664       5675       5674       5784       5785       5796       5795  
      5664       5665       5676       5675       5785       5786       5797       5796  
      5666       5667       5678       5677       5787       5788       5799       5798  
      5667       5668       5679       5678       5788       5789       5800       5799  
      5668       5669       5680       5679       5789       5790       5801       5800  
      5669       5670       5681       5680       5790       5791       5802       5801  
      5670       5671       5682       5681       5791       5792       5803       5802  
      5671       5672       5683       5682       5792       5793       5804       5803  
      5672       5673       5684       5683       5793       5794       5805       5804  
      5673       5674       5685       5684       5794       5795       5806       5805  
      5674       5675       5686       5685       5795       5796       5807       5806  
      5675       5676       5687       5686       5796       5797       5808       5807  
      5688       5689       5700       5699       5809       5810       5821       5820  
      5689       5690       5701       5700       5810       5811       5822       5821  
      5690       5691       5702       5701       5811       5812       5823       5822  
      5691       5692       5703       5702       5812       5813       5824       5823  
      5692       5693       5704       5703       5813       5814       5825       5824  
      5693       5694       5705       5704       5814       5815       5826       5825  
      5694       5695       5706       5705       5815       5816       5827       5826  
      5695       5696       5707       5706       5816       5817       5828       5827  
      5696       5697       5708       5707       5817       5818       5829       5828  
      5697       5698       5709       5708       5818       5819       5830       5829  
      5699       5700       5711       5710       5820       5821       5832       5831  
      5700       5701       5712       5711       5821       5822       5833       5832  
      5701       5702       5713       5712       5822       5823       5834       5833  
      5702       5703       5714       5713       5823       5824       5835       5834  
      5703       5704       5715       5714       5824       5825       5836       5835  
      5704       5705       5716       5715       5825       5826       5837       5836  
      5705       5706       5717       5716       5826       5827       5838       5837  
      5706       5707       5718       5717       5827       5828       5839       5838  
      5707       5708       5719       5718       5828       5829       5840       5839  
      5708       5709       5720       5719       5829       5830       5841       5840  
      5710       5711       5722       5721       5831       5832       5843       5842  
      5711       5712       5723       5722       5832       5833       5844       5843  
      5712       5713       5724       5723       5833       5834       5845       5844  
      5713       5714       5725       5724       5834       5835       5846       5845  
      5714       5715       5726       5725       5835       5836       5847       5846  
      5715       5716       5727       5726       5836       5837       5848       5847  
      5716       5717       5728       5727       5837       5838       5849       5848  
      5717       5718       5729       5728       5838       5839       5850       5849  
      5718       5719       5730       5729       5839       5840       5851       5850  
      5719       5720       5731       5730       5840       5841       5852       5851  
      5721       5722       5733       5732       5842       5843       5854       5853  
      5722       5723       5734       5733       5843       5844       5855       5854  
      5723       5724       5735       5734       5844       5845       5856       5855  
      5724       5725       5736       5735       5845       5846       5857       5856  
      5725       5726       5737       5736       5846       5847       5858       5857  
      5726       5727       5738       5737       5847       5848       5859       5858  
      5727       5728       5739       5738       5848       5849       5860       5859  
      5728       5729       5740       5739       5849       5850       5861       5860  
      5729       5730       5741       5740       5850       5851       5862       5861  
      5730       5731       5742       5741       5851       5852       5863       5862  
      5732       5733       5744       5743       5853       5854       5865       5864  
      5733       5734       5745       5744       5854       5855       5866       5865  
      5734       5735       5746       5745       5855       5856       5867       5866  
      5735       5736       5747       5746       5856       5857       5868       5867  
      5736       5737       5748       5747       5857       5858       5869       5868  
      5737       5738       5749       5748       5858       5859       5870       5869  
      5738       5739       5750       5749       5859       5860       5871       5870  
      5739       5740       5751       5750       5860       5861       5872       5871  
      5740       5741       5752       5751       5861       5862       5873       5872  
      5741       5742       5753       5752       5862       5863       5874       5873  
      5743       5744       5755       5754       5864       5865       5876       5875  
      5744       5745       5756       5755       5865       5866       5877       5876  
      5745       5746       5757       5756       5866       5867       5878       5877  
      5746       5747       5758       5757       5867       5868       5879       5878  
      5747       5748       5759       5758       5868       5869       5880       5879  
      5748       5749       5760       5759       5869       5870       5881       5880  
      5749       5750       5761       5760       5870       5871       5882       5881  
      5750       5751       5762       5761       5871       5872       5883       5882  
      5751       5752       5763       5762       5872       5873       5884       5883  
      5752       5753       5764       5763       5873       5874       5885       5884  
      5754       5755       5766       5765       5875       5876       5887       5886  
      5755       5756       5767       5766       5876       5877       5888       5887  
      5756       5757       5768       5767       5877       5878       5889       5888  
      5757       5758       5769       5768       5878       5879       5890       5889  
      5758       5759       5770       5769       5879       5880       5891       5890  
      5759       5760       5771       5770       5880       5881       5892       5891  
      5760       5761       5772       5771       5881       5882       5893       5892  
      5761       5762       5773       5772       5882       5883       5894       5893  
      5762       5763       5774       5773       5883       5884       5895       5894  
      5763       5764       5775       5774       5884       5885       5896       5895  
      5765       5766       5777       5776       5886       5887       5898       5897  
      5766       5767       5778       5777       5887       5888       5899       5898  
      5767       5768       5779       5778       5888       5889       5900       5899  
      5768       5769       5780       5779       5889       5890       5901       5900  
      5769       5770       5781       5780       5890       5891       5902       5901  
      5770       5771       5782       5781       5891       5892       5903       5902  
      5771       5772       5783       5782       5892       5893       5904       5903  
      5772       5773       5784       5783       5893       5894       5905       5904  
      5773       5774       5785       5784       5894       5895       5906       5905  
      5774       5775       5786       5785       5895       5896       5907       5906  
      5776       5777       5788       5787       5897       5898       5909       5908  
      5777       5778       5789       5788       5898       5899       5910       5909  
      5778       5779       5790       5789       5899       5900       5911       5910  
      5779       5780       5791       5790       5900       5901       5912       5911  
      5780       5781       5792       5791       5901       5902       5913       5912  
      5781       5782       5793       5792       5902       5903       5914       5913  
      5782       5783       5794       5793       5903       5904       5915       5914  
      5783       5784       5795       5794       5904       5905       5916       5915  
      5784       5785       5796       5795       5905       5906       5917       5916  
      5785       5786       5797       5796       5906       5907       5918       5917  
      5787       5788       5799       5798       5908       5909       5920       5919  
      5788       5789       5800       5799       5909       5910       5921       5920  
      5789       5790       5801       5800       5910       5911       5922       5921  
      5790       5791       5802       5801       5911       5912       5923       5922  
      5791       5792       5803       5802       5912       5913       5924       5923  
      5792       5793       5804       5803       5913       5914       5925       5924  
      5793       5794       5805       5804       5914       5915       5926       5925  
      5794       5795       5806       5805       5915       5916       5927       5926  
      5795       5796       5807       5806       5916       5917       5928       5927  
      5796       5797       5808       5807       5917       5918       5929       5928  
      5809       5810       5821       5820       5930       5931       5942       5941  
      5810       5811       5822       5821       5931       5932       5943       5942  
      5811       5812       5823       5822       5932       5933       5944       5943  
      5812       5813       5824       5823       5933       5934       5945       5944  
      5813       5814       5825       5824       5934       5935       5946       5945  
      5814       5815       5826       5825       5935       5936       5947       5946  
      5815       5816       5827       5826       5936       5937       5948       5947  
      5816       5817       5828       5827       5937       5938       5949       5948  
      5817       5818       5829       5828       5938       5939       5950       5949  
      5818       5819       5830       5829       5939       5940       5951       5950  
      5820       5821       5832       5831       5941       5942       5953       5952  
      5821       5822       5833       5832       5942       5943       5954       5953  
      5822       5823       5834       5833       5943       5944       5955       5954  
      5823       5824       5835       5834       5944       5945       5956       5955  
      5824       5825       5836       5835       5945       5946       5957       5956  
      5825       5826       5837       5836       5946       5947       5958       5957  
      5826       5827       5838       5837       5947       5948       5959       5958  
      5827       5828       5839       5838       5948       5949       5960       5959  
      5828       5829       5840       5839       5949       5950       5961       5960  
      5829       5830       5841       5840       5950       5951       5962       5961  
      5831       5832       5843       5842       5952       5953       5964       5963  
      5832       5833       5844       5843       5953       5954       5965       5964  
      5833       5834       5845       5844       5954       5955       5966       5965  
      5834       5835       5846       5845       5955       5956       5967       5966  
      5835       5836       5847       5846       5956       5957       5968       5967  
      5836       5837       5848       5847       5957       5958       5969       5968  
      5837       5838       5849       5848       5958       5959       5970       5969  
      5838       5839       5850       5849       5959       5960       5971       5970  
      5839       5840       5851       5850       5960       5961       5972       5971  
      5840       5841       5852       5851       5961       5962       5973       5972  
      5842       5843       5854       5853       5963       5964       5975       5974  
      5843       5844       5855       5854       5964       5965       5976       5975  
      5844       5845       5856       5855       5965       5966       5977       5976  
      5845       5846       5857       5856       5966       5967       5978       5977  
      5846       5847       5858       5857       5967       5968       5979       5978  
      5847       5848       5859       5858       5968       5969       5980       5979  
      5848       5849       5860       5859       5969       5970       5981       5980  
      5849       5850       5861       5860       5970       5971       5982       5981  
      5850       5851       5862       5861       5971       5972       5983       5982  
      5851       5852       5863       5862       5972       5973       5984       5983  
      5853       5854       5865       5864       5974       5975       5986       5985  
      5854       5855       5866       5865       5975       5976       5987       5986  
      5855       5856       5867       5866       5976       5977       5988       5987  
      5856       5857       5868       5867       5977       5978       5989       5988  
      5857       5858       5869       5868       5978       5979       5990       5989  
      5858       5859       5870       5869       5979       5980       5991       5990  
      5859       5860       5871       5870       5980       5981       5992       5991  
      5860       5861       5872       5871       5981       5982       5993       5992  
      5861       5862       5873       5872       5982       5983       5994       5993  
      5862       5863       5874       5873       5983       5984       5995       5994  
      5864       5865       5876       5875       5985       5986       5997       5996  
      5865       5866       5877       5876       5986       5987       5998       5997  
      5866       5867       5878       5877       5987       5988       5999       5998  
      5867       5868       5879       5878       5988       5989       6000       5999  
      5868       5869       5880       5879       5989       5990       6001       6000  
      5869       5870       5881       5880       5990       5991       6002       6001  
      5870       5871       5882       5881       5991       5992       6003       6002  
      5871       5872       5883       5882       5992       5993       6004       6003  
      5872       5873       5884       5883       5993       5994       6005       6004  
      5873       5874       5885       5884       5994       5995       6006       6005  
      5875       5876       5887       5886       5996       5997       6008       6007  
      5876       5877       5888       5887       5997       5998       6009       6008  
      5877       5878       5889       5888       5998       5999       6010       6009  
      5878       5879       5890       5889       5999       6000       6011       6010  
      5879       5880       5891       5890       6000       6001       6012       6011  
      5880       5881       5892       5891       6001       6002       6013       6012  
      5881       5882       5893       5892       6002       6003       6014       6013  
      5882       5883       5894       5893       6003       6004       6015       6014  
      5883       5884       5895       5894       6004       6005       6016       6015  
      5884       5885       5896       5895       6005       6006       6017       6016  
      5886       5887       5898       5897       6007       6008       6019       6018  
      5887       5888       5899       5898       6008       6009       6020       6019  
      5888       5889       5900       5899       6009       6010       6021       6020  
      5889       5890       5901       5900       6010       6011       6022       6021  
      5890       5891       5902       5901       6011       6012       6023       6022  
      5891       5892       5903       5902       6012       6013       6024       6023  
      5892       5893       5904       5903       6013       6014       6025       6024  
      5893       5894       5905       5904       6014       6015       6026       6025  
      5894       5895       5906       5905       6015       6016       6027       6026  
      5895       5896       5907       5906       6016       6017       6028       6027  
      5897       5898       5909       5908       6018       6019       6030       6029  
      5898       5899       5910       5909       6019       6020       6031       6030  
      5899       5900       5911       5910       6020       6021       6032       6031  
      5900       5901       5912       5911       6021       6022       6033       6032  
      5901       5902       5913       5912       6022       6023       6034       6033  
      5902       5903       5914       5913       6023       6024       6035       6034  
      5903       5904       5915       5914       6024       6025       6036       6035  
      5904       5905       5916       5915       6025       6026       6037       6036  
      5905       5906       5917       5916       6026       6027       6038       6037  
      5906       5907       5918       5917       6027       6028       6039       6038  
      5908       5909       5920       5919       6029       6030       6041       6040  
      5909       5910       5921       5920       6030       6031       6042       6041  
      5910       5911       5922       5921       6031       6032       6043       6042  
      5911       5912       5923       5922       6032       6033       6044       6043  
      5912       5913       5924       5923       6033       6034       6045       6044  
      5913       5914       5925       5924       6034       6035       6046       6045  
      5914       5915       5926       5925       6035       6036       6047       6046  
      5915       5916       5927       5926       6036       6037       6048       6047  
      5916       5917       5928       5927       6037       6038       6049       6048  
      5917       5918       5929       5928       6038       6039       6050       6049  
      5930       5931       5942       5941       6051       6052       6063       6062  
      5931       5932       5943       5942       6052       6053       6064       6063  
      5932       5933       5944       5943       6053       6054       6065       6064  
      5933       5934       5945       5944       6054       6055       6066       6065  
      5934       5935       5946       5945       6055       6056       6067       6066  
      5935       5936       5947       5946       6056       6057       6068       6067  
      5936       5937       5948       5947       6057       6058       6069       6068  
      5937       5938       5949       5948       6058       6059       6070       6069  
      5938       5939       5950       5949       6059       6060       6071       6070  
      5939       5940       5951       5950       6060       6061       6072       6071  
      5941       5942       5953       5952       6062       6063       6074       6073  
      5942       5943       5954       5953       6063       6064       6075       6074  
      5943       5944       5955       5954       6064       6065       6076       6075  
      5944       5945       5956       5955       6065       6066       6077       6076  
      5945       5946       5957       5956       6066       6067       6078       6077  
      5946       5947       5958       5957       6067       6068       6079       6078  
      5947       5948       5959       5958       6068       6069       6080       6079  
      5948       5949       5960       5959       6069       6070       6081       6080  
      5949       5950       5961       5960       6070       6071       6082       6081  
      5950       5951       5962       5961       6071       6072       6083       6082  
      5952       5953       5964       5963       6073       6074       6085       6084  
      5953       5954       5965       5964       6074       6075       6086       6085  
      5954       5955       5966       5965       6075       6076       6087       6086  
      5955       5956       5967       5966       6076       6077       6088       6087  
      5956       5957       5968       5967       6077       6078       6089       6088  
      5957       5958       5969       5968       6078       6079       6090       6089  
      5958       5959       5970       5969       6079       6080       6091       6090  
      5959       5960       5971       5970       6080       6081       6092       6091  
      5960       5961       5972       5971       6081       6082       6093       6092  
      5961       5962       5973       5972       6082       6083       6094       6093  
      5963       5964       5975       5974       6084       6085       6096       6095  
      5964       5965       5976       5975       6085       6086       6097       6096  
      5965       5966       5977       5976       6086       6087       6098       6097  
      5966       5967       5978       5977       6087       6088       6099       6098  
      5967       5968       5979       5978       6088       6089       6100       6099  
      5968       5969       5980       5979       6089       6090       6101       6100  
      5969       5970       5981       5980       6090       6091       6102       6101  
      5970       5971       5982       5981       6091       6092       6103       6102  
      5971       5972       5983       5982       6092       6093       6104       6103  
      5972       5973       5984       5983       6093       6094       6105       6104  
      5974       5975       5986       5985       6095       6096       6107       6106  
      5975       5976       5987       5986       6096       6097       6108       6107  
      5976       5977       5988       5987       6097       6098       6109       6108  
      5977       5978       5989       5988       6098       6099       6110       6109  
      5978       5979       5990       5989       6099       6100       6111       6110  
      5979       5980       5991       5990       6100       6101       6112       6111  
      5980       5981       5992       5991       6101       6102       6113       6112  
      5981       5982       5993       5992       6102       6103       6114       6113  
      5982       5983       5994       5993       6103       6104       6115       6114  
      5983       5984       5995       5994       6104       6105       6116       6115  
      5985       5986       5997       5996       6106       6107       6118       6117  
      5986       5987       5998       5997       6107       6108       6119       6118  
      5987       5988       5999       5998       6108       6109       6120       6119  
      5988       5989       6000       5999       6109       6110       6121       6120  
      5989       5990       6001       6000       6110       6111       6122       6121  
      5990       5991       6002       6001       6111       6112       6123       6122  
      5991       5992       6003       6002       6112       6113       6124       6123  
      5992       5993       6004       6003       6113       6114       6125       6124  
      5993       5994       6005       6004       6114       6115       6126       6125  
      5994       5995       6006       6005       6115       6116       6127       6126  
      5996       5997       6008       6007       6117       6118       6129       6128  
      5997       5998       6009       6008       6118       6119       6130       6129  
      5998       5999       6010       6009       6119       6120       6131       6130  
      5999       6000       6011       6010       6120       6121       6132       6131  
      6000       6001       6012       6011       6121       6122       6133       6132  
      6001       6002       6013       6012       6122       6123       6134       6133  
      6002       6003       6014       6013       6123       6124       6135       6134  
      6003       6004       6015       6014       6124       6125       6136       6135  
      6004       6005       6016       6015       6125       6126       6137       6136  
      6005       6006       6017       6016       6126       6127       6138       6137  
      6007       6008       6019       6018       6128       6129       6140       6139  
      6008       6009       6020       6019       6129       6130       6141       6140  
      6009       6010       6021       6020       6130       6131       6142       6141  
      6010       6011       6022       6021       6131       6132       6143       6142  
      6011       6012       6023       6022       6132       6133       6144       6143  
      6012       6013       6024       6023       6133       6134       6145       6144  
      6013       6014       6025       6024       6134       6135       6146       6145  
      6014       6015       6026       6025       6135       6136       6147       6146  
      6015       6016       6027       6026       6136       6137       6148       6147  
      6016       6017       6028       6027       6137       6138       6149       6148  
      6018       6019       6030       6029       6139       6140       6151       6150  
      6019       6020       6031       6030       6140       6141       6152       6151  
      6020       6021       6032       6031       6141       6142       6153       6152  
      6021       6022       6033       6032       6142       6143       6154       6153  
      6022       6023       6034       6033       6143       6144       6155       6154  
      6023       6024       6035       6034       6144       6145       6156       6155  
      6024       6025       6036       6035       6145       6146       6157       6156  
      6025       6026       6037       6036       6146       6147       6158       6157  
      6026       6027       6038       6037       6147       6148       6159       6158  
      6027       6028       6039       6038       6148       6149       6160       6159  
      6029       6030       6041       6040       6150       6151       6162       6161  
      6030       6031       6042       6041       6151       6152       6163       6162  
      6031       6032       6043       6042       6152       6153       6164       6163  
      6032       6033       6044       6043       6153       6154       6165       6164  
      6033       6034       6045       6044       6154       6155       6166       6165  
      6034       6035       6046       6045       6155       6156       6167       6166  
      6035       6036       6047       6046       6156       6157       6168       6167  
      6036       6037       6048       6047       6157       6158       6169       6168  
      6037       6038       6049       6048       6158       6159       6170       6169  
      6038       6039       6050       6049       6159       6160       6171       6170  
      6051       6052       6063       6062       6172       6173       6184       6183  
      6052       6053       6064       6063       6173       6174       6185       6184  
      6053       6054       6065       6064       6174       6175       6186       6185  
      6054       6055       6066       6065       6175       6176       6187       6186  
      6055       6056       6067       6066       6176       6177       6188       6187  
      6056       6057       6068       6067       6177       6178       6189       6188  
      6057       6058       6069       6068       6178       6179       6190       6189  
      6058       6059       6070       6069       6179       6180       6191       6190  
      6059       6060       6071       6070       6180       6181       6192       6191  
      6060       6061       6072       6071       6181       6182       6193       6192  
      6062       6063       6074       6073       6183       6184       6195       6194  
      6063       6064       6075       6074       6184       6185       6196       6195  
      6064       6065       6076       6075       6185       6186       6197       6196  
      6065       6066       6077       6076       6186       6187       6198       6197  
      6066       6067       6078       6077       6187       6188       6199       6198  
      6067       6068       6079       6078       6188       6189       6200       6199  
      6068       6069       6080       6079       6189       6190       6201       6200  
      6069       6070       6081       6080       6190       6191       6202       6201  
      6070       6071       6082       6081       6191       6192       6203       6202  
      6071       6072       6083       6082       6192       6193       6204       6203  
      6073       6074       6085       6084       6194       6195       6206       6205  
      6074       6075       6086       6085       6195       6196       6207       6206  
      6075       6076       6087       6086       6196       6197       6208       6207  
      6076       6077       6088       6087       6197       6198       6209       6208  
      6077       6078       6089       6088       6198       6199       6210       6209  
      6078       6079       6090       6089       6199       6200       6211       6210  
      6079       6080       6091       6090       6200       6201       6212       6211  
      6080       6081       6092       6091       6201       6202       6213       6212  
      6081       6082       6093       6092       6202       6203       6214       6213  
      6082       6083       6094       6093       6203       6204       6215       6214  
      6084       6085       6096       6095       6205       6206       6217       6216  
      6085       6086       6097       6096       6206       6207       6218       6217  
      6086       6087       6098       6097       6207       6208       6219       6218  
      6087       6088       6099       6098       6208       6209       6220       6219  
      6088       6089       6100       6099       6209       6210       6221       6220  
      6089       6090       6101       6100       6210       6211       6222       6221  
      6090       6091       6102       6101       6211       6212       6223       6222  
      6091       6092       6103       6102       6212       6213       6224       6223  
      6092       6093       6104       6103       6213       6214       6225       6224  
      6093       6094       6105       6104       6214       6215       6226       6225  
      6095       6096       6107       6106       6216       6217       6228       6227  
      6096       6097       6108       6107       6217       6218       6229       6228  
      6097       6098       6109       6108       6218       6219       6230       6229  
      6098       6099       6110       6109       6219       6220       6231       6230  
      6099       6100       6111       6110       6220       6221       6232       6231  
      6100       6101       6112       6111       6221       6222       6233       6232  
      6101       6102       6113       6112       6222       6223       6234       6233  
      6102       6103       6114       6113       6223       6224       6235       6234  
      6103       6104       6115       6114       6224       6225       6236       6235  
      6104       6105       6116       6115       6225       6226       6237       6236  
      6106       6107       6118       6117       6227       6228       6239       6238  
      6107       6108       6119       6118       6228       6229       6240       6239  
      6108       6109       6120       6119       6229       6230       6241       6240  
      6109       6110       6121       6120       6230       6231       6242       6241  
      6110       6111       6122       6121       6231       6232       6243       6242  
      6111       6112       6123       6122       6232       6233       6244       6243  
      6112       6113       6124       6123       6233       6234       6245       6244  
      6113       6114       6125       6124       6234       6235       6246       6245  
      6114       6115       6126       6125       6235       6236       6247       6246  
      6115       6116       6127       6126       6236       6237       6248       6247  
      6117       6118       6129       6128       6238       6239       6250       6249  
      6118       6119       6130       6129       6239       6240       6251       6250  
      6119       6120       6131       6130       6240       6241       6252       6251  
      6120       6121       6132       6131       6241       6242       6253       6252  
      6121       6122       6133       6132       6242       6243       6254       6253  
      6122       6123       6134       6133       6243       6244       6255       6254  
      6123       6124       6135       6134       6244       6245       6256       6255  
      6124       6125       6136       6135       6245       6246       6257       6256  
      6125       6126       6137       6136       6246       6247       6258       6257  
      6126       6127       6138       6137       6247       6248       6259       6258  
      6128       6129       6140       6139       6249       6250       6261       6260  
      6129       6130       6141       6140       6250       6251       6262       6261  
      6130       6131       6142       6141       6251       6252       6263       6262  
      6131       6132       6143       6142       6252       6253       6264       6263  
      6132       6133       6144       6143       6253       6254       6265       6264  
      6133       6134       6145       6144       6254       6255       6266       6265  
      6134       6135       6146       6145       6255       6256       6267       6266  
      6135       6136       6147       6146       6256       6257       6268       6267  
      6136       6137       6148       6147       6257       6258       6269       6268  
      6137       6138       6149       6148       6258       6259       6270       6269  
      6139       6140       6151       6150       6260       6261       6272       6271  
      6140       6141       6152       6151       6261       6262       6273       6272  
      6141       6142       6153       6152       6262       6263       6274       6273  
      6142       6143       6154       6153       6263       6264       6275       6274  
      6143       6144       6155       6154       6264       6265       6276       6275  
      6144       6145       6156       6155       6265       6266       6277       6276  
      6145       6146       6157       6156       6266       6267       6278       6277  
      6146       6147       6158       6157       6267       6268       6279       6278  
      6147       6148       6159       6158       6268       6269       6280       6279  
      6148       6149       6160       6159       6269       6270       6281       6280  
      6150       6151       6162       6161       6271       6272       6283       6282  
      6151       6152       6163       6162       6272       6273       6284       6283  
      6152       6153       6164       6163       6273       6274       6285       6284  
      6153       6154       6165       6164       6274       6275       6286       6285  
      6154       6155       6166       6165       6275       6276       6287       6286  
      6155       6156       6167       6166       6276       6277       6288       6287  
      6156       6157       6168       6167       6277       6278       6289       6288  
      6157       6158       6169       6168       6278       6279       6290       6289  
      6158       6159       6170       6169       6279       6280       6291       6290  
      6159       6160       6171       6170       6280       6281       6292       6291  
      6172       6173       6184       6183       6293       6294       6305       6304  
      6173       6174       6185       6184       6294       6295       6306       6305  
      6174       6175       6186       6185       6295       6296       6307       6306  
      6175       6176       6187       6186       6296       6297       6308       6307  
      6176       6177       6188       6187       6297       6298       6309       6308  
      6177       6178       6189       6188       6298       6299       6310       6309  
      6178       6179       6190       6189       6299       6300       6311       6310  
      6179       6180       6191       6190       6300       6301       6312       6311  
      6180       6181       6192       6191       6301       6302       6313       6312  
      6181       6182       6193       6192       6302       6303       6314       6313  
      6183       6184       6195       6194       6304       6305       6316       6315  
      6184       6185       6196       6195       6305       6306       6317       6316  
      6185       6186       6197       6196       6306       6307       6318       6317  
      6186       6187       6198       6197       6307       6308       6319       6318  
      6187       6188       6199       6198       6308       6309       6320       6319  
      6188       6189       6200       6199       6309       6310       6321       6320  
      6189       6190       6201       6200       6310       6311       6322       6321  
      6190       6191       6202       6201       6311       6312       6323       6322  
      6191       6192       6203       6202       6312       6313       6324       6323  
      6192       6193       6204       6203       6313       6314       6325       6324  
      6194       6195       6206       6205       6315       6316       6327       6326  
      6195       6196       6207       6206       6316       6317       6328       6327  
      6196       6197       6208       6207       6317       6318       6329       6328  
      6197       6198       6209       6208       6318       6319       6330       6329  
      6198       6199       6210       6209       6319       6320       6331       6330  
      6199       6200       6211       6210       6320       6321       6332       6331  
      6200       6201       6212       6211       6321       6322       6333       6332  
      6201       6202       6213       6212       6322       6323       6334       6333  
      6202       6203       6214       6213       6323       6324       6335       6334  
      6203       6204       6215       6214       6324       6325       6336       6335  
      6205       6206       6217       6216       6326       6327       6338       6337  
      6206       6207       6218       6217       6327       6328       6339       6338  
      6207       6208       6219       6218       6328       6329       6340       6339  
      6208       6209       6220       6219       6329       6330       6341       6340  
      6209       6210       6221       6220       6330       6331       6342       6341  
      6210       6211       6222       6221       6331       6332       6343       6342  
      6211       6212       6223       6222       6332       6333       6344       6343  
      6212       6213       6224       6223       6333       6334       6345       6344  
      6213       6214       6225       6224       6334       6335       6346       6345  
      6214       6215       6226       6225       6335       6336       6347       6346  
      6216       6217       6228       6227       6337       6338       6349       6348  
      6217       6218       6229       6228       6338       6339       6350       6349  
      6218       6219       6230       6229       6339       6340       6351       6350  
      6219       6220       6231       6230       6340       6341       6352       6351  
      6220       6221       6232       6231       6341       6342       6353       6352  
      6221       6222       6233       6232       6342       6343       6354       6353  
      6222       6223       6234       6233       6343       6344       6355       6354  
      6223       6224       6235       6234       6344       6345       6356       6355  
      6224       6225       6236       6235       6345       6346       6357       6356  
      6225       6226       6237       6236       6346       6347       6358       6357  
      6227       6228       6239       6238       6348       6349       6360       6359  
      6228       6229       6240       6239       6349       6350       6361       6360  
      6229       6230       6241       6240       6350       6351       6362       6361  
      6230       6231       6242       6241       6351       6352       6363       6362  
      6231       6232       6243       6242       6352       6353       6364       6363  
      6232       6233       6244       6243       6353       6354       6365       6364  
      6233       6234       6245       6244       6354       6355       6366       6365  
      6234       6235       6246       6245       6355       6356       6367       6366  
      6235       6236       6247       6246       6356       6357       6368       6367  
      6236       6237       6248       6247       6357       6358       6369       6368  
      6238       6239       6250       6249       6359       6360       6371       6370  
      6239       6240       6251       6250       6360       6361       6372       6371  
      6240       6241       6252       6251       6361       6362       6373       6372  
      6241       6242       6253       6252       6362       6363       6374       6373  
      6242       6243       6254       6253       6363       6364       6375       6374  
      6243       6244       6255       6254       6364       6365       6376       6375  
      6244       6245       6256       6255       6365       6366       6377       6376  
      6245       6246       6257       6256       6366       6367       6378       6377  
      6246       6247       6258       6257       6367       6368       6379       6378  
      6247       6248       6259       6258       6368       6369       6380       6379  
      6249       6250       6261       6260       6370       6371       6382       6381  
      6250       6251       6262       6261       6371       6372       6383       6382  
      6251       6252       6263       6262       6372       6373       6384       6383  
      6252       6253       6264       6263       6373       6374       6385       6384  
      6253       6254       6265       6264       6374       6375       6386       6385  
      6254       6255       6266       6265       6375       6376       6387       6386  
      6255       6256       6267       6266       6376       6377       6388       6387  
      6256       6257       6268       6267       6377       6378       6389       6388  
      6257       6258       6269       6268       6378       6379       6390       6389  
      6258       6259       6270       6269       6379       6380       6391       6390  
      6260       6261       6272       6271       6381       6382       6393       6392  
      6261       6262       6273       6272       6382       6383       6394       6393  
      6262       6263       6274       6273       6383       6384       6395       6394  
      6263       6264       6275       6274       6384       6385       6396       6395  
      6264       6265       6276       6275       6385       6386       6397       6396  
      6265       6266       6277       6276       6386       6387       6398       6397  
      6266       6267       6278       6277       6387       6388       6399       6398  
      6267       6268       6279       6278       6388       6389       6400       6399  
      6268       6269       6280       6279       6389       6390       6401       6400  
      6269       6270       6281       6280       6390       6391       6402       6401  
      6271       6272       6283       6282       6392       6393       6404       6403  
      6272       6273       6284       6283       6393       6394       6405       6404  
      6273       6274       6285       6284       6394       6395       6406       6405  
      6274       6275       6286       6285       6395       6396       6407       6406  
      6275       6276       6287       6286       6396       6397       6408       6407  
      6276       6277       6288       6287       6397       6398       6409       6408  
      6277       6278       6289       6288       6398       6399       6410       6409  
      6278       6279       6290       6289       6399       6400       6411       6410  
      6279       6280       6291       6290       6400       6401       6412       6411  
      6280       6281       6292       6291       6401       6402       6413       6412  
      6293       6294       6305       6304       6414       6415       6426       6425  
      6294       6295       6306       6305       6415       6416       6427       6426  
      6295       6296       6307       6306       6416       6417       6428       6427  
      6296       6297       6308       6307       6417       6418       6429       6428  
      6297       6298       6309       6308       6418       6419       6430       6429  
      6298       6299       6310       6309       6419       6420       6431       6430  
      6299       6300       6311       6310       6420       6421       6432       6431  
      6300       6301       6312       6311       6421       6422       6433       6432  
      6301       6302       6313       6312       6422       6423       6434       6433  
      6302       6303       6314       6313       6423       6424       6435       6434  
      6304       6305       6316       6315       6425       6426       6437       6436  
      6305       6306       6317       6316       6426       6427       6438       6437  
      6306       6307       6318       6317       6427       6428       6439       6438  
      6307       6308       6319       6318       6428       6429       6440       6439  
      6308       6309       6320       6319       6429       6430       6441       6440  
      6309       6310       6321       6320       6430       6431       6442       6441  
      6310       6311       6322       6321       6431       6432       6443       6442  
      6311       6312       6323       6322       6432       6433       6444       6443  
      6312       6313       6324       6323       6433       6434       6445       6444  
      6313       6314       6325       6324       6434       6435       6446       6445  
      6315       6316       6327       6326       6436       6437       6448       6447  
      6316       6317       6328       6327       6437       6438       6449       6448  
      6317       6318       6329       6328       6438       6439       6450       6449  
      6318       6319       6330       6329       6439       6440       6451       6450  
      6319       6320       6331       6330       6440       6441       6452       6451  
      6320       6321       6332       6331       6441       6442       6453       6452  
      6321       6322       6333       6332       6442       6443       6454       6453  
      6322       6323       6334       6333       6443       6444       6455       6454  
      6323       6324       6335       6334       6444       6445       6456       6455  
      6324       6325       6336       6335       6445       6446       6457       6456  
      6326       6327       6338       6337       6447       6448       6459       6458  
      6327       6328       6339       6338       6448       6449       6460       6459  
      6328       6329       6340       6339       6449       6450       6461       6460  
      6329       6330       6341       6340       6450       6451       6462       6461  
      6330       6331       6342       6341       6451       6452       6463       6462  
      6331       6332       6343       6342       6452       6453       6464       6463  
      6332       6333       6344       6343       6453       6454       6465       6464  
      6333       6334       6345       6344       6454       6455       6466       6465  
      6334       6335       6346       6345       6455       6456       6467       6466  
      6335       6336       6347       6346       6456       6457       6468       6467  
      6337       6338       6349       6348       6458       6459       6470       6469  
      6338       6339       6350       6349       6459       6460       6471       6470  
      6339       6340       6351       6350       6460       6461       6472       6471  
      6340       6341       6352       6351       6461       6462       6473       6472  
      6341       6342       6353       6352       6462       6463       6474       6473  
      6342       6343       6354       6353       6463       6464       6475       6474  
      6343       6344       6355       6354       6464       6465       6476       6475  
      6344       6345       6356       6355       6465       6466       6477       6476  
      6345       6346       6357       6356       6466       6467       6478       6477  
      6346       6347       6358       6357       6467       6468       6479       6478  
      6348       6349       6360       6359       6469       6470       6481       6480  
      6349       6350       6361       6360       6470       6471       6482       6481  
      6350       6351       6362       6361       6471       6472       6483       6482  
      6351       6352       6363       6362       6472       6473       6484       6483  
      6352       6353       6364       6363       6473       6474       6485       6484  
      6353       6354       6365       6364       6474       6475       6486       6485  
      6354       6355       6366       6365       6475       6476       6487       6486  
      6355       6356       6367       6366       6476       6477       6488       6487  
      6356       6357       6368       6367       6477       6478       6489       6488  
      6357       6358       6369       6368       6478       6479       6490       6489  
      6359       6360       6371       6370       6480       6481       6492       6491  
      6360       6361       6372       6371       6481       6482       6493       6492  
      6361       6362       6373       6372       6482       6483       6494       6493  
      6362       6363       6374       6373       6483       6484       6495       6494  
      6363       6364       6375       6374       6484       6485       6496       6495  
      6364       6365       6376       6375       6485       6486       6497       6496  
      6365       6366       6377       6376       6486       6487       6498       6497  
      6366       6367       6378       6377       6487       6488       6499       6498  
      6367       6368       6379       6378       6488       6489       6500       6499  
      6368       6369       6380       6379       6489       6490       6501       6500  
      6370       6371       6382       6381       6491       6492       6503       6502  
      6371       6372       6383       6382       6492       6493       6504       6503  
      6372       6373       6384       6383       6493       6494       6505       6504  
      6373       6374       6385       6384       6494       6495       6506       6505  
      6374       6375       6386       6385       6495       6496       6507       6506  
      6375       6376       6387       6386       6496       6497       6508       6507  
      6376       6377       6388       6387       6497       6498       6509       6508  
      6377       6378       6389       6388       6498       6499       6510       6509  
      6378       6379       6390       6389       6499       6500       6511       6510  
      6379       6380       6391       6390       6500       6501       6512       6511  
      6381       6382       6393       6392       6502       6503       6514       6513  
      6382       6383       6394       6393       6503       6504       6515       6514  
      6383       6384       6395       6394       6504       6505       6516       6515  
      6384       6385       6396       6395       6505       6506       6517       6516  
      6385       6386       6397       6396       6506       6507       6518       6517  
      6386       6387       6398       6397       6507       6508       6519       6518  
      6387       6388       6399       6398       6508       6509       6520       6519  
      6388       6389       6400       6399       6509       6510       6521       6520  
      6389       6390       6401       6400       6510       6511       6522       6521  
      6390       6391       6402       6401       6511       6512       6523       6522  
      6392       6393       6404       6403       6513       6514       6525       6524  
      6393       6394       6405       6404       6514       6515       6526       6525  
      6394       6395       6406       6405       6515       6516       6527       6526  
      6395       6396       6407       6406       6516       6517       6528       6527  
      6396       6397       6408       6407       6517       6518       6529       6528  
      6397       6398       6409       6408       6518       6519       6530       6529  
      6398       6399       6410       6409       6519       6520       6531       6530  
      6399       6400       6411       6410       6520       6521       6532       6531  
      6400       6401       6412       6411       6521       6522       6533       6532  
      6401       6402       6413       6412       6522       6523       6534       6533  
      6414       6415       6426       6425       6535       6536       6547       6546  
      6415       6416       6427       6426       6536       6537       6548       6547  
      6416       6417       6428       6427       6537       6538       6549       6548  
      6417       6418       6429       6428       6538       6539       6550       6549  
      6418       6419       6430       6429       6539       6540       6551       6550  
      6419       6420       6431       6430       6540       6541       6552       6551  
      6420       6421       6432       6431       6541       6542       6553       6552  
      6421       6422       6433       6432       6542       6543       6554       6553  
      6422       6423       6434       6433       6543       6544       6555       6554  
      6423       6424       6435       6434       6544       6545       6556       6555  
      6425       6426       6437       6436       6546       6547       6558       6557  
      6426       6427       6438       6437       6547       6548       6559       6558  
      6427       6428       6439       6438       6548       6549       6560       6559  
      6428       6429       6440       6439       6549       6550       6561       6560  
      6429       6430       6441       6440       6550       6551       6562       6561  
      6430       6431       6442       6441       6551       6552       6563       6562  
      6431       6432       6443       6442       6552       6553       6564       6563  
      6432       6433       6444       6443       6553       6554       6565       6564  
      6433       6434       6445       6444       6554       6555       6566       6565  
      6434       6435       6446       6445       6555       6556       6567       6566  
      6436       6437       6448       6447       6557       6558       6569       6568  
      6437       6438       6449       6448       6558       6559       6570       6569  
      6438       6439       6450       6449       6559       6560       6571       6570  
      6439       6440       6451       6450       6560       6561       6572       6571  
      6440       6441       6452       6451       6561       6562       6573       6572  
      6441       6442       6453       6452       6562       6563       6574       6573  
      6442       6443       6454       6453       6563       6564       6575       6574  
      6443       6444       6455       6454       6564       6565       6576       6575  
      6444       6445       6456       6455       6565       6566       6577       6576  
      6445       6446       6457       6456       6566       6567       6578       6577  
      6447       6448       6459       6458       6568       6569       6580       6579  
      6448       6449       6460       6459       6569       6570       6581       6580  
      6449       6450       6461       6460       6570       6571       6582       6581  
      6450       6451       6462       6461       6571       6572       6583       6582  
      6451       6452       6463       6462       6572       6573       6584       6583  
      6452       6453       6464       6463       6573       6574       6585       6584  
      6453       6454       6465       6464       6574       6575       6586       6585  
      6454       6455       6466       6465       6575       6576       6587       6586  
      6455       6456       6467       6466       6576       6577       6588       6587  
      6456       6457       6468       6467       6577       6578       6589       6588  
      6458       6459       6470       6469       6579       6580       6591       6590  
      6459       6460       6471       6470       6580       6581       6592       6591  
      6460       6461       6472       6471       6581       6582       6593       6592  
      6461       6462       6473       6472       6582       6583       6594       6593  
      6462       6463       6474       6473       6583       6584       6595       6594  
      6463       6464       6475       6474       6584       6585       6596       6595  
      6464       6465       6476       6475       6585       6586       6597       6596  
      6465       6466       6477       6476       6586       6587       6598       6597  
      6466       6467       6478       6477       6587       6588       6599       6598  
      6467       6468       6479       6478       6588       6589       6600       6599  
      6469       6470       6481       6480       6590       6591       6602       6601  
      6470       6471       6482       6481       6591       6592       6603       6602  
      6471       6472       6483       6482       6592       6593       6604       6603  
      6472       6473       6484       6483       6593       6594       6605       6604  
      6473       6474       6485       6484       6594       6595       6606       6605  
      6474       6475       6486       6485       6595       6596       6607       6606  
      6475       6476       6487       6486       6596       6597       6608       6607  
      6476       6477       6488       6487       6597       6598       6609       6608  
      6477       6478       6489       6488       6598       6599       6610       6609  
      6478       6479       6490       6489       6599       6600       6611       6610  
      6480       6481       6492       6491       6601       6602       6613       6612  
      6481       6482       6493       6492       6602       6603       6614       6613  
      6482       6483       6494       6493       6603       6604       6615       6614  
      6483       6484       6495       6494       6604       6605       6616       6615  
      6484       6485       6496       6495       6605       6606       6617       6616  
      6485       6486       6497       6496       6606       6607       6618       6617  
      6486       6487       6498       6497       6607       6608       6619       6618  
      6487       6488       6499       6498       6608       6609       6620       6619  
      6488       6489       6500       6499       6609       6610       6621       6620  
      6489       6490       6501       6500       6610       6611       6622       6621  
      6491       6492       6503       6502       6612       6613       6624       6623  
      6492       6493       6504       6503       6613       6614       6625       6624  
      6493       6494       6505       6504       6614       6615       6626       6625  
      6494       6495       6506       6505       6615       6616       6627       6626  
      6495       6496       6507       6506       6616       6617       6628       6627  
      6496       6497       6508       6507       6617       6618       6629       6628  
      6497       6498       6509       6508       6618       6619       6630       6629  
      6498       6499       6510       6509       6619       6620       6631       6630  
      6499       6500       6511       6510       6620       6621       6632       6631  
      6500       6501       6512       6511       6621       6622       6633       6632  
      6502       6503       6514       6513       6623       6624       6635       6634  
      6503       6504       6515       6514       6624       6625       6636       6635  
      6504       6505       6516       6515       6625       6626       6637       6636  
      6505       6506       6517       6516       6626       6627       6638       6637  
      6506       6507       6518       6517       6627       6628       6639       6638  
      6507       6508       6519       6518       6628       6629       6640       6639  
      6508       6509       6520       6519       6629       6630       6641       6640  
      6509       6510       6521       6520       6630       6631       6642       6641  
      6510       6511       6522       6521       6631       6632       6643       6642  
      6511       6512       6523       6522       6632       6633       6644       6643  
      6513       6514       6525       6524       6634       6635       6646       6645  
      6514       6515       6526       6525       6635       6636       6647       6646  
      6515       6516       6527       6526       6636       6637       6648       6647  
      6516       6517       6528       6527       6637       6638       6649       6648  
      6517       6518       6529       6528       6638       6639       6650       6649  
      6518       6519       6530       6529       6639       6640       6651       6650  
      6519       6520       6531       6530       6640       6641       6652       6651  
      6520       6521       6532       6531       6641       6642       6653       6652  
      6521       6522       6533       6532       6642       6643       6654       6653  
      6522       6523       6534       6533       6643       6644       6655       6654  
      6535       6536       6547       6546       6656       6657       6668       6667  
      6536       6537       6548       6547       6657       6658       6669       6668  
      6537       6538       6549       6548       6658       6659       6670       6669  
      6538       6539       6550       6549       6659       6660       6671       6670  
      6539       6540       6551       6550       6660       6661       6672       6671  
      6540       6541       6552       6551       6661       6662       6673       6672  
      6541       6542       6553       6552       6662       6663       6674       6673  
      6542       6543       6554       6553       6663       6664       6675       6674  
      6543       6544       6555       6554       6664       6665       6676       6675  
      6544       6545       6556       6555       6665       6666       6677       6676  
      6546       6547       6558       6557       6667       6668       6679       6678  
      6547       6548       6559       6558       6668       6669       6680       6679  
      6548       6549       6560       6559       6669       6670       6681       6680  
      6549       6550       6561       6560       6670       6671       6682       6681  
      6550       6551       6562       6561       6671       6672       6683       6682  
      6551       6552       6563       6562       6672       6673       6684       6683  
      6552       6553       6564       6563       6673       6674       6685       6684  
      6553       6554       6565       6564       6674       6675       6686       6685  
      6554       6555       6566       6565       6675       6676       6687       6686  
      6555       6556       6567       6566       6676       6677       6688       6687  
      6557       6558       6569       6568       6678       6679       6690       6689  
      6558       6559       6570       6569       6679       6680       6691       6690  
      6559       6560       6571       6570       6680       6681       6692       6691  
      6560       6561       6572       6571       6681       6682       6693       6692  
      6561       6562       6573       6572       6682       6683       6694       6693  
      6562       6563       6574       6573       6683       6684       6695       6694  
      6563       6564       6575       6574       6684       6685       6696       6695  
      6564       6565       6576       6575       6685       6686       6697       6696  
      6565       6566       6577       6576       6686       6687       6698       6697  
      6566       6567       6578       6577       6687       6688       6699       6698  
      6568       6569       6580       6579       6689       6690       6701       6700  
      6569       6570       6581       6580       6690       6691       6702       6701  
      6570       6571       6582       6581       6691       6692       6703       6702  
      6571       6572       6583       6582       6692       6693       6704       6703  
      6572       6573       6584       6583       6693       6694       6705       6704  
      6573       6574       6585       6584       6694       6695       6706       6705  
      6574       6575       6586       6585       6695       6696       6707       6706  
      6575       6576       6587       6586       6696       6697       6708       6707  
      6576       6577       6588       6587       6697       6698       6709       6708  
      6577       6578       6589       6588       6698       6699       6710       6709  
      6579       6580       6591       6590       6700       6701       6712       6711  
      6580       6581       6592       6591       6701       6702       6713       6712  
      6581       6582       6593       6592       6702       6703       6714       6713  
      6582       6583       6594       6593       6703       6704       6715       6714  
      6583       6584       6595       6594       6704       6705       6716       6715  
      6584       6585       6596       6595       6705       6706       6717       6716  
      6585       6586       6597       6596       6706       6707       6718       6717  
      6586       6587       6598       6597       6707       6708       6719       6718  
      6587       6588       6599       6598       6708       6709       6720       6719  
      6588       6589       6600       6599       6709       6710       6721       6720  
      6590       6591       6602       6601       6711       6712       6723       6722  
      6591       6592       6603       6602       6712       6713       6724       6723  
      6592       6593       6604       6603       6713       6714       6725       6724  
      6593       6594       6605       6604       6714       6715       6726       6725  
      6594       6595       6606       6605       6715       6716       6727       6726  
      6595       6596       6607       6606       6716       6717       6728       6727  
      6596       6597       6608       6607       6717       6718       6729       6728  
      6597       6598       6609       6608       6718       6719       6730       6729  
      6598       6599       6610       6609       6719       6720       6731       6730  
      6599       6600       6611       6610       6720       6721       6732       6731  
      6601       6602       6613       6612       6722       6723       6734       6733  
      6602       6603       6614       6613       6723       6724       6735       6734  
      6603       6604       6615       6614       6724       6725       6736       6735  
      6604       6605       6616       6615       6725       6726       6737       6736  
      6605       6606       6617       6616       6726       6727       6738       6737  
      6606       6607       6618       6617       6727       6728       6739       6738  
      6607       6608       6619       6618       6728       6729       6740       6739  
      6608       6609       6620       6619       6729       6730       6741       6740  
      6609       6610       6621       6620       6730       6731       6742       6741  
      6610       6611       6622       6621       6731       6732       6743       6742  
      6612       6613       6624       6623       6733       6734       6745       6744  
      6613       6614       6625       6624       6734       6735       6746       6745  
      6614       6615       6626       6625       6735       6736       6747       6746  
      6615       6616       6627       6626       6736       6737       6748       6747  
      6616       6617       6628       6627       6737       6738       6749       6748  
      6617       6618       6629       6628       6738       6739       6750       6749  
      6618       6619       6630       6629       6739       6740       6751       6750  
      6619       6620       6631       6630       6740       6741       6752       6751  
      6620       6621       6632       6631       6741       6742       6753       6752  
      6621       6622       6633       6632       6742       6743       6754       6753  
      6623       6624       6635       6634       6744       6745       6756       6755  
      6624       6625       6636       6635       6745       6746       6757       6756  
      6625       6626       6637       6636       6746       6747       6758       6757  
      6626       6627       6638       6637       6747       6748       6759       6758  
      6627       6628       6639       6638       6748       6749       6760       6759  
      6628       6629       6640       6639       6749       6750       6761       6760  
      6629       6630       6641       6640       6750       6751       6762       6761  
      6630       6631       6642       6641       6751       6752       6763       6762  
      6631       6632       6643       6642       6752       6753       6764       6763  
      6632       6633       6644       6643       6753       6754       6765       6764  
      6634       6635       6646       6645       6755       6756       6767       6766  
      6635       6636       6647       6646       6756       6757       6768       6767  
      6636       6637       6648       6647       6757       6758       6769       6768  
      6637       6638       6649       6648       6758       6759       6770       6769  
      6638       6639       6650       6649       6759       6760       6771       6770  
      6639       6640       6651       6650       6760       6761       6772       6771  
      6640       6641       6652       6651       6761       6762       6773       6772  
      6641       6642       6653       6652       6762       6763       6774       6773  
      6642       6643       6654       6653       6763       6764       6775       6774  
      6643       6644       6655       6654       6764       6765       6776       6775  
      6656       6657       6668       6667       6777       6778       6789       6788  
      6657       6658       6669       6668       6778       6779       6790       6789  
      6658       6659       6670       6669       6779       6780       6791       6790  
      6659       6660       6671       6670       6780       6781       6792       6791  
      6660       6661       6672       6671       6781       6782       6793       6792  
      6661       6662       6673       6672       6782       6783       6794       6793  
      6662       6663       6674       6673       6783       6784       6795       6794  
      6663       6664       6675       6674       6784       6785       6796       6795  
      6664       6665       6676       6675       6785       6786       6797       6796  
      6665       6666       6677       6676       6786       6787       6798       6797  
      6667       6668       6679       6678       6788       6789       6800       6799  
      6668       6669       6680       6679       6789       6790       6801       6800  
      6669       6670       6681       6680       6790       6791       6802       6801  
      6670       6671       6682       6681       6791       6792       6803       6802  
      6671       6672       6683       6682       6792       6793       6804       6803  
      6672       6673       6684       6683       6793       6794       6805       6804  
      6673       6674       6685       6684       6794       6795       6806       6805  
      6674       6675       6686       6685       6795       6796       6807       6806  
      6675       6676       6687       6686       6796       6797       6808       6807  
      6676       6677       6688       6687       6797       6798       6809       6808  
      6678       6679       6690       6689       6799       6800       6811       6810  
      6679       6680       6691       6690       6800       6801       6812       6811  
      6680       6681       6692       6691       6801       6802       6813       6812  
      6681       6682       6693       6692       6802       6803       6814       6813  
      6682       6683       6694       6693       6803       6804       6815       6814  
      6683       6684       6695       6694       6804       6805       6816       6815  
      6684       6685       6696       6695       6805       6806       6817       6816  
      6685       6686       6697       6696       6806       6807       6818       6817  
      6686       6687       6698       6697       6807       6808       6819       6818  
      6687       6688       6699       6698       6808       6809       6820       6819  
      6689       6690       6701       6700       6810       6811       6822       6821  
      6690       6691       6702       6701       6811       6812       6823       6822  
      6691       6692       6703       6702       6812       6813       6824       6823  
      6692       6693       6704       6703       6813       6814       6825       6824  
      6693       6694       6705       6704       6814       6815       6826       6825  
      6694       6695       6706       6705       6815       6816       6827       6826  
      6695       6696       6707       6706       6816       6817       6828       6827  
      6696       6697       6708       6707       6817       6818       6829       6828  
      6697       6698       6709       6708       6818       6819       6830       6829  
      6698       6699       6710       6709       6819       6820       6831       6830  
      6700       6701       6712       6711       6821       6822       6833       6832  
      6701       6702       6713       6712       6822       6823       6834       6833  
      6702       6703       6714       6713       6823       6824       6835       6834  
      6703       6704       6715       6714       6824       6825       6836       6835  
      6704       6705       6716       6715       6825       6826       6837       6836  
      6705       6706       6717       6716       6826       6827       6838       6837  
      6706       6707       6718       6717       6827       6828       6839       6838  
      6707       6708       6719       6718       6828       6829       6840       6839  
      6708       6709       6720       6719       6829       6830       6841       6840  
      6709       6710       6721       6720       6830       6831       6842       6841  
      6711       6712       6723       6722       6832       6833       6844       6843  
      6712       6713       6724       6723       6833       6834       6845       6844  
      6713       6714       6725       6724       6834       6835       6846       6845  
      6714       6715       6726       6725       6835       6836       6847       6846  
      6715       6716       6727       6726       6836       6837       6848       6847  
      6716       6717       6728       6727       6837       6838       6849       6848  
      6717       6718       6729       6728       6838       6839       6850       6849  
      6718       6719       6730       6729       6839       6840       6851       6850  
      6719       6720       6731       6730       6840       6841       6852       6851  
      6720       6721       6732       6731       6841       6842       6853       6852  
      6722       6723       6734       6733       6843       6844       6855       6854  
      6723       6724       6735       6734       6844       6845       6856       6855  
      6724       6725       6736       6735       6845       6846       6857       6856  
      6725       6726       6737       6736       6846       6847       6858       6857  
      6726       6727       6738       6737       6847       6848       6859       6858  
      6727       6728       6739       6738       6848       6849       6860       6859  
      6728       6729       6740       6739       6849       6850       6861       6860  
      6729       6730       6741       6740       6850       6851       6862       6861  
      6730       6731       6742       6741       6851       6852       6863       6862  
      6731       6732       6743       6742       6852       6853       6864       6863  
      6733       6734       6745       6744       6854       6855       6866       6865  
      6734       6735       6746       6745       6855       6856       6867       6866  
      6735       6736       6747       6746       6856       6857       6868       6867  
      6736       6737       6748       6747       6857       6858       6869       6868  
      6737       6738       6749       6748       6858       6859       6870       6869  
      6738       6739       6750       6749       6859       6860       6871       6870  
      6739       6740       6751       6750       6860       6861       6872       6871  
      6740       6741       6752       6751       6861       6862       6873       6872  
      6741       6742       6753       6752       6862       6863       6874       6873  
      6742       6743       6754       6753       6863       6864       6875       6874  
      6744       6745       6756       6755       6865       6866       6877       6876  
      6745       6746       6757       6756       6866       6867       6878       6877  
      6746       6747       6758       6757       6867       6868       6879       6878  
      6747       6748       6759       6758       6868       6869       6880       6879  
      6748       6749       6760       6759       6869       6870       6881       6880  
      6749       6750       6761       6760       6870       6871       6882       6881  
      6750       6751       6762       6761       6871       6872       6883       6882  
      6751       6752       6763       6762       6872       6873       6884       6883  
      6752       6753       6764       6763       6873       6874       6885       6884  
      6753       6754       6765       6764       6874       6875       6886       6885  
      6755       6756       6767       6766       6876       6877       6888       6887  
      6756       6757       6768       6767       6877       6878       6889       6888  
      6757       6758       6769       6768       6878       6879       6890       6889  
      6758       6759       6770       6769       6879       6880       6891       6890  
      6759       6760       6771       6770       6880       6881       6892       6891  
      6760       6761       6772       6771       6881       6882       6893       6892  
      6761       6762       6773       6772       6882       6883       6894       6893  
      6762       6763       6774       6773       6883       6884       6895       6894  
      6763       6764       6775       6774       6884       6885       6896       6895  
      6764       6765       6776       6775       6885       6886       6897       6896  
      6777       6778       6789       6788       6898       6899       6910       6909  
      6778       6779       6790       6789       6899       6900       6911       6910  
      6779       6780       6791       6790       6900       6901       6912       6911  
      6780       6781       6792       6791       6901       6902       6913       6912  
      6781       6782       6793       6792       6902       6903       6914       6913  
      6782       6783       6794       6793       6903       6904       6915       6914  
      6783       6784       6795       6794       6904       6905       6916       6915  
      6784       6785       6796       6795       6905       6906       6917       6916  
      6785       6786       6797       6796       6906       6907       6918       6917  
      6786       6787       6798       6797       6907       6908       6919       6918  
      6788       6789       6800       6799       6909       6910       6921       6920  
      6789       6790       6801       6800       6910       6911       6922       6921  
      6790       6791       6802       6801       6911       6912       6923       6922  
      6791       6792       6803       6802       6912       6913       6924       6923  
      6792       6793       6804       6803       6913       6914       6925       6924  
      6793       6794       6805       6804       6914       6915       6926       6925  
      6794       6795       6806       6805       6915       6916       6927       6926  
      6795       6796       6807       6806       6916       6917       6928       6927  
      6796       6797       6808       6807       6917       6918       6929       6928  
      6797       6798       6809       6808       6918       6919       6930       6929  
      6799       6800       6811       6810       6920       6921       6932       6931  
      6800       6801       6812       6811       6921       6922       6933       6932  
      6801       6802       6813       6812       6922       6923       6934       6933  
      6802       6803       6814       6813       6923       6924       6935       6934  
      6803       6804       6815       6814       6924       6925       6936       6935  
      6804       6805       6816       6815       6925       6926       6937       6936  
      6805       6806       6817       6816       6926       6927       6938       6937  
      6806       6807       6818       6817       6927       6928       6939       6938  
      6807       6808       6819       6818       6928       6929       6940       6939  
      6808       6809       6820       6819       6929       6930       6941       6940  
      6810       6811       6822       6821       6931       6932       6943       6942  
      6811       6812       6823       6822       6932       6933       6944       6943  
      6812       6813       6824       6823       6933       6934       6945       6944  
      6813       6814       6825       6824       6934       6935       6946       6945  
      6814       6815       6826       6825       6935       6936       6947       6946  
      6815       6816       6827       6826       6936       6937       6948       6947  
      6816       6817       6828       6827       6937       6938       6949       6948  
      6817       6818       6829       6828       6938       6939       6950       6949  
      6818       6819       6830       6829       6939       6940       6951       6950  
      6819       6820       6831       6830       6940       6941       6952       6951  
      6821       6822       6833       6832       6942       6943       6954       6953  
      6822       6823       6834       6833       6943       6944       6955       6954  
      6823       6824       6835       6834       6944       6945       6956       6955  
      6824       6825       6836       6835       6945       6946       6957       6956  
      6825       6826       6837       6836       6946       6947       6958       6957  
      6826       6827       6838       6837       6947       6948       6959       6958  
      6827       6828       6839       6838       6948       6949       6960       6959  
      6828       6829       6840       6839       6949       6950       6961       6960  
      6829       6830       6841       6840       6950       6951       6962       6961  
      6830       6831       6842       6841       6951       6952       6963       6962  
      6832       6833       6844       6843       6953       6954       6965       6964  
      6833       6834       6845       6844       6954       6955       6966       6965  
      6834       6835       6846       6845       6955       6956       6967       6966  
      6835       6836       6847       6846       6956       6957       6968       6967  
      6836       6837       6848       6847       6957       6958       6969       6968  
      6837       6838       6849       6848       6958       6959       6970       6969  
      6838       6839       6850       6849       6959       6960       6971       6970  
      6839       6840       6851       6850       6960       6961       6972       6971  
      6840       6841       6852       6851       6961       6962       6973       6972  
      6841       6842       6853       6852       6962       6963       6974       6973  
      6843       6844       6855       6854       6964       6965       6976       6975  
      6844       6845       6856       6855       6965       6966       6977       6976  
      6845       6846       6857       6856       6966       6967       6978       6977  
      6846       6847       6858       6857       6967       6968       6979       6978  
      6847       6848       6859       6858       6968       6969       6980       6979  
      6848       6849       6860       6859       6969       6970       6981       6980  
      6849       6850       6861       6860       6970       6971       6982       6981  
      6850       6851       6862       6861       6971       6972       6983       6982  
      6851       6852       6863       6862       6972       6973       6984       6983  
      6852       6853       6864       6863       6973       6974       6985       6984  
      6854       6855       6866       6865       6975       6976       6987       6986  
      6855       6856       6867       6866       6976       6977       6988       6987  
      6856       6857       6868       6867       6977       6978       6989       6988  
      6857       6858       6869       6868       6978       6979       6990       6989  
      6858       6859       6870       6869       6979       6980       6991       6990  
      6859       6860       6871       6870       6980       6981       6992       6991  
      6860       6861       6872       6871       6981       6982       6993       6992  
      6861       6862       6873       6872       6982       6983       6994       6993  
      6862       6863       6874       6873       6983       6984       6995       6994  
      6863       6864       6875       6874       6984       6985       6996       6995  
      6865       6866       6877       6876       6986       6987       6998       6997  
      6866       6867       6878       6877       6987       6988       6999       6998  
      6867       6868       6879       6878       6988       6989       7000       6999  
      6868       6869       6880       6879       6989       6990       7001       7000  
      6869       6870       6881       6880       6990       6991       7002       7001  
      6870       6871       6882       6881       6991       6992       7003       7002  
      6871       6872       6883       6882       6992       6993       7004       7003  
      6872       6873       6884       6883       6993       6994       7005       7004  
      6873       6874       6885       6884       6994       6995       7006       7005  
      6874       6875       6886       6885       6995       6996       7007       7006  
      6876       6877       6888       6887       6997       6998       7009       7008  
      6877       6878       6889       6888       6998       6999       7010       7009  
      6878       6879       6890       6889       6999       7000       7011       7010  
      6879       6880       6891       6890       7000       7001       7012       7011  
      6880       6881       6892       6891       7001       7002       7013       7012  
      6881       6882       6893       6892       7002       7003       7014       7013  
      6882       6883       6894       6893       7003       7004       7015       7014  
      6883       6884       6895       6894       7004       7005       7016       7015  
      6884       6885       6896       6895       7005       7006       7017       7016  
      6885       6886       6897       6896       7006       7007       7018       7017  
      6898       6899       6910       6909       7019       7020       7031       7030  
      6899       6900       6911       6910       7020       7021       7032       7031  
      6900       6901       6912       6911       7021       7022       7033       7032  
      6901       6902       6913       6912       7022       7023       7034       7033  
      6902       6903       6914       6913       7023       7024       7035       7034  
      6903       6904       6915       6914       7024       7025       7036       7035  
      6904       6905       6916       6915       7025       7026       7037       7036  
      6905       6906       6917       6916       7026       7027       7038       7037  
      6906       6907       6918       6917       7027       7028       7039       7038  
      6907       6908       6919       6918       7028       7029       7040       7039  
      6909       6910       6921       6920       7030       7031       7042       7041  
      6910       6911       6922       6921       7031       7032       7043       7042  
      6911       6912       6923       6922       7032       7033       7044       7043  
      6912       6913       6924       6923       7033       7034       7045       7044  
      6913       6914       6925       6924       7034       7035       7046       7045  
      6914       6915       6926       6925       7035       7036       7047       7046  
      6915       6916       6927       6926       7036       7037       7048       7047  
      6916       6917       6928       6927       7037       7038       7049       7048  
      6917       6918       6929       6928       7038       7039       7050       7049  
      6918       6919       6930       6929       7039       7040       7051       7050  
      6920       6921       6932       6931       7041       7042       7053       7052  
      6921       6922       6933       6932       7042       7043       7054       7053  
      6922       6923       6934       6933       7043       7044       7055       7054  
      6923       6924       6935       6934       7044       7045       7056       7055  
      6924       6925       6936       6935       7045       7046       7057       7056  
      6925       6926       6937       6936       7046       7047       7058       7057  
      6926       6927       6938       6937       7047       7048       7059       7058  
      6927       6928       6939       6938       7048       7049       7060       7059  
      6928       6929       6940       6939       7049       7050       7061       7060  
      6929       6930       6941       6940       7050       7051       7062       7061  
      6931       6932       6943       6942       7052       7053       7064       7063  
      6932       6933       6944       6943       7053       7054       7065       7064  
      6933       6934       6945       6944       7054       7055       7066       7065  
      6934       6935       6946       6945       7055       7056       7067       7066  
      6935       6936       6947       6946       7056       7057       7068       7067  
      6936       6937       6948       6947       7057       7058       7069       7068  
      6937       6938       6949       6948       7058       7059       7070       7069  
      6938       6939       6950       6949       7059       7060       7071       7070  
      6939       6940       6951       6950       7060       7061       7072       7071  
      6940       6941       6952       6951       7061       7062       7073       7072  
      6942       6943       6954       6953       7063       7064       7075       7074  
      6943       6944       6955       6954       7064       7065       7076       7075  
      6944       6945       6956       6955       7065       7066       7077       7076  
      6945       6946       6957       6956       7066       7067       7078       7077  
      6946       6947       6958       6957       7067       7068       7079       7078  
      6947       6948       6959       6958       7068       7069       7080       7079  
      6948       6949       6960       6959       7069       7070       7081       7080  
      6949       6950       6961       6960       7070       7071       7082       7081  
      6950       6951       6962       6961       7071       7072       7083       7082  
      6951       6952       6963       6962       7072       7073       7084       7083  
      6953       6954       6965       6964       7074       7075       7086       7085  
      6954       6955       6966       6965       7075       7076       7087       7086  
      6955       6956       6967       6966       7076       7077       7088       7087  
      6956       6957       6968       6967       7077       7078       7089       7088  
      6957       6958       6969       6968       7078       7079       7090       7089  
      6958       6959       6970       6969       7079       7080       7091       7090  
      6959       6960       6971       6970       7080       7081       7092       7091  
      6960       6961       6972       6971       7081       7082       7093       7092  
      6961       6962       6973       6972       7082       7083       7094       7093  
      6962       6963       6974       6973       7083       7084       7095       7094  
      6964       6965       6976       6975       7085       7086       7097       7096  
      6965       6966       6977       6976       7086       7087       7098       7097  
      6966       6967       6978       6977       7087       7088       7099       7098  
      6967       6968       6979       6978       7088       7089       7100       7099  
      6968       6969       6980       6979       7089       7090       7101       7100  
      6969       6970       6981       6980       7090       7091       7102       7101  
      6970       6971       6982       6981       7091       7092       7103       7102  
      6971       6972       6983       6982       7092       7093       7104       7103  
      6972       6973       6984       6983       7093       7094       7105       7104  
      6973       6974       6985       6984       7094       7095       7106       7105  
      6975       6976       6987       6986       7096       7097       7108       7107  
      6976       6977       6988       6987       7097       7098       7109       7108  
      6977       6978       6989       6988       7098       7099       7110       7109  
      6978       6979       6990       6989       7099       7100       7111       7110  
      6979       6980       6991       6990       7100       7101       7112       7111  
      6980       6981       6992       6991       7101       7102       7113       7112  
      6981       6982       6993       6992       7102       7103       7114       7113  
      6982       6983       6994       6993       7103       7104       7115       7114  
      6983       6984       6995       6994       7104       7105       7116       7115  
      6984       6985       6996       6995       7105       7106       7117       7116  
      6986       6987       6998       6997       7107       7108       7119       7118  
      6987       6988       6999       6998       7108       7109       7120       7119  
      6988       6989       7000       6999       7109       7110       7121       7120  
      6989       6990       7001       7000       7110       7111       7122       7121  
      6990       6991       7002       7001       7111       7112       7123       7122  
      6991       6992       7003       7002       7112       7113       7124       7123  
      6992       6993       7004       7003       7113       7114       7125       7124  
      6993       6994       7005       7004       7114       7115       7126       7125  
      6994       6995       7006       7005       7115       7116       7127       7126  
      6995       6996       7007       7006       7116       7117       7128       7127  
      6997       6998       7009       7008       7118       7119       7130       7129  
      6998       6999       7010       7009       7119       7120       7131       7130  
      6999       7000       7011       7010       7120       7121       7132       7131  
      7000       7001       7012       7011       7121       7122       7133       7132  
      7001       7002       7013       7012       7122       7123       7134       7133  
      7002       7003       7014       7013       7123       7124       7135       7134  
      7003       7004       7015       7014       7124       7125       7136       7135  
      7004       7005       7016       7015       7125       7126       7137       7136  
      7005       7006       7017       7016       7126       7127       7138       7137  
      7006       7007       7018       7017       7127       7128       7139       7138  
      7019       7020       7031       7030       7140       7141       7152       7151  
      7020       7021       7032       7031       7141       7142       7153       7152  
      7021       7022       7033       7032       7142       7143       7154       7153  
      7022       7023       7034       7033       7143       7144       7155       7154  
      7023       7024       7035       7034       7144       7145       7156       7155  
      7024       7025       7036       7035       7145       7146       7157       7156  
      7025       7026       7037       7036       7146       7147       7158       7157  
      7026       7027       7038       7037       7147       7148       7159       7158  
      7027       7028       7039       7038       7148       7149       7160       7159  
      7028       7029       7040       7039       7149       7150       7161       7160  
      7030       7031       7042       7041       7151       7152       7163       7162  
      7031       7032       7043       7042       7152       7153       7164       7163  
      7032       7033       7044       7043       7153       7154       7165       7164  
      7033       7034       7045       7044       7154       7155       7166       7165  
      7034       7035       7046       7045       7155       7156       7167       7166  
      7035       7036       7047       7046       7156       7157       7168       7167  
      7036       7037       7048       7047       7157       7158       7169       7168  
      7037       7038       7049       7048       7158       7159       7170       7169  
      7038       7039       7050       7049       7159       7160       7171       7170  
      7039       7040       7051       7050       7160       7161       7172       7171  
      7041       7042       7053       7052       7162       7163       7174       7173  
      7042       7043       7054       7053       7163       7164       7175       7174  
      7043       7044       7055       7054       7164       7165       7176       7175  
      7044       7045       7056       7055       7165       7166       7177       7176  
      7045       7046       7057       7056       7166       7167       7178       7177  
      7046       7047       7058       7057       7167       7168       7179       7178  
      7047       7048       7059       7058       7168       7169       7180       7179  
      7048       7049       7060       7059       7169       7170       7181       7180  
      7049       7050       7061       7060       7170       7171       7182       7181  
      7050       7051       7062       7061       7171       7172       7183       7182  
      7052       7053       7064       7063       7173       7174       7185       7184  
      7053       7054       7065       7064       7174       7175       7186       7185  
      7054       7055       7066       7065       7175       7176       7187       7186  
      7055       7056       7067       7066       7176       7177       7188       7187  
      7056       7057       7068       7067       7177       7178       7189       7188  
      7057       7058       7069       7068       7178       7179       7190       7189  
      7058       7059       7070       7069       7179       7180       7191       7190  
      7059       7060       7071       7070       7180       7181       7192       7191  
      7060       7061       7072       7071       7181       7182       7193       7192  
      7061       7062       7073       7072       7182       7183       7194       7193  
      7063       7064       7075       7074       7184       7185       7196       7195  
      7064       7065       7076       7075       7185       7186       7197       7196  
      7065       7066       7077       7076       7186       7187       7198       7197  
      7066       7067       7078       7077       7187       7188       7199       7198  
      7067       7068       7079       7078       7188       7189       7200       7199  
      7068       7069       7080       7079       7189       7190       7201       7200  
      7069       7070       7081       7080       7190       7191       7202       7201  
      7070       7071       7082       7081       7191       7192       7203       7202  
      7071       7072       7083       7082       7192       7193       7204       7203  
      7072       7073       7084       7083       7193       7194       7205       7204  
      7074       7075       7086       7085       7195       7196       7207       7206  
      7075       7076       7087       7086       7196       7197       7208       7207  
      7076       7077       7088       7087       7197       7198       7209       7208  
      7077       7078       7089       7088       7198       7199       7210       7209  
      7078       7079       7090       7089       7199       7200       7211       7210  
      7079       7080       7091       7090       7200       7201       7212       7211  
      7080       7081       7092       7091       7201       7202       7213       7212  
      7081       7082       7093       7092       7202       7203       7214       7213  
      7082       7083       7094       7093       7203       7204       7215       7214  
      7083       7084       7095       7094       7204       7205       7216       7215  
      7085       7086       7097       7096       7206       7207       7218       7217  
      7086       7087       7098       7097       7207       7208       7219       7218  
      7087       7088       7099       7098       7208       7209       7220       7219  
      7088       7089       7100       7099       7209       7210       7221       7220  
      7089       7090       7101       7100       7210       7211       7222       7221  
      7090       7091       7102       7101       7211       7212       7223       7222  
      7091       7092       7103       7102       7212       7213       7224       7223  
      7092       7093       7104       7103       7213       7214       7225       7224  
      7093       7094       7105       7104       7214       7215       7226       7225  
      7094       7095       7106       7105       7215       7216       7227       7226  
      7096       7097       7108       7107       7217       7218       7229       7228  
      7097       7098       7109       7108       7218       7219       7230       7229  
      7098       7099       7110       7109       7219       7220       7231       7230  
      7099       7100       7111       7110       7220       7221       7232       7231  
      7100       7101       7112       7111       7221       7222       7233       7232  
      7101       7102       7113       7112       7222       7223       7234       7233  
      7102       7103       7114       7113       7223       7224       7235       7234  
      7103       7104       7115       7114       7224       7225       7236       7235  
      7104       7105       7116       7115       7225       7226       7237       7236  
      7105       7106       7117       7116       7226       7227       7238       7237  
      7107       7108       7119       7118       7228       7229       7240       7239  
      7108       7109       7120       7119       7229       7230       7241       7240  
      7109       7110       7121       7120       7230       7231       7242       7241  
      7110       7111       7122       7121       7231       7232       7243       7242  
      7111       7112       7123       7122       7232       7233       7244       7243  
      7112       7113       7124       7123       7233       7234       7245       7244  
      7113       7114       7125       7124       7234       7235       7246       7245  
      7114       7115       7126       7125       7235       7236       7247       7246  
      7115       7116       7127       7126       7236       7237       7248       7247  
      7116       7117       7128       7127       7237       7238       7249       7248  
      7118       7119       7130       7129       7239       7240       7251       7250  
      7119       7120       7131       7130       7240       7241       7252       7251  
      7120       7121       7132       7131       7241       7242       7253       7252  
      7121       7122       7133       7132       7242       7243       7254       7253  
      7122       7123       7134       7133       7243       7244       7255       7254  
      7123       7124       7135       7134       7244       7245       7256       7255  
      7124       7125       7136       7135       7245       7246       7257       7256  
      7125       7126       7137       7136       7246       7247       7258       7257  
      7126       7127       7138       7137       7247       7248       7259       7258  
      7127       7128       7139       7138       7248       7249       7260       7259  
      7140       7141       7152       7151       7261       7262       7273       7272  
      7141       7142       7153       7152       7262       7263       7274       7273  
      7142       7143       7154       7153       7263       7264       7275       7274  
      7143       7144       7155       7154       7264       7265       7276       7275  
      7144       7145       7156       7155       7265       7266       7277       7276  
      7145       7146       7157       7156       7266       7267       7278       7277  
      7146       7147       7158       7157       7267       7268       7279       7278  
      7147       7148       7159       7158       7268       7269       7280       7279  
      7148       7149       7160       7159       7269       7270       7281       7280  
      7149       7150       7161       7160       7270       7271       7282       7281  
      7151       7152       7163       7162       7272       7273       7284       7283  
      7152       7153       7164       7163       7273       7274       7285       7284  
      7153       7154       7165       7164       7274       7275       7286       7285  
      7154       7155       7166       7165       7275       7276       7287       7286  
      7155       7156       7167       7166       7276       7277       7288       7287  
      7156       7157       7168       7167       7277       7278       7289       7288  
      7157       7158       7169       7168       7278       7279       7290       7289  
      7158       7159       7170       7169       7279       7280       7291       7290  
      7159       7160       7171       7170       7280       7281       7292       7291  
      7160       7161       7172       7171       7281       7282       7293       7292  
      7162       7163       7174       7173       7283       7284       7295       7294  
      7163       7164       7175       7174       7284       7285       7296       7295  
      7164       7165       7176       7175       7285       7286       7297       7296  
      7165       7166       7177       7176       7286       7287       7298       7297  
      7166       7167       7178       7177       7287       7288       7299       7298  
      7167       7168       7179       7178       7288       7289       7300       7299  
      7168       7169       7180       7179       7289       7290       7301       7300  
      7169       7170       7181       7180       7290       7291       7302       7301  
      7170       7171       7182       7181       7291       7292       7303       7302  
      7171       7172       7183       7182       7292       7293       7304       7303  
      7173       7174       7185       7184       7294       7295       7306       7305  
      7174       7175       7186       7185       7295       7296       7307       7306  
      7175       7176       7187       7186       7296       7297       7308       7307  
      7176       7177       7188       7187       7297       7298       7309       7308  
      7177       7178       7189       7188       7298       7299       7310       7309  
      7178       7179       7190       7189       7299       7300       7311       7310  
      7179       7180       7191       7190       7300       7301       7312       7311  
      7180       7181       7192       7191       7301       7302       7313       7312  
      7181       7182       7193       7192       7302       7303       7314       7313  
      7182       7183       7194       7193       7303       7304       7315       7314  
      7184       7185       7196       7195       7305       7306       7317       7316  
      7185       7186       7197       7196       7306       7307       7318       7317  
      7186       7187       7198       7197       7307       7308       7319       7318  
      7187       7188       7199       7198       7308       7309       7320       7319  
      7188       7189       7200       7199       7309       7310       7321       7320  
      7189       7190       7201       7200       7310       7311       7322       7321  
      7190       7191       7202       7201       7311       7312       7323       7322  
      7191       7192       7203       7202       7312       7313       7324       7323  
      7192       7193       7204       7203       7313       7314       7325       7324  
      7193       7194       7205       7204       7314       7315       7326       7325  
      7195       7196       7207       7206       7316       7317       7328       7327  
      7196       7197       7208       7207       7317       7318       7329       7328  
      7197       7198       7209       7208       7318       7319       7330       7329  
      7198       7199       7210       7209       7319       7320       7331       7330  
      7199       7200       7211       7210       7320       7321       7332       7331  
      7200       7201       7212       7211       7321       7322       7333       7332  
      7201       7202       7213       7212       7322       7323       7334       7333  
      7202       7203       7214       7213       7323       7324       7335       7334  
      7203       7204       7215       7214       7324       7325       7336       7335  
      7204       7205       7216       7215       7325       7326       7337       7336  
      7206       7207       7218       7217       7327       7328       7339       7338  
      7207       7208       7219       7218       7328       7329       7340       7339  
      7208       7209       7220       7219       7329       7330       7341       7340  
      7209       7210       7221       7220       7330       7331       7342       7341  
      7210       7211       7222       7221       7331       7332       7343       7342  
      7211       7212       7223       7222       7332       7333       7344       7343  
      7212       7213       7224       7223       7333       7334       7345       7344  
      7213       7214       7225       7224       7334       7335       7346       7345  
      7214       7215       7226       7225       7335       7336       7347       7346  
      7215       7216       7227       7226       7336       7337       7348       7347  
      7217       7218       7229       7228       7338       7339       7350       7349  
      7218       7219       7230       7229       7339       7340       7351       7350  
      7219       7220       7231       7230       7340       7341       7352       7351  
      7220       7221       7232       7231       7341       7342       7353       7352  
      7221       7222       7233       7232       7342       7343       7354       7353  
      7222       7223       7234       7233       7343       7344       7355       7354  
      7223       7224       7235       7234       7344       7345       7356       7355  
      7224       7225       7236       7235       7345       7346       7357       7356  
      7225       7226       7237       7236       7346       7347       7358       7357  
      7226       7227       7238       7237       7347       7348       7359       7358  
      7228       7229       7240       7239       7349       7350       7361       7360  
      7229       7230       7241       7240       7350       7351       7362       7361  
      7230       7231       7242       7241       7351       7352       7363       7362  
      7231       7232       7243       7242       7352       7353       7364       7363  
      7232       7233       7244       7243       7353       7354       7365       7364  
      7233       7234       7245       7244       7354       7355       7366       7365  
      7234       7235       7246       7245       7355       7356       7367       7366  
      7235       7236       7247       7246       7356       7357       7368       7367  
      7236       7237       7248       7247       7357       7358       7369       7368  
      7237       7238       7249       7248       7358       7359       7370       7369  
      7239       7240       7251       7250       7360       7361       7372       7371  
      7240       7241       7252       7251       7361       7362       7373       7372  
      7241       7242       7253       7252       7362       7363       7374       7373  
      7242       7243       7254       7253       7363       7364       7375       7374  
      7243       7244       7255       7254       7364       7365       7376       7375  
      7244       7245       7256       7255       7365       7366       7377       7376  
      7245       7246       7257       7256       7366       7367       7378       7377  
      7246       7247       7258       7257       7367       7368       7379       7378  
      7247       7248       7259       7258       7368       7369       7380       7379  
      7248       7249       7260       7259       7369       7370       7381       7380  
      7261       7262       7273       7272       7382       7383       7394       7393  
      7262       7263       7274       7273       7383       7384       7395       7394  
      7263       7264       7275       7274       7384       7385       7396       7395  
      7264       7265       7276       7275       7385       7386       7397       7396  
      7265       7266       7277       7276       7386       7387       7398       7397  
      7266       7267       7278       7277       7387       7388       7399       7398  
      7267       7268       7279       7278       7388       7389       7400       7399  
      7268       7269       7280       7279       7389       7390       7401       7400  
      7269       7270       7281       7280       7390       7391       7402       7401  
      7270       7271       7282       7281       7391       7392       7403       7402  
      7272       7273       7284       7283       7393       7394       7405       7404  
      7273       7274       7285       7284       7394       7395       7406       7405  
      7274       7275       7286       7285       7395       7396       7407       7406  
      7275       7276       7287       7286       7396       7397       7408       7407  
      7276       7277       7288       7287       7397       7398       7409       7408  
      7277       7278       7289       7288       7398       7399       7410       7409  
      7278       7279       7290       7289       7399       7400       7411       7410  
      7279       7280       7291       7290       7400       7401       7412       7411  
      7280       7281       7292       7291       7401       7402       7413       7412  
      7281       7282       7293       7292       7402       7403       7414       7413  
      7283       7284       7295       7294       7404       7405       7416       7415  
      7284       7285       7296       7295       7405       7406       7417       7416  
      7285       7286       7297       7296       7406       7407       7418       7417  
      7286       7287       7298       7297       7407       7408       7419       7418  
      7287       7288       7299       7298       7408       7409       7420       7419  
      7288       7289       7300       7299       7409       7410       7421       7420  
      7289       7290       7301       7300       7410       7411       7422       7421  
      7290       7291       7302       7301       7411       7412       7423       7422  
      7291       7292       7303       7302       7412       7413       7424       7423  
      7292       7293       7304       7303       7413       7414       7425       7424  
      7294       7295       7306       7305       7415       7416       7427       7426  
      7295       7296       7307       7306       7416       7417       7428       7427  
      7296       7297       7308       7307       7417       7418       7429       7428  
      7297       7298       7309       7308       7418       7419       7430       7429  
      7298       7299       7310       7309       7419       7420       7431       7430  
      7299       7300       7311       7310       7420       7421       7432       7431  
      7300       7301       7312       7311       7421       7422       7433       7432  
      7301       7302       7313       7312       7422       7423       7434       7433  
      7302       7303       7314       7313       7423       7424       7435       7434  
      7303       7304       7315       7314       7424       7425       7436       7435  
      7305       7306       7317       7316       7426       7427       7438       7437  
      7306       7307       7318       7317       7427       7428       7439       7438  
      7307       7308       7319       7318       7428       7429       7440       7439  
      7308       7309       7320       7319       7429       7430       7441       7440  
      7309       7310       7321       7320       7430       7431       7442       7441  
      7310       7311       7322       7321       7431       7432       7443       7442  
      7311       7312       7323       7322       7432       7433       7444       7443  
      7312       7313       7324       7323       7433       7434       7445       7444  
      7313       7314       7325       7324       7434       7435       7446       7445  
      7314       7315       7326       7325       7435       7436       7447       7446  
      7316       7317       7328       7327       7437       7438       7449       7448  
      7317       7318       7329       7328       7438       7439       7450       7449  
      7318       7319       7330       7329       7439       7440       7451       7450  
      7319       7320       7331       7330       7440       7441       7452       7451  
      7320       7321       7332       7331       7441       7442       7453       7452  
      7321       7322       7333       7332       7442       7443       7454       7453  
      7322       7323       7334       7333       7443       7444       7455       7454  
      7323       7324       7335       7334       7444       7445       7456       7455  
      7324       7325       7336       7335       7445       7446       7457       7456  
      7325       7326       7337       7336       7446       7447       7458       7457  
      7327       7328       7339       7338       7448       7449       7460       7459  
      7328       7329       7340       7339       7449       7450       7461       7460  
      7329       7330       7341       7340       7450       7451       7462       7461  
      7330       7331       7342       7341       7451       7452       7463       7462  
      7331       7332       7343       7342       7452       7453       7464       7463  
      7332       7333       7344       7343       7453       7454       7465       7464  
      7333       7334       7345       7344       7454       7455       7466       7465  
      7334       7335       7346       7345       7455       7456       7467       7466  
      7335       7336       7347       7346       7456       7457       7468       7467  
      7336       7337       7348       7347       7457       7458       7469       7468  
      7338       7339       7350       7349       7459       7460       7471       7470  
      7339       7340       7351       7350       7460       7461       7472       7471  
      7340       7341       7352       7351       7461       7462       7473       7472  
      7341       7342       7353       7352       7462       7463       7474       7473  
      7342       7343       7354       7353       7463       7464       7475       7474  
      7343       7344       7355       7354       7464       7465       7476       7475  
      7344       7345       7356       7355       7465       7466       7477       7476  
      7345       7346       7357       7356       7466       7467       7478       7477  
      7346       7347       7358       7357       7467       7468       7479       7478  
      7347       7348       7359       7358       7468       7469       7480       7479  
      7349       7350       7361       7360       7470       7471       7482       7481  
      7350       7351       7362       7361       7471       7472       7483       7482  
      7351       7352       7363       7362       7472       7473       7484       7483  
      7352       7353       7364       7363       7473       7474       7485       7484  
      7353       7354       7365       7364       7474       7475       7486       7485  
      7354       7355       7366       7365       7475       7476       7487       7486  
      7355       7356       7367       7366       7476       7477       7488       7487  
      7356       7357       7368       7367       7477       7478       7489       7488  
      7357       7358       7369       7368       7478       7479       7490       7489  
      7358       7359       7370       7369       7479       7480       7491       7490  
      7360       7361       7372       7371       7481       7482       7493       7492  
      7361       7362       7373       7372       7482       7483       7494       7493  
      7362       7363       7374       7373       7483       7484       7495       7494  
      7363       7364       7375       7374       7484       7485       7496       7495  
      7364       7365       7376       7375       7485       7486       7497       7496  
      7365       7366       7377       7376       7486       7487       7498       7497  
      7366       7367       7378       7377       7487       7488       7499       7498  
      7367       7368       7379       7378       7488       7489       7500       7499  
      7368       7369       7380       7379       7489       7490       7501       7500  
      7369       7370       7381       7380       7490       7491       7502       7501  
      7382       7383       7394       7393       7503       7504       7515       7514  
      7383       7384       7395       7394       7504       7505       7516       7515  
      7384       7385       7396       7395       7505       7506       7517       7516  
      7385       7386       7397       7396       7506       7507       7518       7517  
      7386       7387       7398       7397       7507       7508       7519       7518  
      7387       7388       7399       7398       7508       7509       7520       7519  
      7388       7389       7400       7399       7509       7510       7521       7520  
      7389       7390       7401       7400       7510       7511       7522       7521  
      7390       7391       7402       7401       7511       7512       7523       7522  
      7391       7392       7403       7402       7512       7513       7524       7523  
      7393       7394       7405       7404       7514       7515       7526       7525  
      7394       7395       7406       7405       7515       7516       7527       7526  
      7395       7396       7407       7406       7516       7517       7528       7527  
      7396       7397       7408       7407       7517       7518       7529       7528  
      7397       7398       7409       7408       7518       7519       7530       7529  
      7398       7399       7410       7409       7519       7520       7531       7530  
      7399       7400       7411       7410       7520       7521       7532       7531  
      7400       7401       7412       7411       7521       7522       7533       7532  
      7401       7402       7413       7412       7522       7523       7534       7533  
      7402       7403       7414       7413       7523       7524       7535       7534  
      7404       7405       7416       7415       7525       7526       7537       7536  
      7405       7406       7417       7416       7526       7527       7538       7537  
      7406       7407       7418       7417       7527       7528       7539       7538  
      7407       7408       7419       7418       7528       7529       7540       7539  
      7408       7409       7420       7419       7529       7530       7541       7540  
      7409       7410       7421       7420       7530       7531       7542       7541  
      7410       7411       7422       7421       7531       7532       7543       7542  
      7411       7412       7423       7422       7532       7533       7544       7543  
      7412       7413       7424       7423       7533       7534       7545       7544  
      7413       7414       7425       7424       7534       7535       7546       7545  
      7415       7416       7427       7426       7536       7537       7548       7547  
      7416       7417       7428       7427       7537       7538       7549       7548  
      7417       7418       7429       7428       7538       7539       7550       7549  
      7418       7419       7430       7429       7539       7540       7551       7550  
      7419       7420       7431       7430       7540       7541       7552       7551  
      7420       7421       7432       7431       7541       7542       7553       7552  
      7421       7422       7433       7432       7542       7543       7554       7553  
      7422       7423       7434       7433       7543       7544       7555       7554  
      7423       7424       7435       7434       7544       7545       7556       7555  
      7424       7425       7436       7435       7545       7546       7557       7556  
      7426       7427       7438       7437       7547       7548       7559       7558  
      7427       7428       7439       7438       7548       7549       7560       7559  
      7428       7429       7440       7439       7549       7550       7561       7560  
      7429       7430       7441       7440       7550       7551       7562       7561  
      7430       7431       7442       7441       7551       7552       7563       7562  
      7431       7432       7443       7442       7552       7553       7564       7563  
      7432       7433       7444       7443       7553       7554       7565       7564  
      7433       7434       7445       7444       7554       7555       7566       7565  
      7434       7435       7446       7445       7555       7556       7567       7566  
      7435       7436       7447       7446       7556       7557       7568       7567  
      7437       7438       7449       7448       7558       7559       7570       7569  
      7438       7439       7450       7449       7559       7560       7571       7570  
      7439       7440       7451       7450       7560       7561       7572       7571  
      7440       7441       7452       7451       7561       7562       7573       7572  
      7441       7442       7453       7452       7562       7563       7574       7573  
      7442       7443       7454       7453       7563       7564       7575       7574  
      7443       7444       7455       7454       7564       7565       7576       7575  
      7444       7445       7456       7455       7565       7566       7577       7576  
      7445       7446       7457       7456       7566       7567       7578       7577  
      7446       7447       7458       7457       7567       7568       7579       7578  
      7448       7449       7460       7459       7569       7570       7581       7580  
      7449       7450       7461       7460       7570       7571       7582       7581  
      7450       7451       7462       7461       7571       7572       7583       7582  
      7451       7452       7463       7462       7572       7573       7584       7583  
      7452       7453       7464       7463       7573       7574       7585       7584  
      7453       7454       7465       7464       7574       7575       7586       7585  
      7454       7455       7466       7465       7575       7576       7587       7586  
      7455       7456       7467       7466       7576       7577       7588       7587  
      7456       7457       7468       7467       7577       7578       7589       7588  
      7457       7458       7469       7468       7578       7579       7590       7589  
      7459       7460       7471       7470       7580       7581       7592       7591  
      7460       7461       7472       7471       7581       7582       7593       7592  
      7461       7462       7473       7472       7582       7583       7594       7593  
      7462       7463       7474       7473       7583       7584       7595       7594  
      7463       7464       7475       7474       7584       7585       7596       7595  
      7464       7465       7476       7475       7585       7586       7597       7596  
      7465       7466       7477       7476       7586       7587       7598       7597  
      7466       7467       7478       7477       7587       7588       7599       7598  
      7467       7468       7479       7478       7588       7589       7600       7599  
      7468       7469       7480       7479       7589       7590       7601       7600  
      7470       7471       7482       7481       7591       7592       7603       7602  
      7471       7472       7483       7482       7592       7593       7604       7603  
      7472       7473       7484       7483       7593       7594       7605       7604  
      7473       7474       7485       7484       7594       7595       7606       7605  
      7474       7475       7486       7485       7595       7596       7607       7606  
      7475       7476       7487       7486       7596       7597       7608       7607  
      7476       7477       7488       7487       7597       7598       7609       7608  
      7477       7478       7489       7488       7598       7599       7610       7609  
      7478       7479       7490       7489       7599       7600       7611       7610  
      7479       7480       7491       7490       7600       7601       7612       7611  
      7481       7482       7493       7492       7602       7603       7614       7613  
      7482       7483       7494       7493       7603       7604       7615       7614  
      7483       7484       7495       7494       7604       7605       7616       7615  
      7484       7485       7496       7495       7605       7606       7617       7616  
      7485       7486       7497       7496       7606       7607       7618       7617  
      7486       7487       7498       7497       7607       7608       7619       7618  
      7487       7488       7499       7498       7608       7609       7620       7619  
      7488       7489       7500       7499       7609       7610       7621       7620  
      7489       7490       7501       7500       7610       7611       7622       7621  
      7490       7491       7502       7501       7611       7612       7623       7622  
      7503       7504       7515       7514       7624       7625       7636       7635  
      7504       7505       7516       7515       7625       7626       7637       7636  
      7505       7506       7517       7516       7626       7627       7638       7637  
      7506       7507       7518       7517       7627       7628       7639       7638  
      7507       7508       7519       7518       7628       7629       7640       7639  
      7508       7509       7520       7519       7629       7630       7641       7640  
      7509       7510       7521       7520       7630       7631       7642       7641  
      7510       7511       7522       7521       7631       7632       7643       7642  
      7511       7512       7523       7522       7632       7633       7644       7643  
      7512       7513       7524       7523       7633       7634       7645       7644  
      7514       7515       7526       7525       7635       7636       7647       7646  
      7515       7516       7527       7526       7636       7637       7648       7647  
      7516       7517       7528       7527       7637       7638       7649       7648  
      7517       7518       7529       7528       7638       7639       7650       7649  
      7518       7519       7530       7529       7639       7640       7651       7650  
      7519       7520       7531       7530       7640       7641       7652       7651  
      7520       7521       7532       7531       7641       7642       7653       7652  
      7521       7522       7533       7532       7642       7643       7654       7653  
      7522       7523       7534       7533       7643       7644       7655       7654  
      7523       7524       7535       7534       7644       7645       7656       7655  
      7525       7526       7537       7536       7646       7647       7658       7657  
      7526       7527       7538       7537       7647       7648       7659       7658  
      7527       7528       7539       7538       7648       7649       7660       7659  
      7528       7529       7540       7539       7649       7650       7661       7660  
      7529       7530       7541       7540       7650       7651       7662       7661  
      7530       7531       7542       7541       7651       7652       7663       7662  
      7531       7532       7543       7542       7652       7653       7664       7663  
      7532       7533       7544       7543       7653       7654       7665       7664  
      7533       7534       7545       7544       7654       7655       7666       7665  
      7534       7535       7546       7545       7655       7656       7667       7666  
      7536       7537       7548       7547       7657       7658       7669       7668  
      7537       7538       7549       7548       7658       7659       7670       7669  
      7538       7539       7550       7549       7659       7660       7671       7670  
      7539       7540       7551       7550       7660       7661       7672       7671  
      7540       7541       7552       7551       7661       7662       7673       7672  
      7541       7542       7553       7552       7662       7663       7674       7673  
      7542       7543       7554       7553       7663       7664       7675       7674  
      7543       7544       7555       7554       7664       7665       7676       7675  
      7544       7545       7556       7555       7665       7666       7677       7676  
      7545       7546       7557       7556       7666       7667       7678       7677  
      7547       7548       7559       7558       7668       7669       7680       7679  
      7548       7549       7560       7559       7669       7670       7681       7680  
      7549       7550       7561       7560       7670       7671       7682       7681  
      7550       7551       7562       7561       7671       7672       7683       7682  
      7551       7552       7563       7562       7672       7673       7684       7683  
      7552       7553       7564       7563       7673       7674       7685       7684  
      7553       7554       7565       7564       7674       7675       7686       7685  
      7554       7555       7566       7565       7675       7676       7687       7686  
      7555       7556       7567       7566       7676       7677       7688       7687  
      7556       7557       7568       7567       7677       7678       7689       7688  
      7558       7559       7570       7569       7679       7680       7691       7690  
      7559       7560       7571       7570       7680       7681       7692       7691  
      7560       7561       7572       7571       7681       7682       7693       7692  
      7561       7562       7573       7572       7682       7683       7694       7693  
      7562       7563       7574       7573       7683       7684       7695       7694  
      7563       7564       7575       7574       7684       7685       7696       7695  
      7564       7565       7576       7575       7685       7686       7697       7696  
      7565       7566       7577       7576       7686       7687       7698       7697  
      7566       7567       7578       7577       7687       7688       7699       7698  
      7567       7568       7579       7578       7688       7689       7700       7699  
      7569       7570       7581       7580       7690       7691       7702       7701  
      7570       7571       7582       7581       7691       7692       7703       7702  
      7571       7572       7583       7582       7692       7693       7704       7703  
      7572       7573       7584       7583       7693       7694       7705       7704  
      7573       7574       7585       7584       7694       7695       7706       7705  
      7574       7575       7586       7585       7695       7696       7707       7706  
      7575       7576       7587       7586       7696       7697       7708       7707  
      7576       7577       7588       7587       7697       7698       7709       7708  
      7577       7578       7589       7588       7698       7699       7710       7709  
      7578       7579       7590       7589       7699       7700       7711       7710  
      7580       7581       7592       7591       7701       7702       7713       7712  
      7581       7582       7593       7592       7702       7703       7714       7713  
      7582       7583       7594       7593       7703       7704       7715       7714  
      7583       7584       7595       7594       7704       7705       7716       7715  
      7584       7585       7596       7595       7705       7706       7717       7716  
      7585       7586       7597       7596       7706       7707       7718       7717  
      7586       7587       7598       7597       7707       7708       7719       7718  
      7587       7588       7599       7598       7708       7709       7720       7719  
      7588       7589       7600       7599       7709       7710       7721       7720  
      7589       7590       7601       7600       7710       7711       7722       7721  
      7591       7592       7603       7602       7712       7713       7724       7723  
      7592       7593       7604       7603       7713       7714       7725       7724  
      7593       7594       7605       7604       7714       7715       7726       7725  
      7594       7595       7606       7605       7715       7716       7727       7726  
      7595       7596       7607       7606       7716       7717       7728       7727  
      7596       7597       7608       7607       7717       7718       7729       7728  
      7597       7598       7609       7608       7718       7719       7730       7729  
      7598       7599       7610       7609       7719       7720       7731       7730  
      7599       7600       7611       7610       7720       7721       7732       7731  
      7600       7601       7612       7611       7721       7722       7733       7732  
      7602       7603       7614       7613       7723       7724       7735       7734  
      7603       7604       7615       7614       7724       7725       7736       7735  
      7604       7605       7616       7615       7725       7726       7737       7736  
      7605       7606       7617       7616       7726       7727       7738       7737  
      7606       7607       7618       7617       7727       7728       7739       7738  
      7607       7608       7619       7618       7728       7729       7740       7739  
      7608       7609       7620       7619       7729       7730       7741       7740  
      7609       7610       7621       7620       7730       7731       7742       7741  
      7610       7611       7622       7621       7731       7732       7743       7742  
      7611       7612       7623       7622       7732       7733       7744       7743  
      7624       7625       7636       7635       7745       7746       7757       7756  
      7625       7626       7637       7636       7746       7747       7758       7757  
      7626       7627       7638       7637       7747       7748       7759       7758  
      7627       7628       7639       7638       7748       7749       7760       7759  
      7628       7629       7640       7639       7749       7750       7761       7760  
      7629       7630       7641       7640       7750       7751       7762       7761  
      7630       7631       7642       7641       7751       7752       7763       7762  
      7631       7632       7643       7642       7752       7753       7764       7763  
      7632       7633       7644       7643       7753       7754       7765       7764  
      7633       7634       7645       7644       7754       7755       7766       7765  
      7635       7636       7647       7646       7756       7757       7768       7767  
      7636       7637       7648       7647       7757       7758       7769       7768  
      7637       7638       7649       7648       7758       7759       7770       7769  
      7638       7639       7650       7649       7759       7760       7771       7770  
      7639       7640       7651       7650       7760       7761       7772       7771  
      7640       7641       7652       7651       7761       7762       7773       7772  
      7641       7642       7653       7652       7762       7763       7774       7773  
      7642       7643       7654       7653       7763       7764       7775       7774  
      7643       7644       7655       7654       7764       7765       7776       7775  
      7644       7645       7656       7655       7765       7766       7777       7776  
      7646       7647       7658       7657       7767       7768       7779       7778  
      7647       7648       7659       7658       7768       7769       7780       7779  
      7648       7649       7660       7659       7769       7770       7781       7780  
      7649       7650       7661       7660       7770       7771       7782       7781  
      7650       7651       7662       7661       7771       7772       7783       7782  
      7651       7652       7663       7662       7772       7773       7784       7783  
      7652       7653       7664       7663       7773       7774       7785       7784  
      7653       7654       7665       7664       7774       7775       7786       7785  
      7654       7655       7666       7665       7775       7776       7787       7786  
      7655       7656       7667       7666       7776       7777       7788       7787  
      7657       7658       7669       7668       7778       7779       7790       7789  
      7658       7659       7670       7669       7779       7780       7791       7790  
      7659       7660       7671       7670       7780       7781       7792       7791  
      7660       7661       7672       7671       7781       7782       7793       7792  
      7661       7662       7673       7672       7782       7783       7794       7793  
      7662       7663       7674       7673       7783       7784       7795       7794  
      7663       7664       7675       7674       7784       7785       7796       7795  
      7664       7665       7676       7675       7785       7786       7797       7796  
      7665       7666       7677       7676       7786       7787       7798       7797  
      7666       7667       7678       7677       7787       7788       7799       7798  
      7668       7669       7680       7679       7789       7790       7801       7800  
      7669       7670       7681       7680       7790       7791       7802       7801  
      7670       7671       7682       7681       7791       7792       7803       7802  
      7671       7672       7683       7682       7792       7793       7804       7803  
      7672       7673       7684       7683       7793       7794       7805       7804  
      7673       7674       7685       7684       7794       7795       7806       7805  
      7674       7675       7686       7685       7795       7796       7807       7806  
      7675       7676       7687       7686       7796       7797       7808       7807  
      7676       7677       7688       7687       7797       7798       7809       7808  
      7677       7678       7689       7688       7798       7799       7810       7809  
      7679       7680       7691       7690       7800       7801       7812       7811  
      7680       7681       7692       7691       7801       7802       7813       7812  
      7681       7682       7693       7692       7802       7803       7814       7813  
      7682       7683       7694       7693       7803       7804       7815       7814  
      7683       7684       7695       7694       7804       7805       7816       7815  
      7684       7685       7696       7695       7805       7806       7817       7816  
      7685       7686       7697       7696       7806       7807       7818       7817  
      7686       7687       7698       7697       7807       7808       7819       7818  
      7687       7688       7699       7698       7808       7809       7820       7819  
      7688       7689       7700       7699       7809       7810       7821       7820  
      7690       7691       7702       7701       7811       7812       7823       7822  
      7691       7692       7703       7702       7812       7813       7824       7823  
      7692       7693       7704       7703       7813       7814       7825       7824  
      7693       7694       7705       7704       7814       7815       7826       7825  
      7694       7695       7706       7705       7815       7816       7827       7826  
      7695       7696       7707       7706       7816       7817       7828       7827  
      7696       7697       7708       7707       7817       7818       7829       7828  
      7697       7698       7709       7708       7818       7819       7830       7829  
      7698       7699       7710       7709       7819       7820       7831       7830  
      7699       7700       7711       7710       7820       7821       7832       7831  
      7701       7702       7713       7712       7822       7823       7834       7833  
      7702       7703       7714       7713       7823       7824       7835       7834  
      7703       7704       7715       7714       7824       7825       7836       7835  
      7704       7705       7716       7715       7825       7826       7837       7836  
      7705       7706       7717       7716       7826       7827       7838       7837  
      7706       7707       7718       7717       7827       7828       7839       7838  
      7707       7708       7719       7718       7828       7829       7840       7839  
      7708       7709       7720       7719       7829       7830       7841       7840  
      7709       7710       7721       7720       7830       7831       7842       7841  
      7710       7711       7722       7721       7831       7832       7843       7842  
      7712       7713       7724       7723       7833       7834       7845       7844  
      7713       7714       7725       7724       7834       7835       7846       7845  
      7714       7715       7726       7725       7835       7836       7847       7846  
      7715       7716       7727       7726       7836       7837       7848       7847  
      7716       7717       7728       7727       7837       7838       7849       7848  
      7717       7718       7729       7728       7838       7839       7850       7849  
      7718       7719       7730       7729       7839       7840       7851       7850  
      7719       7720       7731       7730       7840       7841       7852       7851  
      7720       7721       7732       7731       7841       7842       7853       7852  
      7721       7722       7733       7732       7842       7843       7854       7853  
      7723       7724       7735       7734       7844       7845       7856       7855  
      7724       7725       7736       7735       7845       7846       7857       7856  
      7725       7726       7737       7736       7846       7847       7858       7857  
      7726       7727       7738       7737       7847       7848       7859       7858  
      7727       7728       7739       7738       7848       7849       7860       7859  
      7728       7729       7740       7739       7849       7850       7861       7860  
      7729       7730       7741       7740       7850       7851       7862       7861  
      7730       7731       7742       7741       7851       7852       7863       7862  
      7731       7732       7743       7742       7852       7853       7864       7863  
      7732       7733       7744       7743       7853       7854       7865       7864  
      7745       7746       7757       7756       7866       7867       7878       7877  
      7746       7747       7758       7757       7867       7868       7879       7878  
      7747       7748       7759       7758       7868       7869       7880       7879  
      7748       7749       7760       7759       7869       7870       7881       7880  
      7749       7750       7761       7760       7870       7871       7882       7881  
      7750       7751       7762       7761       7871       7872       7883       7882  
      7751       7752       7763       7762       7872       7873       7884       7883  
      7752       7753       7764       7763       7873       7874       7885       7884  
      7753       7754       7765       7764       7874       7875       7886       7885  
      7754       7755       7766       7765       7875       7876       7887       7886  
      7756       7757       7768       7767       7877       7878       7889       7888  
      7757       7758       7769       7768       7878       7879       7890       7889  
      7758       7759       7770       7769       7879       7880       7891       7890  
      7759       7760       7771       7770       7880       7881       7892       7891  
      7760       7761       7772       7771       7881       7882       7893       7892  
      7761       7762       7773       7772       7882       7883       7894       7893  
      7762       7763       7774       7773       7883       7884       7895       7894  
      7763       7764       7775       7774       7884       7885       7896       7895  
      7764       7765       7776       7775       7885       7886       7897       7896  
      7765       7766       7777       7776       7886       7887       7898       7897  
      7767       7768       7779       7778       7888       7889       7900       7899  
      7768       7769       7780       7779       7889       7890       7901       7900  
      7769       7770       7781       7780       7890       7891       7902       7901  
      7770       7771       7782       7781       7891       7892       7903       7902  
      7771       7772       7783       7782       7892       7893       7904       7903  
      7772       7773       7784       7783       7893       7894       7905       7904  
      7773       7774       7785       7784       7894       7895       7906       7905  
      7774       7775       7786       7785       7895       7896       7907       7906  
      7775       7776       7787       7786       7896       7897       7908       7907  
      7776       7777       7788       7787       7897       7898       7909       7908  
      7778       7779       7790       7789       7899       7900       7911       7910  
      7779       7780       7791       7790       7900       7901       7912       7911  
      7780       7781       7792       7791       7901       7902       7913       7912  
      7781       7782       7793       7792       7902       7903       7914       7913  
      7782       7783       7794       7793       7903       7904       7915       7914  
      7783       7784       7795       7794       7904       7905       7916       7915  
      7784       7785       7796       7795       7905       7906       7917       7916  
      7785       7786       7797       7796       7906       7907       7918       7917  
      7786       7787       7798       7797       7907       7908       7919       7918  
      7787       7788       7799       7798       7908       7909       7920       7919  
      7789       7790       7801       7800       7910       7911       7922       7921  
      7790       7791       7802       7801       7911       7912       7923       7922  
      7791       7792       7803       7802       7912       7913       7924       7923  
      7792       7793       7804       7803       7913       7914       7925       7924  
      7793       7794       7805       7804       7914       7915       7926       7925  
      7794       7795       7806       7805       7915       7916       7927       7926  
      7795       7796       7807       7806       7916       7917       7928       7927  
      7796       7797       7808       7807       7917       7918       7929       7928  
      7797       7798       7809       7808       7918       7919       7930       7929  
      7798       7799       7810       7809       7919       7920       7931       7930  
      7800       7801       7812       7811       7921       7922       7933       7932  
      7801       7802       7813       7812       7922       7923       7934       7933  
      7802       7803       7814       7813       7923       7924       7935       7934  
      7803       7804       7815       7814       7924       7925       7936       7935  
      7804       7805       7816       7815       7925       7926       7937       7936  
      7805       7806       7817       7816       7926       7927       7938       7937  
      7806       7807       7818       7817       7927       7928       7939       7938  
      7807       7808       7819       7818       7928       7929       7940       7939  
      7808       7809       7820       7819       7929       7930       7941       7940  
      7809       7810       7821       7820       7930       7931       7942       7941  
      7811       7812       7823       7822       7932       7933       7944       7943  
      7812       7813       7824       7823       7933       7934       7945       7944  
      7813       7814       7825       7824       7934       7935       7946       7945  
      7814       7815       7826       7825       7935       7936       7947       7946  
      7815       7816       7827       7826       7936       7937       7948       7947  
      7816       7817       7828       7827       7937       7938       7949       7948  
      7817       7818       7829       7828       7938       7939       7950       7949  
      7818       7819       7830       7829       7939       7940       7951       7950  
      7819       7820       7831       7830       7940       7941       7952       7951  
      7820       7821       7832       7831       7941       7942       7953       7952  
      7822       7823       7834       7833       7943       7944       7955       7954  
      7823       7824       7835       7834       7944       7945       7956       7955  
      7824       7825       7836       7835       7945       7946       7957       7956  
      7825       7826       7837       7836       7946       7947       7958       7957  
      7826       7827       7838       7837       7947       7948       7959       7958  
      7827       7828       7839       7838       7948       7949       7960       7959  
      7828       7829       7840       7839       7949       7950       7961       7960  
      7829       7830       7841       7840       7950       7951       7962       7961  
      7830       7831       7842       7841       7951       7952       7963       7962  
      7831       7832       7843       7842       7952       7953       7964       7963  
      7833       7834       7845       7844       7954       7955       7966       7965  
      7834       7835       7846       7845       7955       7956       7967       7966  
      7835       7836       7847       7846       7956       7957       7968       7967  
      7836       7837       7848       7847       7957       7958       7969       7968  
      7837       7838       7849       7848       7958       7959       7970       7969  
      7838       7839       7850       7849       7959       7960       7971       7970  
      7839       7840       7851       7850       7960       7961       7972       7971  
      7840       7841       7852       7851       7961       7962       7973       7972  
      7841       7842       7853       7852       7962       7963       7974       7973  
      7842       7843       7854       7853       7963       7964       7975       7974  
      7844       7845       7856       7855       7965       7966       7977       7976  
      7845       7846       7857       7856       7966       7967       7978       7977  
      7846       7847       7858       7857       7967       7968       7979       7978  
      7847       7848       7859       7858       7968       7969       7980       7979  
      7848       7849       7860       7859       7969       7970       7981       7980  
      7849       7850       7861       7860       7970       7971       7982       7981  
      7850       7851       7862       7861       7971       7972       7983       7982  
      7851       7852       7863       7862       7972       7973       7984       7983  
      7852       7853       7864       7863       7973       7974       7985       7984  
      7853       7854       7865       7864       7974       7975       7986       7985  
      7866       7867       7878       7877       7987       7988       7999       7998  
      7867       7868       7879       7878       7988       7989       8000       7999  
      7868       7869       7880       7879       7989       7990       8001       8000  
      7869       7870       7881       7880       7990       7991       8002       8001  
      7870       7871       7882       7881       7991       7992       8003       8002  
      7871       7872       7883       7882       7992       7993       8004       8003  
      7872       7873       7884       7883       7993       7994       8005       8004  
      7873       7874       7885       7884       7994       7995       8006       8005  
      7874       7875       7886       7885       7995       7996       8007       8006  
      7875       7876       7887       7886       7996       7997       8008       8007  
      7877       7878       7889       7888       7998       7999       8010       8009  
      7878       7879       7890       7889       7999       8000       8011       8010  
      7879       7880       7891       7890       8000       8001       8012       8011  
      7880       7881       7892       7891       8001       8002       8013       8012  
      7881       7882       7893       7892       8002       8003       8014       8013  
      7882       7883       7894       7893       8003       8004       8015       8014  
      7883       7884       7895       7894       8004       8005       8016       8015  
      7884       7885       7896       7895       8005       8006       8017       8016  
      7885       7886       7897       7896       8006       8007       8018       8017  
      7886       7887       7898       7897       8007       8008       8019       8018  
      7888       7889       7900       7899       8009       8010       8021       8020  
      7889       7890       7901       7900       8010       8011       8022       8021  
      7890       7891       7902       7901       8011       8012       8023       8022  
      7891       7892       7903       7902       8012       8013       8024       8023  
      7892       7893       7904       7903       8013       8014       8025       8024  
      7893       7894       7905       7904       8014       8015       8026       8025  
      7894       7895       7906       7905       8015       8016       8027       8026  
      7895       7896       7907       7906       8016       8017       8028       8027  
      7896       7897       7908       7907       8017       8018       8029       8028  
      7897       7898       7909       7908       8018       8019       8030       8029  
      7899       7900       7911       7910       8020       8021       8032       8031  
      7900       7901       7912       7911       8021       8022       8033       8032  
      7901       7902       7913       7912       8022       8023       8034       8033  
      7902       7903       7914       7913       8023       8024       8035       8034  
      7903       7904       7915       7914       8024       8025       8036       8035  
      7904       7905       7916       7915       8025       8026       8037       8036  
      7905       7906       7917       7916       8026       8027       8038       8037  
      7906       7907       7918       7917       8027       8028       8039       8038  
      7907       7908       7919       7918       8028       8029       8040       8039  
      7908       7909       7920       7919       8029       8030       8041       8040  
      7910       7911       7922       7921       8031       8032       8043       8042  
      7911       7912       7923       7922       8032       8033       8044       8043  
      7912       7913       7924       7923       8033       8034       8045       8044  
      7913       7914       7925       7924       8034       8035       8046       8045  
      7914       7915       7926       7925       8035       8036       8047       8046  
      7915       7916       7927       7926       8036       8037       8048       8047  
      7916       7917       7928       7927       8037       8038       8049       8048  
      7917       7918       7929       7928       8038       8039       8050       8049  
      7918       7919       7930       7929       8039       8040       8051       8050  
      7919       7920       7931       7930       8040       8041       8052       8051  
      7921       7922       7933       7932       8042       8043       8054       8053  
      7922       7923       7934       7933       8043       8044       8055       8054  
      7923       7924       7935       7934       8044       8045       8056       8055  
      7924       7925       7936       7935       8045       8046       8057       8056  
      7925       7926       7937       7936       8046       8047       8058       8057  
      7926       7927       7938       7937       8047       8048       8059       8058  
      7927       7928       7939       7938       8048       8049       8060       8059  
      7928       7929       7940       7939       8049       8050       8061       8060  
      7929       7930       7941       7940       8050       8051       8062       8061  
      7930       7931       7942       7941       8051       8052       8063       8062  
      7932       7933       7944       7943       8053       8054       8065       8064  
      7933       7934       7945       7944       8054       8055       8066       8065  
      7934       7935       7946       7945       8055       8056       8067       8066  
      7935       7936       7947       7946       8056       8057       8068       8067  
      7936       7937       7948       7947       8057       8058       8069       8068  
      7937       7938       7949       7948       8058       8059       8070       8069  
      7938       7939       7950       7949       8059       8060       8071       8070  
      7939       7940       7951       7950       8060       8061       8072       8071  
      7940       7941       7952       7951       8061       8062       8073       8072  
      7941       7942       7953       7952       8062       8063       8074       8073  
      7943       7944       7955       7954       8064       8065       8076       8075  
      7944       7945       7956       7955       8065       8066       8077       8076  
      7945       7946       7957       7956       8066       8067       8078       8077  
      7946       7947       7958       7957       8067       8068       8079       8078  
      7947       7948       7959       7958       8068       8069       8080       8079  
      7948       7949       7960       7959       8069       8070       8081       8080  
      7949       7950       7961       7960       8070       8071       8082       8081  
      7950       7951       7962       7961       8071       8072       8083       8082  
      7951       7952       7963       7962       8072       8073       8084       8083  
      7952       7953       7964       7963       8073       8074       8085       8084  
      7954       7955       7966       7965       8075       8076       8087       8086  
      7955       7956       7967       7966       8076       8077       8088       8087  
      7956       7957       7968       7967       8077       8078       8089       8088  
      7957       7958       7969       7968       8078       8079       8090       8089  
      7958       7959       7970       7969       8079       8080       8091       8090  
      7959       7960       7971       7970       8080       8081       8092       8091  
      7960       7961       7972       7971       8081       8082       8093       8092  
      7961       7962       7973       7972       8082       8083       8094       8093  
      7962       7963       7974       7973       8083       8084       8095       8094  
      7963       7964       7975       7974       8084       8085       8096       8095  
      7965       7966       7977       7976       8086       8087       8098       8097  
      7966       7967       7978       7977       8087       8088       8099       8098  
      7967       7968       7979       7978       8088       8089       8100       8099  
      7968       7969       7980       7979       8089       8090       8101       8100  
      7969       7970       7981       7980       8090       8091       8102       8101  
      7970       7971       7982       7981       8091       8092       8103       8102  
      7971       7972       7983       7982       8092       8093       8104       8103  
      7972       7973       7984       7983       8093       8094       8105       8104  
      7973       7974       7985       7984       8094       8095       8106       8105  
      7974       7975       7986       7985       8095       8096       8107       8106  
      7987       7988       7999       7998       8108       8109       8120       8119  
      7988       7989       8000       7999       8109       8110       8121       8120  
      7989       7990       8001       8000       8110       8111       8122       8121  
      7990       7991       8002       8001       8111       8112       8123       8122  
      7991       7992       8003       8002       8112       8113       8124       8123  
      7992       7993       8004       8003       8113       8114       8125       8124  
      7993       7994       8005       8004       8114       8115       8126       8125  
      7994       7995       8006       8005       8115       8116       8127       8126  
      7995       7996       8007       8006       8116       8117       8128       8127  
      7996       7997       8008       8007       8117       8118       8129       8128  
      7998       7999       8010       8009       8119       8120       8131       8130  
      7999       8000       8011       8010       8120       8121       8132       8131  
      8000       8001       8012       8011       8121       8122       8133       8132  
      8001       8002       8013       8012       8122       8123       8134       8133  
      8002       8003       8014       8013       8123       8124       8135       8134  
      8003       8004       8015       8014       8124       8125       8136       8135  
      8004       8005       8016       8015       8125       8126       8137       8136  
      8005       8006       8017       8016       8126       8127       8138       8137  
      8006       8007       8018       8017       8127       8128       8139       8138  
      8007       8008       8019       8018       8128       8129       8140       8139  
      8009       8010       8021       8020       8130       8131       8142       8141  
      8010       8011       8022       8021       8131       8132       8143       8142  
      8011       8012       8023       8022       8132       8133       8144       8143  
      8012       8013       8024       8023       8133       8134       8145       8144  
      8013       8014       8025       8024       8134       8135       8146       8145  
      8014       8015       8026       8025       8135       8136       8147       8146  
      8015       8016       8027       8026       8136       8137       8148       8147  
      8016       8017       8028       8027       8137       8138       8149       8148  
      8017       8018       8029       8028       8138       8139       8150       8149  
      8018       8019       8030       8029       8139       8140       8151       8150  
      8020       8021       8032       8031       8141       8142       8153       8152  
      8021       8022       8033       8032       8142       8143       8154       8153  
      8022       8023       8034       8033       8143       8144       8155       8154  
      8023       8024       8035       8034       8144       8145       8156       8155  
      8024       8025       8036       8035       8145       8146       8157       8156  
      8025       8026       8037       8036       8146       8147       8158       8157  
      8026       8027       8038       8037       8147       8148       8159       8158  
      8027       8028       8039       8038       8148       8149       8160       8159  
      8028       8029       8040       8039       8149       8150       8161       8160  
      8029       8030       8041       8040       8150       8151       8162       8161  
      8031       8032       8043       8042       8152       8153       8164       8163  
      8032       8033       8044       8043       8153       8154       8165       8164  
      8033       8034       8045       8044       8154       8155       8166       8165  
      8034       8035       8046       8045       8155       8156       8167       8166  
      8035       8036       8047       8046       8156       8157       8168       8167  
      8036       8037       8048       8047       8157       8158       8169       8168  
      8037       8038       8049       8048       8158       8159       8170       8169  
      8038       8039       8050       8049       8159       8160       8171       8170  
      8039       8040       8051       8050       8160       8161       8172       8171  
      8040       8041       8052       8051       8161       8162       8173       8172  
      8042       8043       8054       8053       8163       8164       8175       8174  
      8043       8044       8055       8054       8164       8165       8176       8175  
      8044       8045       8056       8055       8165       8166       8177       8176  
      8045       8046       8057       8056       8166       8167       8178       8177  
      8046       8047       8058       8057       8167       8168       8179       8178  
      8047       8048       8059       8058       8168       8169       8180       8179  
      8048       8049       8060       8059       8169       8170       8181       8180  
      8049       8050       8061       8060       8170       8171       8182       8181  
      8050       8051       8062       8061       8171       8172       8183       8182  
      8051       8052       8063       8062       8172       8173       8184       8183  
      8053       8054       8065       8064       8174       8175       8186       8185  
      8054       8055       8066       8065       8175       8176       8187       8186  
      8055       8056       8067       8066       8176       8177       8188       8187  
      8056       8057       8068       8067       8177       8178       8189       8188  
      8057       8058       8069       8068       8178       8179       8190       8189  
      8058       8059       8070       8069       8179       8180       8191       8190  
      8059       8060       8071       8070       8180       8181       8192       8191  
      8060       8061       8072       8071       8181       8182       8193       8192  
      8061       8062       8073       8072       8182       8183       8194       8193  
      8062       8063       8074       8073       8183       8184       8195       8194  
      8064       8065       8076       8075       8185       8186       8197       8196  
      8065       8066       8077       8076       8186       8187       8198       8197  
      8066       8067       8078       8077       8187       8188       8199       8198  
      8067       8068       8079       8078       8188       8189       8200       8199  
      8068       8069       8080       8079       8189       8190       8201       8200  
      8069       8070       8081       8080       8190       8191       8202       8201  
      8070       8071       8082       8081       8191       8192       8203       8202  
      8071       8072       8083       8082       8192       8193       8204       8203  
      8072       8073       8084       8083       8193       8194       8205       8204  
      8073       8074       8085       8084       8194       8195       8206       8205  
      8075       8076       8087       8086       8196       8197       8208       8207  
      8076       8077       8088       8087       8197       8198       8209       8208  
      8077       8078       8089       8088       8198       8199       8210       8209  
      8078       8079       8090       8089       8199       8200       8211       8210  
      8079       8080       8091       8090       8200       8201       8212       8211  
      8080       8081       8092       8091       8201       8202       8213       8212  
      8081       8082       8093       8092       8202       8203       8214       8213  
      8082       8083       8094       8093       8203       8204       8215       8214  
      8083       8084       8095       8094       8204       8205       8216       8215  
      8084       8085       8096       8095       8205       8206       8217       8216  
      8086       8087       8098       8097       8207       8208       8219       8218  
      8087       8088       8099       8098       8208       8209       8220       8219  
      8088       8089       8100       8099       8209       8210       8221       8220  
      8089       8090       8101       8100       8210       8211       8222       8221  
      8090       8091       8102       8101       8211       8212       8223       8222  
      8091       8092       8103       8102       8212       8213       8224       8223  
      8092       8093       8104       8103       8213       8214       8225       8224  
      8093       8094       8105       8104       8214       8215       8226       8225  
      8094       8095       8106       8105       8215       8216       8227       8226  
      8095       8096       8107       8106       8216       8217       8228       8227  
      8108       8109       8120       8119       8229       8230       8241       8240  
      8109       8110       8121       8120       8230       8231       8242       8241  
      8110       8111       8122       8121       8231       8232       8243       8242  
      8111       8112       8123       8122       8232       8233       8244       8243  
      8112       8113       8124       8123       8233       8234       8245       8244  
      8113       8114       8125       8124       8234       8235       8246       8245  
      8114       8115       8126       8125       8235       8236       8247       8246  
      8115       8116       8127       8126       8236       8237       8248       8247  
      8116       8117       8128       8127       8237       8238       8249       8248  
      8117       8118       8129       8128       8238       8239       8250       8249  
      8119       8120       8131       8130       8240       8241       8252       8251  
      8120       8121       8132       8131       8241       8242       8253       8252  
      8121       8122       8133       8132       8242       8243       8254       8253  
      8122       8123       8134       8133       8243       8244       8255       8254  
      8123       8124       8135       8134       8244       8245       8256       8255  
      8124       8125       8136       8135       8245       8246       8257       8256  
      8125       8126       8137       8136       8246       8247       8258       8257  
      8126       8127       8138       8137       8247       8248       8259       8258  
      8127       8128       8139       8138       8248       8249       8260       8259  
      8128       8129       8140       8139       8249       8250       8261       8260  
      8130       8131       8142       8141       8251       8252       8263       8262  
      8131       8132       8143       8142       8252       8253       8264       8263  
      8132       8133       8144       8143       8253       8254       8265       8264  
      8133       8134       8145       8144       8254       8255       8266       8265  
      8134       8135       8146       8145       8255       8256       8267       8266  
      8135       8136       8147       8146       8256       8257       8268       8267  
      8136       8137       8148       8147       8257       8258       8269       8268  
      8137       8138       8149       8148       8258       8259       8270       8269  
      8138       8139       8150       8149       8259       8260       8271       8270  
      8139       8140       8151       8150       8260       8261       8272       8271  
      8141       8142       8153       8152       8262       8263       8274       8273  
      8142       8143       8154       8153       8263       8264       8275       8274  
      8143       8144       8155       8154       8264       8265       8276       8275  
      8144       8145       8156       8155       8265       8266       8277       8276  
      8145       8146       8157       8156       8266       8267       8278       8277  
      8146       8147       8158       8157       8267       8268       8279       8278  
      8147       8148       8159       8158       8268       8269       8280       8279  
      8148       8149       8160       8159       8269       8270       8281       8280  
      8149       8150       8161       8160       8270       8271       8282       8281  
      8150       8151       8162       8161       8271       8272       8283       8282  
      8152       8153       8164       8163       8273       8274       8285       8284  
      8153       8154       8165       8164       8274       8275       8286       8285  
      8154       8155       8166       8165       8275       8276       8287       8286  
      8155       8156       8167       8166       8276       8277       8288       8287  
      8156       8157       8168       8167       8277       8278       8289       8288  
      8157       8158       8169       8168       8278       8279       8290       8289  
      8158       8159       8170       8169       8279       8280       8291       8290  
      8159       8160       8171       8170       8280       8281       8292       8291  
      8160       8161       8172       8171       8281       8282       8293       8292  
      8161       8162       8173       8172       8282       8283       8294       8293  
      8163       8164       8175       8174       8284       8285       8296       8295  
      8164       8165       8176       8175       8285       8286       8297       8296  
      8165       8166       8177       8176       8286       8287       8298       8297  
      8166       8167       8178       8177       8287       8288       8299       8298  
      8167       8168       8179       8178       8288       8289       8300       8299  
      8168       8169       8180       8179       8289       8290       8301       8300  
      8169       8170       8181       8180       8290       8291       8302       8301  
      8170       8171       8182       8181       8291       8292       8303       8302  
      8171       8172       8183       8182       8292       8293       8304       8303  
      8172       8173       8184       8183       8293       8294       8305       8304  
      8174       8175       8186       8185       8295       8296       8307       8306  
      8175       8176       8187       8186       8296       8297       8308       8307  
      8176       8177       8188       8187       8297       8298       8309       8308  
      8177       8178       8189       8188       8298       8299       8310       8309  
      8178       8179       8190       8189       8299       8300       8311       8310  
      8179       8180       8191       8190       8300       8301       8312       8311  
      8180       8181       8192       8191       8301       8302       8313       8312  
      8181       8182       8193       8192       8302       8303       8314       8313  
      8182       8183       8194       8193       8303       8304       8315       8314  
      8183       8184       8195       8194       8304       8305       8316       8315  
      8185       8186       8197       8196       8306       8307       8318       8317  
      8186       8187       8198       8197       8307       8308       8319       8318  
      8187       8188       8199       8198       8308       8309       8320       8319  
      8188       8189       8200       8199       8309       8310       8321       8320  
      8189       8190       8201       8200       8310       8311       8322       8321  
      8190       8191       8202       8201       8311       8312       8323       8322  
      8191       8192       8203       8202       8312       8313       8324       8323  
      8192       8193       8204       8203       8313       8314       8325       8324  
      8193       8194       8205       8204       8314       8315       8326       8325  
      8194       8195       8206       8205       8315       8316       8327       8326  
      8196       8197       8208       8207       8317       8318       8329       8328  
      8197       8198       8209       8208       8318       8319       8330       8329  
      8198       8199       8210       8209       8319       8320       8331       8330  
      8199       8200       8211       8210       8320       8321       8332       8331  
      8200       8201       8212       8211       8321       8322       8333       8332  
      8201       8202       8213       8212       8322       8323       8334       8333  
      8202       8203       8214       8213       8323       8324       8335       8334  
      8203       8204       8215       8214       8324       8325       8336       8335  
      8204       8205       8216       8215       8325       8326       8337       8336  
      8205       8206       8217       8216       8326       8327       8338       8337  
      8207       8208       8219       8218       8328       8329       8340       8339  
      8208       8209       8220       8219       8329       8330       8341       8340  
      8209       8210       8221       8220       8330       8331       8342       8341  
      8210       8211       8222       8221       8331       8332       8343       8342  
      8211       8212       8223       8222       8332       8333       8344       8343  
      8212       8213       8224       8223       8333       8334       8345       8344  
      8213       8214       8225       8224       8334       8335       8346       8345  
      8214       8215       8226       8225       8335       8336       8347       8346  
      8215       8216       8227       8226       8336       8337       8348       8347  
      8216       8217       8228       8227       8337       8338       8349       8348  
      8229       8230       8241       8240       8350       8351       8362       8361  
      8230       8231       8242       8241       8351       8352       8363       8362  
      8231       8232       8243       8242       8352       8353       8364       8363  
      8232       8233       8244       8243       8353       8354       8365       8364  
      8233       8234       8245       8244       8354       8355       8366       8365  
      8234       8235       8246       8245       8355       8356       8367       8366  
      8235       8236       8247       8246       8356       8357       8368       8367  
      8236       8237       8248       8247       8357       8358       8369       8368  
      8237       8238       8249       8248       8358       8359       8370       8369  
      8238       8239       8250       8249       8359       8360       8371       8370  
      8240       8241       8252       8251       8361       8362       8373       8372  
      8241       8242       8253       8252       8362       8363       8374       8373  
      8242       8243       8254       8253       8363       8364       8375       8374  
      8243       8244       8255       8254       8364       8365       8376       8375  
      8244       8245       8256       8255       8365       8366       8377       8376  
      8245       8246       8257       8256       8366       8367       8378       8377  
      8246       8247       8258       8257       8367       8368       8379       8378  
      8247       8248       8259       8258       8368       8369       8380       8379  
      8248       8249       8260       8259       8369       8370       8381       8380  
      8249       8250       8261       8260       8370       8371       8382       8381  
      8251       8252       8263       8262       8372       8373       8384       8383  
      8252       8253       8264       8263       8373       8374       8385       8384  
      8253       8254       8265       8264       8374       8375       8386       8385  
      8254       8255       8266       8265       8375       8376       8387       8386  
      8255       8256       8267       8266       8376       8377       8388       8387  
      8256       8257       8268       8267       8377       8378       8389       8388  
      8257       8258       8269       8268       8378       8379       8390       8389  
      8258       8259       8270       8269       8379       8380       8391       8390  
      8259       8260       8271       8270       8380       8381       8392       8391  
      8260       8261       8272       8271       8381       8382       8393       8392  
      8262       8263       8274       8273       8383       8384       8395       8394  
      8263       8264       8275       8274       8384       8385       8396       8395  
      8264       8265       8276       8275       8385       8386       8397       8396  
      8265       8266       8277       8276       8386       8387       8398       8397  
      8266       8267       8278       8277       8387       8388       8399       8398  
      8267       8268       8279       8278       8388       8389       8400       8399  
      8268       8269       8280       8279       8389       8390       8401       8400  
      8269       8270       8281       8280       8390       8391       8402       8401  
      8270       8271       8282       8281       8391       8392       8403       8402  
      8271       8272       8283       8282       8392       8393       8404       8403  
      8273       8274       8285       8284       8394       8395       8406       8405  
      8274       8275       8286       8285       8395       8396       8407       8406  
      8275       8276       8287       8286       8396       8397       8408       8407  
      8276       8277       8288       8287       8397       8398       8409       8408  
      8277       8278       8289       8288       8398       8399       8410       8409  
      8278       8279       8290       8289       8399       8400       8411       8410  
      8279       8280       8291       8290       8400       8401       8412       8411  
      8280       8281       8292       8291       8401       8402       8413       8412  
      8281       8282       8293       8292       8402       8403       8414       8413  
      8282       8283       8294       8293       8403       8404       8415       8414  
      8284       8285       8296       8295       8405       8406       8417       8416  
      8285       8286       8297       8296       8406       8407       8418       8417  
      8286       8287       8298       8297       8407       8408       8419       8418  
      8287       8288       8299       8298       8408       8409       8420       8419  
      8288       8289       8300       8299       8409       8410       8421       8420  
      8289       8290       8301       8300       8410       8411       8422       8421  
      8290       8291       8302       8301       8411       8412       8423       8422  
      8291       8292       8303       8302       8412       8413       8424       8423  
      8292       8293       8304       8303       8413       8414       8425       8424  
      8293       8294       8305       8304       8414       8415       8426       8425  
      8295       8296       8307       8306       8416       8417       8428       8427  
      8296       8297       8308       8307       8417       8418       8429       8428  
      8297       8298       8309       8308       8418       8419       8430       8429  
      8298       8299       8310       8309       8419       8420       8431       8430  
      8299       8300       8311       8310       8420       8421       8432       8431  
      8300       8301       8312       8311       8421       8422       8433       8432  
      8301       8302       8313       8312       8422       8423       8434       8433  
      8302       8303       8314       8313       8423       8424       8435       8434  
      8303       8304       8315       8314       8424       8425       8436       8435  
      8304       8305       8316       8315       8425       8426       8437       8436  
      8306       8307       8318       8317       8427       8428       8439       8438  
      8307       8308       8319       8318       8428       8429       8440       8439  
      8308       8309       8320       8319       8429       8430       8441       8440  
      8309       8310       8321       8320       8430       8431       8442       8441  
      8310       8311       8322       8321       8431       8432       8443       8442  
      8311       8312       8323       8322       8432       8433       8444       8443  
      8312       8313       8324       8323       8433       8434       8445       8444  
      8313       8314       8325       8324       8434       8435       8446       8445  
      8314       8315       8326       8325       8435       8436       8447       8446  
      8315       8316       8327       8326       8436       8437       8448       8447  
      8317       8318       8329       8328       8438       8439       8450       8449  
      8318       8319       8330       8329       8439       8440       8451       8450  
      8319       8320       8331       8330       8440       8441       8452       8451  
      8320       8321       8332       8331       8441       8442       8453       8452  
      8321       8322       8333       8332       8442       8443       8454       8453  
      8322       8323       8334       8333       8443       8444       8455       8454  
      8323       8324       8335       8334       8444       8445       8456       8455  
      8324       8325       8336       8335       8445       8446       8457       8456  
      8325       8326       8337       8336       8446       8447       8458       8457  
      8326       8327       8338       8337       8447       8448       8459       8458  
      8328       8329       8340       8339       8449       8450       8461       8460  
      8329       8330       8341       8340       8450       8451       8462       8461  
      8330       8331       8342       8341       8451       8452       8463       8462  
      8331       8332       8343       8342       8452       8453       8464       8463  
      8332       8333       8344       8343       8453       8454       8465       8464  
      8333       8334       8345       8344       8454       8455       8466       8465  
      8334       8335       8346       8345       8455       8456       8467       8466  
      8335       8336       8347       8346       8456       8457       8468       8467  
      8336       8337       8348       8347       8457       8458       8469       8468  
      8337       8338       8349       8348       8458       8459       8470       8469  
      8350       8351       8362       8361       8471       8472       8483       8482  
      8351       8352       8363       8362       8472       8473       8484       8483  
      8352       8353       8364       8363       8473       8474       8485       8484  
      8353       8354       8365       8364       8474       8475       8486       8485  
      8354       8355       8366       8365       8475       8476       8487       8486  
      8355       8356       8367       8366       8476       8477       8488       8487  
      8356       8357       8368       8367       8477       8478       8489       8488  
      8357       8358       8369       8368       8478       8479       8490       8489  
      8358       8359       8370       8369       8479       8480       8491       8490  
      8359       8360       8371       8370       8480       8481       8492       8491  
      8361       8362       8373       8372       8482       8483       8494       8493  
      8362       8363       8374       8373       8483       8484       8495       8494  
      8363       8364       8375       8374       8484       8485       8496       8495  
      8364       8365       8376       8375       8485       8486       8497       8496  
      8365       8366       8377       8376       8486       8487       8498       8497  
      8366       8367       8378       8377       8487       8488       8499       8498  
      8367       8368       8379       8378       8488       8489       8500       8499  
      8368       8369       8380       8379       8489       8490       8501       8500  
      8369       8370       8381       8380       8490       8491       8502       8501  
      8370       8371       8382       8381       8491       8492       8503       8502  
      8372       8373       8384       8383       8493       8494       8505       8504  
      8373       8374       8385       8384       8494       8495       8506       8505  
      8374       8375       8386       8385       8495       8496       8507       8506  
      8375       8376       8387       8386       8496       8497       8508       8507  
      8376       8377       8388       8387       8497       8498       8509       8508  
      8377       8378       8389       8388       8498       8499       8510       8509  
      8378       8379       8390       8389       8499       8500       8511       8510  
      8379       8380       8391       8390       8500       8501       8512       8511  
      8380       8381       8392       8391       8501       8502       8513       8512  
      8381       8382       8393       8392       8502       8503       8514       8513  
      8383       8384       8395       8394       8504       8505       8516       8515  
      8384       8385       8396       8395       8505       8506       8517       8516  
      8385       8386       8397       8396       8506       8507       8518       8517  
      8386       8387       8398       8397       8507       8508       8519       8518  
      8387       8388       8399       8398       8508       8509       8520       8519  
      8388       8389       8400       8399       8509       8510       8521       8520  
      8389       8390       8401       8400       8510       8511       8522       8521  
      8390       8391       8402       8401       8511       8512       8523       8522  
      8391       8392       8403       8402       8512       8513       8524       8523  
      8392       8393       8404       8403       8513       8514       8525       8524  
      8394       8395       8406       8405       8515       8516       8527       8526  
      8395       8396       8407       8406       8516       8517       8528       8527  
      8396       8397       8408       8407       8517       8518       8529       8528  
      8397       8398       8409       8408       8518       8519       8530       8529  
      8398       8399       8410       8409       8519       8520       8531       8530  
      8399       8400       8411       8410       8520       8521       8532       8531  
      8400       8401       8412       8411       8521       8522       8533       8532  
      8401       8402       8413       8412       8522       8523       8534       8533  
      8402       8403       8414       8413       8523       8524       8535       8534  
      8403       8404       8415       8414       8524       8525       8536       8535  
      8405       8406       8417       8416       8526       8527       8538       8537  
      8406       8407       8418       8417       8527       8528       8539       8538  
      8407       8408       8419       8418       8528       8529       8540       8539  
      8408       8409       8420       8419       8529       8530       8541       8540  
      8409       8410       8421       8420       8530       8531       8542       8541  
      8410       8411       8422       8421       8531       8532       8543       8542  
      8411       8412       8423       8422       8532       8533       8544       8543  
      8412       8413       8424       8423       8533       8534       8545       8544  
      8413       8414       8425       8424       8534       8535       8546       8545  
      8414       8415       8426       8425       8535       8536       8547       8546  
      8416       8417       8428       8427       8537       8538       8549       8548  
      8417       8418       8429       8428       8538       8539       8550       8549  
      8418       8419       8430       8429       8539       8540       8551       8550  
      8419       8420       8431       8430       8540       8541       8552       8551  
      8420       8421       8432       8431       8541       8542       8553       8552  
      8421       8422       8433       8432       8542       8543       8554       8553  
      8422       8423       8434       8433       8543       8544       8555       8554  
      8423       8424       8435       8434       8544       8545       8556       8555  
      8424       8425       8436       8435       8545       8546       8557       8556  
      8425       8426       8437       8436       8546       8547       8558       8557  
      8427       8428       8439       8438       8548       8549       8560       8559  
      8428       8429       8440       8439       8549       8550       8561       8560  
      8429       8430       8441       8440       8550       8551       8562       8561  
      8430       8431       8442       8441       8551       8552       8563       8562  
      8431       8432       8443       8442       8552       8553       8564       8563  
      8432       8433       8444       8443       8553       8554       8565       8564  
      8433       8434       8445       8444       8554       8555       8566       8565  
      8434       8435       8446       8445       8555       8556       8567       8566  
      8435       8436       8447       8446       8556       8557       8568       8567  
      8436       8437       8448       8447       8557       8558       8569       8568  
      8438       8439       8450       8449       8559       8560       8571       8570  
      8439       8440       8451       8450       8560       8561       8572       8571  
      8440       8441       8452       8451       8561       8562       8573       8572  
      8441       8442       8453       8452       8562       8563       8574       8573  
      8442       8443       8454       8453       8563       8564       8575       8574  
      8443       8444       8455       8454       8564       8565       8576       8575  
      8444       8445       8456       8455       8565       8566       8577       8576  
      8445       8446       8457       8456       8566       8567       8578       8577  
      8446       8447       8458       8457       8567       8568       8579       8578  
      8447       8448       8459       8458       8568       8569       8580       8579  
      8449       8450       8461       8460       8570       8571       8582       8581  
      8450       8451       8462       8461       8571       8572       8583       8582  
      8451       8452       8463       8462       8572       8573       8584       8583  
      8452       8453       8464       8463       8573       8574       8585       8584  
      8453       8454       8465       8464       8574       8575       8586       8585  
      8454       8455       8466       8465       8575       8576       8587       8586  
      8455       8456       8467       8466       8576       8577       8588       8587  
      8456       8457       8468       8467       8577       8578       8589       8588  
      8457       8458       8469       8468       8578       8579       8590       8589  
      8458       8459       8470       8469       8579       8580       8591       8590  
      8471       8472       8483       8482       8592       8593       8604       8603  
      8472       8473       8484       8483       8593       8594       8605       8604  
      8473       8474       8485       8484       8594       8595       8606       8605  
      8474       8475       8486       8485       8595       8596       8607       8606  
      8475       8476       8487       8486       8596       8597       8608       8607  
      8476       8477       8488       8487       8597       8598       8609       8608  
      8477       8478       8489       8488       8598       8599       8610       8609  
      8478       8479       8490       8489       8599       8600       8611       8610  
      8479       8480       8491       8490       8600       8601       8612       8611  
      8480       8481       8492       8491       8601       8602       8613       8612  
      8482       8483       8494       8493       8603       8604       8615       8614  
      8483       8484       8495       8494       8604       8605       8616       8615  
      8484       8485       8496       8495       8605       8606       8617       8616  
      8485       8486       8497       8496       8606       8607       8618       8617  
      8486       8487       8498       8497       8607       8608       8619       8618  
      8487       8488       8499       8498       8608       8609       8620       8619  
      8488       8489       8500       8499       8609       8610       8621       8620  
      8489       8490       8501       8500       8610       8611       8622       8621  
      8490       8491       8502       8501       8611       8612       8623       8622  
      8491       8492       8503       8502       8612       8613       8624       8623  
      8493       8494       8505       8504       8614       8615       8626       8625  
      8494       8495       8506       8505       8615       8616       8627       8626  
      8495       8496       8507       8506       8616       8617       8628       8627  
      8496       8497       8508       8507       8617       8618       8629       8628  
      8497       8498       8509       8508       8618       8619       8630       8629  
      8498       8499       8510       8509       8619       8620       8631       8630  
      8499       8500       8511       8510       8620       8621       8632       8631  
      8500       8501       8512       8511       8621       8622       8633       8632  
      8501       8502       8513       8512       8622       8623       8634       8633  
      8502       8503       8514       8513       8623       8624       8635       8634  
      8504       8505       8516       8515       8625       8626       8637       8636  
      8505       8506       8517       8516       8626       8627       8638       8637  
      8506       8507       8518       8517       8627       8628       8639       8638  
      8507       8508       8519       8518       8628       8629       8640       8639  
      8508       8509       8520       8519       8629       8630       8641       8640  
      8509       8510       8521       8520       8630       8631       8642       8641  
      8510       8511       8522       8521       8631       8632       8643       8642  
      8511       8512       8523       8522       8632       8633       8644       8643  
      8512       8513       8524       8523       8633       8634       8645       8644  
      8513       8514       8525       8524       8634       8635       8646       8645  
      8515       8516       8527       8526       8636       8637       8648       8647  
      8516       8517       8528       8527       8637       8638       8649       8648  
      8517       8518       8529       8528       8638       8639       8650       8649  
      8518       8519       8530       8529       8639       8640       8651       8650  
      8519       8520       8531       8530       8640       8641       8652       8651  
      8520       8521       8532       8531       8641       8642       8653       8652  
      8521       8522       8533       8532       8642       8643       8654       8653  
      8522       8523       8534       8533       8643       8644       8655       8654  
      8523       8524       8535       8534       8644       8645       8656       8655  
      8524       8525       8536       8535       8645       8646       8657       8656  
      8526       8527       8538       8537       8647       8648       8659       8658  
      8527       8528       8539       8538       8648       8649       8660       8659  
      8528       8529       8540       8539       8649       8650       8661       8660  
      8529       8530       8541       8540       8650       8651       8662       8661  
      8530       8531       8542       8541       8651       8652       8663       8662  
      8531       8532       8543       8542       8652       8653       8664       8663  
      8532       8533       8544       8543       8653       8654       8665       8664  
      8533       8534       8545       8544       8654       8655       8666       8665  
      8534       8535       8546       8545       8655       8656       8667       8666  
      8535       8536       8547       8546       8656       8657       8668       8667  
      8537       8538       8549       8548       8658       8659       8670       8669  
      8538       8539       8550       8549       8659       8660       8671       8670  
      8539       8540       8551       8550       8660       8661       8672       8671  
      8540       8541       8552       8551       8661       8662       8673       8672  
      8541       8542       8553       8552       8662       8663       8674       8673  
      8542       8543       8554       8553       8663       8664       8675       8674  
      8543       8544       8555       8554       8664       8665       8676       8675  
      8544       8545       8556       8555       8665       8666       8677       8676  
      8545       8546       8557       8556       8666       8667       8678       8677  
      8546       8547       8558       8557       8667       8668       8679       8678  
      8548       8549       8560       8559       8669       8670       8681       8680  
      8549       8550       8561       8560       8670       8671       8682       8681  
      8550       8551       8562       8561       8671       8672       8683       8682  
      8551       8552       8563       8562       8672       8673       8684       8683  
      8552       8553       8564       8563       8673       8674       8685       8684  
      8553       8554       8565       8564       8674       8675       8686       8685  
      8554       8555       8566       8565       8675       8676       8687       8686  
      8555       8556       8567       8566       8676       8677       8688       8687  
      8556       8557       8568       8567       8677       8678       8689       8688  
      8557       8558       8569       8568       8678       8679       8690       8689  
      8559       8560       8571       8570       8680       8681       8692       8691  
      8560       8561       8572       8571       8681       8682       8693       8692  
      8561       8562       8573       8572       8682       8683       8694       8693  
      8562       8563       8574       8573       8683       8684       8695       8694  
      8563       8564       8575       8574       8684       8685       8696       8695  
      8564       8565       8576       8575       8685       8686       8697       8696  
      8565       8566       8577       8576       8686       8687       8698       8697  
      8566       8567       8578       8577       8687       8688       8699       8698  
      8567       8568       8579       8578       8688       8689       8700       8699  
      8568       8569       8580       8579       8689       8690       8701       8700  
      8570       8571       8582       8581       8691       8692       8703       8702  
      8571       8572       8583       8582       8692       8693       8704       8703  
      8572       8573       8584       8583       8693       8694       8705       8704  
      8573       8574       8585       8584       8694       8695       8706       8705  
      8574       8575       8586       8585       8695       8696       8707       8706  
      8575       8576       8587       8586       8696       8697       8708       8707  
      8576       8577       8588       8587       8697       8698       8709       8708  
      8577       8578       8589       8588       8698       8699       8710       8709  
      8578       8579       8590       8589       8699       8700       8711       8710  
      8579       8580       8591       8590       8700       8701       8712       8711  
      8592       8593       8604       8603       8713       8714       8725       8724  
      8593       8594       8605       8604       8714       8715       8726       8725  
      8594       8595       8606       8605       8715       8716       8727       8726  
      8595       8596       8607       8606       8716       8717       8728       8727  
      8596       8597       8608       8607       8717       8718       8729       8728  
      8597       8598       8609       8608       8718       8719       8730       8729  
      8598       8599       8610       8609       8719       8720       8731       8730  
      8599       8600       8611       8610       8720       8721       8732       8731  
      8600       8601       8612       8611       8721       8722       8733       8732  
      8601       8602       8613       8612       8722       8723       8734       8733  
      8603       8604       8615       8614       8724       8725       8736       8735  
      8604       8605       8616       8615       8725       8726       8737       8736  
      8605       8606       8617       8616       8726       8727       8738       8737  
      8606       8607       8618       8617       8727       8728       8739       8738  
      8607       8608       8619       8618       8728       8729       8740       8739  
      8608       8609       8620       8619       8729       8730       8741       8740  
      8609       8610       8621       8620       8730       8731       8742       8741  
      8610       8611       8622       8621       8731       8732       8743       8742  
      8611       8612       8623       8622       8732       8733       8744       8743  
      8612       8613       8624       8623       8733       8734       8745       8744  
      8614       8615       8626       8625       8735       8736       8747       8746  
      8615       8616       8627       8626       8736       8737       8748       8747  
      8616       8617       8628       8627       8737       8738       8749       8748  
      8617       8618       8629       8628       8738       8739       8750       8749  
      8618       8619       8630       8629       8739       8740       8751       8750  
      8619       8620       8631       8630       8740       8741       8752       8751  
      8620       8621       8632       8631       8741       8742       8753       8752  
      8621       8622       8633       8632       8742       8743       8754       8753  
      8622       8623       8634       8633       8743       8744       8755       8754  
      8623       8624       8635       8634       8744       8745       8756       8755  
      8625       8626       8637       8636       8746       8747       8758       8757  
      8626       8627       8638       8637       8747       8748       8759       8758  
      8627       8628       8639       8638       8748       8749       8760       8759  
      8628       8629       8640       8639       8749       8750       8761       8760  
      8629       8630       8641       8640       8750       8751       8762       8761  
      8630       8631       8642       8641       8751       8752       8763       8762  
      8631       8632       8643       8642       8752       8753       8764       8763  
      8632       8633       8644       8643       8753       8754       8765       8764  
      8633       8634       8645       8644       8754       8755       8766       8765  
      8634       8635       8646       8645       8755       8756       8767       8766  
      8636       8637       8648       8647       8757       8758       8769       8768  
      8637       8638       8649       8648       8758       8759       8770       8769  
      8638       8639       8650       8649       8759       8760       8771       8770  
      8639       8640       8651       8650       8760       8761       8772       8771  
      8640       8641       8652       8651       8761       8762       8773       8772  
      8641       8642       8653       8652       8762       8763       8774       8773  
      8642       8643       8654       8653       8763       8764       8775       8774  
      8643       8644       8655       8654       8764       8765       8776       8775  
      8644       8645       8656       8655       8765       8766       8777       8776  
      8645       8646       8657       8656       8766       8767       8778       8777  
      8647       8648       8659       8658       8768       8769       8780       8779  
      8648       8649       8660       8659       8769       8770       8781       8780  
      8649       8650       8661       8660       8770       8771       8782       8781  
      8650       8651       8662       8661       8771       8772       8783       8782  
      8651       8652       8663       8662       8772       8773       8784       8783  
      8652       8653       8664       8663       8773       8774       8785       8784  
      8653       8654       8665       8664       8774       8775       8786       8785  
      8654       8655       8666       8665       8775       8776       8787       8786  
      8655       8656       8667       8666       8776       8777       8788       8787  
      8656       8657       8668       8667       8777       8778       8789       8788  
      8658       8659       8670       8669       8779       8780       8791       8790  
      8659       8660       8671       8670       8780       8781       8792       8791  
      8660       8661       8672       8671       8781       8782       8793       8792  
      8661       8662       8673       8672       8782       8783       8794       8793  
      8662       8663       8674       8673       8783       8784       8795       8794  
      8663       8664       8675       8674       8784       8785       8796       8795  
      8664       8665       8676       8675       8785       8786       8797       8796  
      8665       8666       8677       8676       8786       8787       8798       8797  
      8666       8667       8678       8677       8787       8788       8799       8798  
      8667       8668       8679       8678       8788       8789       8800       8799  
      8669       8670       8681       8680       8790       8791       8802       8801  
      8670       8671       8682       8681       8791       8792       8803       8802  
      8671       8672       8683       8682       8792       8793       8804       8803  
      8672       8673       8684       8683       8793       8794       8805       8804  
      8673       8674       8685       8684       8794       8795       8806       8805  
      8674       8675       8686       8685       8795       8796       8807       8806  
      8675       8676       8687       8686       8796       8797       8808       8807  
      8676       8677       8688       8687       8797       8798       8809       8808  
      8677       8678       8689       8688       8798       8799       8810       8809  
      8678       8679       8690       8689       8799       8800       8811       8810  
      8680       8681       8692       8691       8801       8802       8813       8812  
      8681       8682       8693       8692       8802       8803       8814       8813  
      8682       8683       8694       8693       8803       8804       8815       8814  
      8683       8684       8695       8694       8804       8805       8816       8815  
      8684       8685       8696       8695       8805       8806       8817       8816  
      8685       8686       8697       8696       8806       8807       8818       8817  
      8686       8687       8698       8697       8807       8808       8819       8818  
      8687       8688       8699       8698       8808       8809       8820       8819  
      8688       8689       8700       8699       8809       8810       8821       8820  
      8689       8690       8701       8700       8810       8811       8822       8821  
      8691       8692       8703       8702       8812       8813       8824       8823  
      8692       8693       8704       8703       8813       8814       8825       8824  
      8693       8694       8705       8704       8814       8815       8826       8825  
      8694       8695       8706       8705       8815       8816       8827       8826  
      8695       8696       8707       8706       8816       8817       8828       8827  
      8696       8697       8708       8707       8817       8818       8829       8828  
      8697       8698       8709       8708       8818       8819       8830       8829  
      8698       8699       8710       8709       8819       8820       8831       8830  
      8699       8700       8711       8710       8820       8821       8832       8831  
      8700       8701       8712       8711       8821       8822       8833       8832  
      8713       8714       8725       8724       8834       8835       8846       8845  
      8714       8715       8726       8725       8835       8836       8847       8846  
      8715       8716       8727       8726       8836       8837       8848       8847  
      8716       8717       8728       8727       8837       8838       8849       8848  
      8717       8718       8729       8728       8838       8839       8850       8849  
      8718       8719       8730       8729       8839       8840       8851       8850  
      8719       8720       8731       8730       8840       8841       8852       8851  
      8720       8721       8732       8731       8841       8842       8853       8852  
      8721       8722       8733       8732       8842       8843       8854       8853  
      8722       8723       8734       8733       8843       8844       8855       8854  
      8724       8725       8736       8735       8845       8846       8857       8856  
      8725       8726       8737       8736       8846       8847       8858       8857  
      8726       8727       8738       8737       8847       8848       8859       8858  
      8727       8728       8739       8738       8848       8849       8860       8859  
      8728       8729       8740       8739       8849       8850       8861       8860  
      8729       8730       8741       8740       8850       8851       8862       8861  
      8730       8731       8742       8741       8851       8852       8863       8862  
      8731       8732       8743       8742       8852       8853       8864       8863  
      8732       8733       8744       8743       8853       8854       8865       8864  
      8733       8734       8745       8744       8854       8855       8866       8865  
      8735       8736       8747       8746       8856       8857       8868       8867  
      8736       8737       8748       8747       8857       8858       8869       8868  
      8737       8738       8749       8748       8858       8859       8870       8869  
      8738       8739       8750       8749       8859       8860       8871       8870  
      8739       8740       8751       8750       8860       8861       8872       8871  
      8740       8741       8752       8751       8861       8862       8873       8872  
      8741       8742       8753       8752       8862       8863       8874       8873  
      8742       8743       8754       8753       8863       8864       8875       8874  
      8743       8744       8755       8754       8864       8865       8876       8875  
      8744       8745       8756       8755       8865       8866       8877       8876  
      8746       8747       8758       8757       8867       8868       8879       8878  
      8747       8748       8759       8758       8868       8869       8880       8879  
      8748       8749       8760       8759       8869       8870       8881       8880  
      8749       8750       8761       8760       8870       8871       8882       8881  
      8750       8751       8762       8761       8871       8872       8883       8882  
      8751       8752       8763       8762       8872       8873       8884       8883  
      8752       8753       8764       8763       8873       8874       8885       8884  
      8753       8754       8765       8764       8874       8875       8886       8885  
      8754       8755       8766       8765       8875       8876       8887       8886  
      8755       8756       8767       8766       8876       8877       8888       8887  
      8757       8758       8769       8768       8878       8879       8890       8889  
      8758       8759       8770       8769       8879       8880       8891       8890  
      8759       8760       8771       8770       8880       8881       8892       8891  
      8760       8761       8772       8771       8881       8882       8893       8892  
      8761       8762       8773       8772       8882       8883       8894       8893  
      8762       8763       8774       8773       8883       8884       8895       8894  
      8763       8764       8775       8774       8884       8885       8896       8895  
      8764       8765       8776       8775       8885       8886       8897       8896  
      8765       8766       8777       8776       8886       8887       8898       8897  
      8766       8767       8778       8777       8887       8888       8899       8898  
      8768       8769       8780       8779       8889       8890       8901       8900  
      8769       8770       8781       8780       8890       8891       8902       8901  
      8770       8771       8782       8781       8891       8892       8903       8902  
      8771       8772       8783       8782       8892       8893       8904       8903  
      8772       8773       8784       8783       8893       8894       8905       8904  
      8773       8774       8785       8784       8894       8895       8906       8905  
      8774       8775       8786       8785       8895       8896       8907       8906  
      8775       8776       8787       8786       8896       8897       8908       8907  
      8776       8777       8788       8787       8897       8898       8909       8908  
      8777       8778       8789       8788       8898       8899       8910       8909  
      8779       8780       8791       8790       8900       8901       8912       8911  
      8780       8781       8792       8791       8901       8902       8913       8912  
      8781       8782       8793       8792       8902       8903       8914       8913  
      8782       8783       8794       8793       8903       8904       8915       8914  
      8783       8784       8795       8794       8904       8905       8916       8915  
      8784       8785       8796       8795       8905       8906       8917       8916  
      8785       8786       8797       8796       8906       8907       8918       8917  
      8786       8787       8798       8797       8907       8908       8919       8918  
      8787       8788       8799       8798       8908       8909       8920       8919  
      8788       8789       8800       8799       8909       8910       8921       8920  
      8790       8791       8802       8801       8911       8912       8923       8922  
      8791       8792       8803       8802       8912       8913       8924       8923  
      8792       8793       8804       8803       8913       8914       8925       8924  
      8793       8794       8805       8804       8914       8915       8926       8925  
      8794       8795       8806       8805       8915       8916       8927       8926  
      8795       8796       8807       8806       8916       8917       8928       8927  
      8796       8797       8808       8807       8917       8918       8929       8928  
      8797       8798       8809       8808       8918       8919       8930       8929  
      8798       8799       8810       8809       8919       8920       8931       8930  
      8799       8800       8811       8810       8920       8921       8932       8931  
      8801       8802       8813       8812       8922       8923       8934       8933  
      8802       8803       8814       8813       8923       8924       8935       8934  
      8803       8804       8815       8814       8924       8925       8936       8935  
      8804       8805       8816       8815       8925       8926       8937       8936  
      8805       8806       8817       8816       8926       8927       8938       8937  
      8806       8807       8818       8817       8927       8928       8939       8938  
      8807       8808       8819       8818       8928       8929       8940       8939  
      8808       8809       8820       8819       8929       8930       8941       8940  
      8809       8810       8821       8820       8930       8931       8942       8941  
      8810       8811       8822       8821       8931       8932       8943       8942  
      8812       8813       8824       8823       8933       8934       8945       8944  
      8813       8814       8825       8824       8934       8935       8946       8945  
      8814       8815       8826       8825       8935       8936       8947       8946  
      8815       8816       8827       8826       8936       8937       8948       8947  
      8816       8817       8828       8827       8937       8938       8949       8948  
      8817       8818       8829       8828       8938       8939       8950       8949  
      8818       8819       8830       8829       8939       8940       8951       8950  
      8819       8820       8831       8830       8940       8941       8952       8951  
      8820       8821       8832       8831       8941       8942       8953       8952  
      8821       8822       8833       8832       8942       8943       8954       8953  
      8834       8835       8846       8845       8955       8956       8967       8966  
      8835       8836       8847       8846       8956       8957       8968       8967  
      8836       8837       8848       8847       8957       8958       8969       8968  
      8837       8838       8849       8848       8958       8959       8970       8969  
      8838       8839       8850       8849       8959       8960       8971       8970  
      8839       8840       8851       8850       8960       8961       8972       8971  
      8840       8841       8852       8851       8961       8962       8973       8972  
      8841       8842       8853       8852       8962       8963       8974       8973  
      8842       8843       8854       8853       8963       8964       8975       8974  
      8843       8844       8855       8854       8964       8965       8976       8975  
      8845       8846       8857       8856       8966       8967       8978       8977  
      8846       8847       8858       8857       8967       8968       8979       8978  
      8847       8848       8859       8858       8968       8969       8980       8979  
      8848       8849       8860       8859       8969       8970       8981       8980  
      8849       8850       8861       8860       8970       8971       8982       8981  
      8850       8851       8862       8861       8971       8972       8983       8982  
      8851       8852       8863       8862       8972       8973       8984       8983  
      8852       8853       8864       8863       8973       8974       8985       8984  
      8853       8854       8865       8864       8974       8975       8986       8985  
      8854       8855       8866       8865       8975       8976       8987       8986  
      8856       8857       8868       8867       8977       8978       8989       8988  
      8857       8858       8869       8868       8978       8979       8990       8989  
      8858       8859       8870       8869       8979       8980       8991       8990  
      8859       8860       8871       8870       8980       8981       8992       8991  
      8860       8861       8872       8871       8981       8982       8993       8992  
      8861       8862       8873       8872       8982       8983       8994       8993  
      8862       8863       8874       8873       8983       8984       8995       8994  
      8863       8864       8875       8874       8984       8985       8996       8995  
      8864       8865       8876       8875       8985       8986       8997       8996  
      8865       8866       8877       8876       8986       8987       8998       8997  
      8867       8868       8879       8878       8988       8989       9000       8999  
      8868       8869       8880       8879       8989       8990       9001       9000  
      8869       8870       8881       8880       8990       8991       9002       9001  
      8870       8871       8882       8881       8991       8992       9003       9002  
      8871       8872       8883       8882       8992       8993       9004       9003  
      8872       8873       8884       8883       8993       8994       9005       9004  
      8873       8874       8885       8884       8994       8995       9006       9005  
      8874       8875       8886       8885       8995       8996       9007       9006  
      8875       8876       8887       8886       8996       8997       9008       9007  
      8876       8877       8888       8887       8997       8998       9009       9008  
      8878       8879       8890       8889       8999       9000       9011       9010  
      8879       8880       8891       8890       9000       9001       9012       9011  
      8880       8881       8892       8891       9001       9002       9013       9012  
      8881       8882       8893       8892       9002       9003       9014       9013  
      8882       8883       8894       8893       9003       9004       9015       9014  
      8883       8884       8895       8894       9004       9005       9016       9015  
      8884       8885       8896       8895       9005       9006       9017       9016  
      8885       8886       8897       8896       9006       9007       9018       9017  
      8886       8887       8898       8897       9007       9008       9019       9018  
      8887       8888       8899       8898       9008       9009       9020       9019  
      8889       8890       8901       8900       9010       9011       9022       9021  
      8890       8891       8902       8901       9011       9012       9023       9022  
      8891       8892       8903       8902       9012       9013       9024       9023  
      8892       8893       8904       8903       9013       9014       9025       9024  
      8893       8894       8905       8904       9014       9015       9026       9025  
      8894       8895       8906       8905       9015       9016       9027       9026  
      8895       8896       8907       8906       9016       9017       9028       9027  
      8896       8897       8908       8907       9017       9018       9029       9028  
      8897       8898       8909       8908       9018       9019       9030       9029  
      8898       8899       8910       8909       9019       9020       9031       9030  
      8900       8901       8912       8911       9021       9022       9033       9032  
      8901       8902       8913       8912       9022       9023       9034       9033  
      8902       8903       8914       8913       9023       9024       9035       9034  
      8903       8904       8915       8914       9024       9025       9036       9035  
      8904       8905       8916       8915       9025       9026       9037       9036  
      8905       8906       8917       8916       9026       9027       9038       9037  
      8906       8907       8918       8917       9027       9028       9039       9038  
      8907       8908       8919       8918       9028       9029       9040       9039  
      8908       8909       8920       8919       9029       9030       9041       9040  
      8909       8910       8921       8920       9030       9031       9042       9041  
      8911       8912       8923       8922       9032       9033       9044       9043  
      8912       8913       8924       8923       9033       9034       9045       9044  
      8913       8914       8925       8924       9034       9035       9046       9045  
      8914       8915       8926       8925       9035       9036       9047       9046  
      8915       8916       8927       8926       9036       9037       9048       9047  
      8916       8917       8928       8927       9037       9038       9049       9048  
      8917       8918       8929       8928       9038       9039       9050       9049  
      8918       8919       8930       8929       9039       9040       9051       9050  
      8919       8920       8931       8930       9040       9041       9052       9051  
      8920       8921       8932       8931       9041       9042       9053       9052  
      8922       8923       8934       8933       9043       9044       9055       9054  
      8923       8924       8935       8934       9044       9045       9056       9055  
      8924       8925       8936       8935       9045       9046       9057       9056  
      8925       8926       8937       8936       9046       9047       9058       9057  
      8926       8927       8938       8937       9047       9048       9059       9058  
      8927       8928       8939       8938       9048       9049       9060       9059  
      8928       8929       8940       8939       9049       9050       9061       9060  
      8929       8930       8941       8940       9050       9051       9062       9061  
      8930       8931       8942       8941       9051       9052       9063       9062  
      8931       8932       8943       8942       9052       9053       9064       9063  
      8933       8934       8945       8944       9054       9055       9066       9065  
      8934       8935       8946       8945       9055       9056       9067       9066  
      8935       8936       8947       8946       9056       9057       9068       9067  
      8936       8937       8948       8947       9057       9058       9069       9068  
      8937       8938       8949       8948       9058       9059       9070       9069  
      8938       8939       8950       8949       9059       9060       9071       9070  
      8939       8940       8951       8950       9060       9061       9072       9071  
      8940       8941       8952       8951       9061       9062       9073       9072  
      8941       8942       8953       8952       9062       9063       9074       9073  
      8942       8943       8954       8953       9063       9064       9075       9074  
      8955       8956       8967       8966       9076       9077       9088       9087  
      8956       8957       8968       8967       9077       9078       9089       9088  
      8957       8958       8969       8968       9078       9079       9090       9089  
      8958       8959       8970       8969       9079       9080       9091       9090  
      8959       8960       8971       8970       9080       9081       9092       9091  
      8960       8961       8972       8971       9081       9082       9093       9092  
      8961       8962       8973       8972       9082       9083       9094       9093  
      8962       8963       8974       8973       9083       9084       9095       9094  
      8963       8964       8975       8974       9084       9085       9096       9095  
      8964       8965       8976       8975       9085       9086       9097       9096  
      8966       8967       8978       8977       9087       9088       9099       9098  
      8967       8968       8979       8978       9088       9089       9100       9099  
      8968       8969       8980       8979       9089       9090       9101       9100  
      8969       8970       8981       8980       9090       9091       9102       9101  
      8970       8971       8982       8981       9091       9092       9103       9102  
      8971       8972       8983       8982       9092       9093       9104       9103  
      8972       8973       8984       8983       9093       9094       9105       9104  
      8973       8974       8985       8984       9094       9095       9106       9105  
      8974       8975       8986       8985       9095       9096       9107       9106  
      8975       8976       8987       8986       9096       9097       9108       9107  
      8977       8978       8989       8988       9098       9099       9110       9109  
      8978       8979       8990       8989       9099       9100       9111       9110  
      8979       8980       8991       8990       9100       9101       9112       9111  
      8980       8981       8992       8991       9101       9102       9113       9112  
      8981       8982       8993       8992       9102       9103       9114       9113  
      8982       8983       8994       8993       9103       9104       9115       9114  
      8983       8984       8995       8994       9104       9105       9116       9115  
      8984       8985       8996       8995       9105       9106       9117       9116  
      8985       8986       8997       8996       9106       9107       9118       9117  
      8986       8987       8998       8997       9107       9108       9119       9118  
      8988       8989       9000       8999       9109       9110       9121       9120  
      8989       8990       9001       9000       9110       9111       9122       9121  
      8990       8991       9002       9001       9111       9112       9123       9122  
      8991       8992       9003       9002       9112       9113       9124       9123  
      8992       8993       9004       9003       9113       9114       9125       9124  
      8993       8994       9005       9004       9114       9115       9126       9125  
      8994       8995       9006       9005       9115       9116       9127       9126  
      8995       8996       9007       9006       9116       9117       9128       9127  
      8996       8997       9008       9007       9117       9118       9129       9128  
      8997       8998       9009       9008       9118       9119       9130       9129  
      8999       9000       9011       9010       9120       9121       9132       9131  
      9000       9001       9012       9011       9121       9122       9133       9132  
      9001       9002       9013       9012       9122       9123       9134       9133  
      9002       9003       9014       9013       9123       9124       9135       9134  
      9003       9004       9015       9014       9124       9125       9136       9135  
      9004       9005       9016       9015       9125       9126       9137       9136  
      9005       9006       9017       9016       9126       9127       9138       9137  
      9006       9007       9018       9017       9127       9128       9139       9138  
      9007       9008       9019       9018       9128       9129       9140       9139  
      9008       9009       9020       9019       9129       9130       9141       9140  
      9010       9011       9022       9021       9131       9132       9143       9142  
      9011       9012       9023       9022       9132       9133       9144       9143  
      9012       9013       9024       9023       9133       9134       9145       9144  
      9013       9014       9025       9024       9134       9135       9146       9145  
      9014       9015       9026       9025       9135       9136       9147       9146  
      9015       9016       9027       9026       9136       9137       9148       9147  
      9016       9017       9028       9027       9137       9138       9149       9148  
      9017       9018       9029       9028       9138       9139       9150       9149  
      9018       9019       9030       9029       9139       9140       9151       9150  
      9019       9020       9031       9030       9140       9141       9152       9151  
      9021       9022       9033       9032       9142       9143       9154       9153  
      9022       9023       9034       9033       9143       9144       9155       9154  
      9023       9024       9035       9034       9144       9145       9156       9155  
      9024       9025       9036       9035       9145       9146       9157       9156  
      9025       9026       9037       9036       9146       9147       9158       9157  
      9026       9027       9038       9037       9147       9148       9159       9158  
      9027       9028       9039       9038       9148       9149       9160       9159  
      9028       9029       9040       9039       9149       9150       9161       9160  
      9029       9030       9041       9040       9150       9151       9162       9161  
      9030       9031       9042       9041       9151       9152       9163       9162  
      9032       9033       9044       9043       9153       9154       9165       9164  
      9033       9034       9045       9044       9154       9155       9166       9165  
      9034       9035       9046       9045       9155       9156       9167       9166  
      9035       9036       9047       9046       9156       9157       9168       9167  
      9036       9037       9048       9047       9157       9158       9169       9168  
      9037       9038       9049       9048       9158       9159       9170       9169  
      9038       9039       9050       9049       9159       9160       9171       9170  
      9039       9040       9051       9050       9160       9161       9172       9171  
      9040       9041       9052       9051       9161       9162       9173       9172  
      9041       9042       9053       9052       9162       9163       9174       9173  
      9043       9044       9055       9054       9164       9165       9176       9175  
      9044       9045       9056       9055       9165       9166       9177       9176  
      9045       9046       9057       9056       9166       9167       9178       9177  
      9046       9047       9058       9057       9167       9168       9179       9178  
      9047       9048       9059       9058       9168       9169       9180       9179  
      9048       9049       9060       9059       9169       9170       9181       9180  
      9049       9050       9061       9060       9170       9171       9182       9181  
      9050       9051       9062       9061       9171       9172       9183       9182  
      9051       9052       9063       9062       9172       9173       9184       9183  
      9052       9053       9064       9063       9173       9174       9185       9184  
      9054       9055       9066       9065       9175       9176       9187       9186  
      9055       9056       9067       9066       9176       9177       9188       9187  
      9056       9057       9068       9067       9177       9178       9189       9188  
      9057       9058       9069       9068       9178       9179       9190       9189  
      9058       9059       9070       9069       9179       9180       9191       9190  
      9059       9060       9071       9070       9180       9181       9192       9191  
      9060       9061       9072       9071       9181       9182       9193       9192  
      9061       9062       9073       9072       9182       9183       9194       9193  
      9062       9063       9074       9073       9183       9184       9195       9194  
      9063       9064       9075       9074       9184       9185       9196       9195  
      9076       9077       9088       9087       9197       9198       9209       9208  
      9077       9078       9089       9088       9198       9199       9210       9209  
      9078       9079       9090       9089       9199       9200       9211       9210  
      9079       9080       9091       9090       9200       9201       9212       9211  
      9080       9081       9092       9091       9201       9202       9213       9212  
      9081       9082       9093       9092       9202       9203       9214       9213  
      9082       9083       9094       9093       9203       9204       9215       9214  
      9083       9084       9095       9094       9204       9205       9216       9215  
      9084       9085       9096       9095       9205       9206       9217       9216  
      9085       9086       9097       9096       9206       9207       9218       9217  
      9087       9088       9099       9098       9208       9209       9220       9219  
      9088       9089       9100       9099       9209       9210       9221       9220  
      9089       9090       9101       9100       9210       9211       9222       9221  
      9090       9091       9102       9101       9211       9212       9223       9222  
      9091       9092       9103       9102       9212       9213       9224       9223  
      9092       9093       9104       9103       9213       9214       9225       9224  
      9093       9094       9105       9104       9214       9215       9226       9225  
      9094       9095       9106       9105       9215       9216       9227       9226  
      9095       9096       9107       9106       9216       9217       9228       9227  
      9096       9097       9108       9107       9217       9218       9229       9228  
      9098       9099       9110       9109       9219       9220       9231       9230  
      9099       9100       9111       9110       9220       9221       9232       9231  
      9100       9101       9112       9111       9221       9222       9233       9232  
      9101       9102       9113       9112       9222       9223       9234       9233  
      9102       9103       9114       9113       9223       9224       9235       9234  
      9103       9104       9115       9114       9224       9225       9236       9235  
      9104       9105       9116       9115       9225       9226       9237       9236  
      9105       9106       9117       9116       9226       9227       9238       9237  
      9106       9107       9118       9117       9227       9228       9239       9238  
      9107       9108       9119       9118       9228       9229       9240       9239  
      9109       9110       9121       9120       9230       9231       9242       9241  
      9110       9111       9122       9121       9231       9232       9243       9242  
      9111       9112       9123       9122       9232       9233       9244       9243  
      9112       9113       9124       9123       9233       9234       9245       9244  
      9113       9114       9125       9124       9234       9235       9246       9245  
      9114       9115       9126       9125       9235       9236       9247       9246  
      9115       9116       9127       9126       9236       9237       9248       9247  
      9116       9117       9128       9127       9237       9238       9249       9248  
      9117       9118       9129       9128       9238       9239       9250       9249  
      9118       9119       9130       9129       9239       9240       9251       9250  
      9120       9121       9132       9131       9241       9242       9253       9252  
      9121       9122       9133       9132       9242       9243       9254       9253  
      9122       9123       9134       9133       9243       9244       9255       9254  
      9123       9124       9135       9134       9244       9245       9256       9255  
      9124       9125       9136       9135       9245       9246       9257       9256  
      9125       9126       9137       9136       9246       9247       9258       9257  
      9126       9127       9138       9137       9247       9248       9259       9258  
      9127       9128       9139       9138       9248       9249       9260       9259  
      9128       9129       9140       9139       9249       9250       9261       9260  
      9129       9130       9141       9140       9250       9251       9262       9261  
      9131       9132       9143       9142       9252       9253       9264       9263  
      9132       9133       9144       9143       9253       9254       9265       9264  
      9133       9134       9145       9144       9254       9255       9266       9265  
      9134       9135       9146       9145       9255       9256       9267       9266  
      9135       9136       9147       9146       9256       9257       9268       9267  
      9136       9137       9148       9147       9257       9258       9269       9268  
      9137       9138       9149       9148       9258       9259       9270       9269  
      9138       9139       9150       9149       9259       9260       9271       9270  
      9139       9140       9151       9150       9260       9261       9272       9271  
      9140       9141       9152       9151       9261       9262       9273       9272  
      9142       9143       9154       9153       9263       9264       9275       9274  
      9143       9144       9155       9154       9264       9265       9276       9275  
      9144       9145       9156       9155       9265       9266       9277       9276  
      9145       9146       9157       9156       9266       9267       9278       9277  
      9146       9147       9158       9157       9267       9268       9279       9278  
      9147       9148       9159       9158       9268       9269       9280       9279  
      9148       9149       9160       9159       9269       9270       9281       9280  
      9149       9150       9161       9160       9270       9271       9282       9281  
      9150       9151       9162       9161       9271       9272       9283       9282  
      9151       9152       9163       9162       9272       9273       9284       9283  
      9153       9154       9165       9164       9274       9275       9286       9285  
      9154       9155       9166       9165       9275       9276       9287       9286  
      9155       9156       9167       9166       9276       9277       9288       9287  
      9156       9157       9168       9167       9277       9278       9289       9288  
      9157       9158       9169       9168       9278       9279       9290       9289  
      9158       9159       9170       9169       9279       9280       9291       9290  
      9159       9160       9171       9170       9280       9281       9292       9291  
      9160       9161       9172       9171       9281       9282       9293       9292  
      9161       9162       9173       9172       9282       9283       9294       9293  
      9162       9163       9174       9173       9283       9284       9295       9294  
      9164       9165       9176       9175       9285       9286       9297       9296  
      9165       9166       9177       9176       9286       9287       9298       9297  
      9166       9167       9178       9177       9287       9288       9299       9298  
      9167       9168       9179       9178       9288       9289       9300       9299  
      9168       9169       9180       9179       9289       9290       9301       9300  
      9169       9170       9181       9180       9290       9291       9302       9301  
      9170       9171       9182       9181       9291       9292       9303       9302  
      9171       9172       9183       9182       9292       9293       9304       9303  
      9172       9173       9184       9183       9293       9294       9305       9304  
      9173       9174       9185       9184       9294       9295       9306       9305  
      9175       9176       9187       9186       9296       9297       9308       9307  
      9176       9177       9188       9187       9297       9298       9309       9308  
      9177       9178       9189       9188       9298       9299       9310       9309  
      9178       9179       9190       9189       9299       9300       9311       9310  
      9179       9180       9191       9190       9300       9301       9312       9311  
      9180       9181       9192       9191       9301       9302       9313       9312  
      9181       9182       9193       9192       9302       9303       9314       9313  
      9182       9183       9194       9193       9303       9304       9315       9314  
      9183       9184       9195       9194       9304       9305       9316       9315  
      9184       9185       9196       9195       9305       9306       9317       9316  
      9197       9198       9209       9208       9318       9319       9330       9329  
      9198       9199       9210       9209       9319       9320       9331       9330  
      9199       9200       9211       9210       9320       9321       9332       9331  
      9200       9201       9212       9211       9321       9322       9333       9332  
      9201       9202       9213       9212       9322       9323       9334       9333  
      9202       9203       9214       9213       9323       9324       9335       9334  
      9203       9204       9215       9214       9324       9325       9336       9335  
      9204       9205       9216       9215       9325       9326       9337       9336  
      9205       9206       9217       9216       9326       9327       9338       9337  
      9206       9207       9218       9217       9327       9328       9339       9338  
      9208       9209       9220       9219       9329       9330       9341       9340  
      9209       9210       9221       9220       9330       9331       9342       9341  
      9210       9211       9222       9221       9331       9332       9343       9342  
      9211       9212       9223       9222       9332       9333       9344       9343  
      9212       9213       9224       9223       9333       9334       9345       9344  
      9213       9214       9225       9224       9334       9335       9346       9345  
      9214       9215       9226       9225       9335       9336       9347       9346  
      9215       9216       9227       9226       9336       9337       9348       9347  
      9216       9217       9228       9227       9337       9338       9349       9348  
      9217       9218       9229       9228       9338       9339       9350       9349  
      9219       9220       9231       9230       9340       9341       9352       9351  
      9220       9221       9232       9231       9341       9342       9353       9352  
      9221       9222       9233       9232       9342       9343       9354       9353  
      9222       9223       9234       9233       9343       9344       9355       9354  
      9223       9224       9235       9234       9344       9345       9356       9355  
      9224       9225       9236       9235       9345       9346       9357       9356  
      9225       9226       9237       9236       9346       9347       9358       9357  
      9226       9227       9238       9237       9347       9348       9359       9358  
      9227       9228       9239       9238       9348       9349       9360       9359  
      9228       9229       9240       9239       9349       9350       9361       9360  
      9230       9231       9242       9241       9351       9352       9363       9362  
      9231       9232       9243       9242       9352       9353       9364       9363  
      9232       9233       9244       9243       9353       9354       9365       9364  
      9233       9234       9245       9244       9354       9355       9366       9365  
      9234       9235       9246       9245       9355       9356       9367       9366  
      9235       9236       9247       9246       9356       9357       9368       9367  
      9236       9237       9248       9247       9357       9358       9369       9368  
      9237       9238       9249       9248       9358       9359       9370       9369  
      9238       9239       9250       9249       9359       9360       9371       9370  
      9239       9240       9251       9250       9360       9361       9372       9371  
      9241       9242       9253       9252       9362       9363       9374       9373  
      9242       9243       9254       9253       9363       9364       9375       9374  
      9243       9244       9255       9254       9364       9365       9376       9375  
      9244       9245       9256       9255       9365       9366       9377       9376  
      9245       9246       9257       9256       9366       9367       9378       9377  
      9246       9247       9258       9257       9367       9368       9379       9378  
      9247       9248       9259       9258       9368       9369       9380       9379  
      9248       9249       9260       9259       9369       9370       9381       9380  
      9249       9250       9261       9260       9370       9371       9382       9381  
      9250       9251       9262       9261       9371       9372       9383       9382  
      9252       9253       9264       9263       9373       9374       9385       9384  
      9253       9254       9265       9264       9374       9375       9386       9385  
      9254       9255       9266       9265       9375       9376       9387       9386  
      9255       9256       9267       9266       9376       9377       9388       9387  
      9256       9257       9268       9267       9377       9378       9389       9388  
      9257       9258       9269       9268       9378       9379       9390       9389  
      9258       9259       9270       9269       9379       9380       9391       9390  
      9259       9260       9271       9270       9380       9381       9392       9391  
      9260       9261       9272       9271       9381       9382       9393       9392  
      9261       9262       9273       9272       9382       9383       9394       9393  
      9263       9264       9275       9274       9384       9385       9396       9395  
      9264       9265       9276       9275       9385       9386       9397       9396  
      9265       9266       9277       9276       9386       9387       9398       9397  
      9266       9267       9278       9277       9387       9388       9399       9398  
      9267       9268       9279       9278       9388       9389       9400       9399  
      9268       9269       9280       9279       9389       9390       9401       9400  
      9269       9270       9281       9280       9390       9391       9402       9401  
      9270       9271       9282       9281       9391       9392       9403       9402  
      9271       9272       9283       9282       9392       9393       9404       9403  
      9272       9273       9284       9283       9393       9394       9405       9404  
      9274       9275       9286       9285       9395       9396       9407       9406  
      9275       9276       9287       9286       9396       9397       9408       9407  
      9276       9277       9288       9287       9397       9398       9409       9408  
      9277       9278       9289       9288       9398       9399       9410       9409  
      9278       9279       9290       9289       9399       9400       9411       9410  
      9279       9280       9291       9290       9400       9401       9412       9411  
      9280       9281       9292       9291       9401       9402       9413       9412  
      9281       9282       9293       9292       9402       9403       9414       9413  
      9282       9283       9294       9293       9403       9404       9415       9414  
      9283       9284       9295       9294       9404       9405       9416       9415  
      9285       9286       9297       9296       9406       9407       9418       9417  
      9286       9287       9298       9297       9407       9408       9419       9418  
      9287       9288       9299       9298       9408       9409       9420       9419  
      9288       9289       9300       9299       9409       9410       9421       9420  
      9289       9290       9301       9300       9410       9411       9422       9421  
      9290       9291       9302       9301       9411       9412       9423       9422  
      9291       9292       9303       9302       9412       9413       9424       9423  
      9292       9293       9304       9303       9413       9414       9425       9424  
      9293       9294       9305       9304       9414       9415       9426       9425  
      9294       9295       9306       9305       9415       9416       9427       9426  
      9296       9297       9308       9307       9417       9418       9429       9428  
      9297       9298       9309       9308       9418       9419       9430       9429  
      9298       9299       9310       9309       9419       9420       9431       9430  
      9299       9300       9311       9310       9420       9421       9432       9431  
      9300       9301       9312       9311       9421       9422       9433       9432  
      9301       9302       9313       9312       9422       9423       9434       9433  
      9302       9303       9314       9313       9423       9424       9435       9434  
      9303       9304       9315       9314       9424       9425       9436       9435  
      9304       9305       9316       9315       9425       9426       9437       9436  
      9305       9306       9317       9316       9426       9427       9438       9437  
      9318       9319       9330       9329       9439       9440       9451       9450  
      9319       9320       9331       9330       9440       9441       9452       9451  
      9320       9321       9332       9331       9441       9442       9453       9452  
      9321       9322       9333       9332       9442       9443       9454       9453  
      9322       9323       9334       9333       9443       9444       9455       9454  
      9323       9324       9335       9334       9444       9445       9456       9455  
      9324       9325       9336       9335       9445       9446       9457       9456  
      9325       9326       9337       9336       9446       9447       9458       9457  
      9326       9327       9338       9337       9447       9448       9459       9458  
      9327       9328       9339       9338       9448       9449       9460       9459  
      9329       9330       9341       9340       9450       9451       9462       9461  
      9330       9331       9342       9341       9451       9452       9463       9462  
      9331       9332       9343       9342       9452       9453       9464       9463  
      9332       9333       9344       9343       9453       9454       9465       9464  
      9333       9334       9345       9344       9454       9455       9466       9465  
      9334       9335       9346       9345       9455       9456       9467       9466  
      9335       9336       9347       9346       9456       9457       9468       9467  
      9336       9337       9348       9347       9457       9458       9469       9468  
      9337       9338       9349       9348       9458       9459       9470       9469  
      9338       9339       9350       9349       9459       9460       9471       9470  
      9340       9341       9352       9351       9461       9462       9473       9472  
      9341       9342       9353       9352       9462       9463       9474       9473  
      9342       9343       9354       9353       9463       9464       9475       9474  
      9343       9344       9355       9354       9464       9465       9476       9475  
      9344       9345       9356       9355       9465       9466       9477       9476  
      9345       9346       9357       9356       9466       9467       9478       9477  
      9346       9347       9358       9357       9467       9468       9479       9478  
      9347       9348       9359       9358       9468       9469       9480       9479  
      9348       9349       9360       9359       9469       9470       9481       9480  
      9349       9350       9361       9360       9470       9471       9482       9481  
      9351       9352       9363       9362       9472       9473       9484       9483  
      9352       9353       9364       9363       9473       9474       9485       9484  
      9353       9354       9365       9364       9474       9475       9486       9485  
      9354       9355       9366       9365       9475       9476       9487       9486  
      9355       9356       9367       9366       9476       9477       9488       9487  
      9356       9357       9368       9367       9477       9478       9489       9488  
      9357       9358       9369       9368       9478       9479       9490       9489  
      9358       9359       9370       9369       9479       9480       9491       9490  
      9359       9360       9371       9370       9480       9481       9492       9491  
      9360       9361       9372       9371       9481       9482       9493       9492  
      9362       9363       9374       9373       9483       9484       9495       9494  
      9363       9364       9375       9374       9484       9485       9496       9495  
      9364       9365       9376       9375       9485       9486       9497       9496  
      9365       9366       9377       9376       9486       9487       9498       9497  
      9366       9367       9378       9377       9487       9488       9499       9498  
      9367       9368       9379       9378       9488       9489       9500       9499  
      9368       9369       9380       9379       9489       9490       9501       9500  
      9369       9370       9381       9380       9490       9491       9502       9501  
      9370       9371       9382       9381       9491       9492       9503       9502  
      9371       9372       9383       9382       9492       9493       9504       9503  
      9373       9374       9385       9384       9494       9495       9506       9505  
      9374       9375       9386       9385       9495       9496       9507       9506  
      9375       9376       9387       9386       9496       9497       9508       9507  
      9376       9377       9388       9387       9497       9498       9509       9508  
      9377       9378       9389       9388       9498       9499       9510       9509  
      9378       9379       9390       9389       9499       9500       9511       9510  
      9379       9380       9391       9390       9500       9501       9512       9511  
      9380       9381       9392       9391       9501       9502       9513       9512  
      9381       9382       9393       9392       9502       9503       9514       9513  
      9382       9383       9394       9393       9503       9504       9515       9514  
      9384       9385       9396       9395       9505       9506       9517       9516  
      9385       9386       9397       9396       9506       9507       9518       9517  
      9386       9387       9398       9397       9507       9508       9519       9518  
      9387       9388       9399       9398       9508       9509       9520       9519  
      9388       9389       9400       9399       9509       9510       9521       9520  
      9389       9390       9401       9400       9510       9511       9522       9521  
      9390       9391       9402       9401       9511       9512       9523       9522  
      9391       9392       9403       9402       9512       9513       9524       9523  
      9392       9393       9404       9403       9513       9514       9525       9524  
      9393       9394       9405       9404       9514       9515       9526       9525  
      9395       9396       9407       9406       9516       9517       9528       9527  
      9396       9397       9408       9407       9517       9518       9529       9528  
      9397       9398       9409       9408       9518       9519       9530       9529  
      9398       9399       9410       9409       9519       9520       9531       9530  
      9399       9400       9411       9410       9520       9521       9532       9531  
      9400       9401       9412       9411       9521       9522       9533       9532  
      9401       9402       9413       9412       9522       9523       9534       9533  
      9402       9403       9414       9413       9523       9524       9535       9534  
      9403       9404       9415       9414       9524       9525       9536       9535  
      9404       9405       9416       9415       9525       9526       9537       9536  
      9406       9407       9418       9417       9527       9528       9539       9538  
      9407       9408       9419       9418       9528       9529       9540       9539  
      9408       9409       9420       9419       9529       9530       9541       9540  
      9409       9410       9421       9420       9530       9531       9542       9541  
      9410       9411       9422       9421       9531       9532       9543       9542  
      9411       9412       9423       9422       9532       9533       9544       9543  
      9412       9413       9424       9423       9533       9534       9545       9544  
      9413       9414       9425       9424       9534       9535       9546       9545  
      9414       9415       9426       9425       9535       9536       9547       9546  
      9415       9416       9427       9426       9536       9537       9548       9547  
      9417       9418       9429       9428       9538       9539       9550       9549  
      9418       9419       9430       9429       9539       9540       9551       9550  
      9419       9420       9431       9430       9540       9541       9552       9551  
      9420       9421       9432       9431       9541       9542       9553       9552  
      9421       9422       9433       9432       9542       9543       9554       9553  
      9422       9423       9434       9433       9543       9544       9555       9554  
      9423       9424       9435       9434       9544       9545       9556       9555  
      9424       9425       9436       9435       9545       9546       9557       9556  
      9425       9426       9437       9436       9546       9547       9558       9557  
      9426       9427       9438       9437       9547       9548       9559       9558  
      9439       9440       9451       9450       9560       9561       9572       9571  
      9440       9441       9452       9451       9561       9562       9573       9572  
      9441       9442       9453       9452       9562       9563       9574       9573  
      9442       9443       9454       9453       9563       9564       9575       9574  
      9443       9444       9455       9454       9564       9565       9576       9575  
      9444       9445       9456       9455       9565       9566       9577       9576  
      9445       9446       9457       9456       9566       9567       9578       9577  
      9446       9447       9458       9457       9567       9568       9579       9578  
      9447       9448       9459       9458       9568       9569       9580       9579  
      9448       9449       9460       9459       9569       9570       9581       9580  
      9450       9451       9462       9461       9571       9572       9583       9582  
      9451       9452       9463       9462       9572       9573       9584       9583  
      9452       9453       9464       9463       9573       9574       9585       9584  
      9453       9454       9465       9464       9574       9575       9586       9585  
      9454       9455       9466       9465       9575       9576       9587       9586  
      9455       9456       9467       9466       9576       9577       9588       9587  
      9456       9457       9468       9467       9577       9578       9589       9588  
      9457       9458       9469       9468       9578       9579       9590       9589  
      9458       9459       9470       9469       9579       9580       9591       9590  
      9459       9460       9471       9470       9580       9581       9592       9591  
      9461       9462       9473       9472       9582       9583       9594       9593  
      9462       9463       9474       9473       9583       9584       9595       9594  
      9463       9464       9475       9474       9584       9585       9596       9595  
      9464       9465       9476       9475       9585       9586       9597       9596  
      9465       9466       9477       9476       9586       9587       9598       9597  
      9466       9467       9478       9477       9587       9588       9599       9598  
      9467       9468       9479       9478       9588       9589       9600       9599  
      9468       9469       9480       9479       9589       9590       9601       9600  
      9469       9470       9481       9480       9590       9591       9602       9601  
      9470       9471       9482       9481       9591       9592       9603       9602  
      9472       9473       9484       9483       9593       9594       9605       9604  
      9473       9474       9485       9484       9594       9595       9606       9605  
      9474       9475       9486       9485       9595       9596       9607       9606  
      9475       9476       9487       9486       9596       9597       9608       9607  
      9476       9477       9488       9487       9597       9598       9609       9608  
      9477       9478       9489       9488       9598       9599       9610       9609  
      9478       9479       9490       9489       9599       9600       9611       9610  
      9479       9480       9491       9490       9600       9601       9612       9611  
      9480       9481       9492       9491       9601       9602       9613       9612  
      9481       9482       9493       9492       9602       9603       9614       9613  
      9483       9484       9495       9494       9604       9605       9616       9615  
      9484       9485       9496       9495       9605       9606       9617       9616  
      9485       9486       9497       9496       9606       9607       9618       9617  
      9486       9487       9498       9497       9607       9608       9619       9618  
      9487       9488       9499       9498       9608       9609       9620       9619  
      9488       9489       9500       9499       9609       9610       9621       9620  
      9489       9490       9501       9500       9610       9611       9622       9621  
      9490       9491       9502       9501       9611       9612       9623       9622  
      9491       9492       9503       9502       9612       9613       9624       9623  
      9492       9493       9504       9503       9613       9614       9625       9624  
      9494       9495       9506       9505       9615       9616       9627       9626  
      9495       9496       9507       9506       9616       9617       9628       9627  
      9496       9497       9508       9507       9617       9618       9629       9628  
      9497       9498       9509       9508       9618       9619       9630       9629  
      9498       9499       9510       9509       9619       9620       9631       9630  
      9499       9500       9511       9510       9620       9621       9632       9631  
      9500       9501       9512       9511       9621       9622       9633       9632  
      9501       9502       9513       9512       9622       9623       9634       9633  
      9502       9503       9514       9513       9623       9624       9635       9634  
      9503       9504       9515       9514       9624       9625       9636       9635  
      9505       9506       9517       9516       9626       9627       9638       9637  
      9506       9507       9518       9517       9627       9628       9639       9638  
      9507       9508       9519       9518       9628       9629       9640       9639  
      9508       9509       9520       9519       9629       9630       9641       9640  
      9509       9510       9521       9520       9630       9631       9642       9641  
      9510       9511       9522       9521       9631       9632       9643       9642  
      9511       9512       9523       9522       9632       9633       9644       9643  
      9512       9513       9524       9523       9633       9634       9645       9644  
      9513       9514       9525       9524       9634       9635       9646       9645  
      9514       9515       9526       9525       9635       9636       9647       9646  
      9516       9517       9528       9527       9637       9638       9649       9648  
      9517       9518       9529       9528       9638       9639       9650       9649  
      9518       9519       9530       9529       9639       9640       9651       9650  
      9519       9520       9531       9530       9640       9641       9652       9651  
      9520       9521       9532       9531       9641       9642       9653       9652  
      9521       9522       9533       9532       9642       9643       9654       9653  
      9522       9523       9534       9533       9643       9644       9655       9654  
      9523       9524       9535       9534       9644       9645       9656       9655  
      9524       9525       9536       9535       9645       9646       9657       9656  
      9525       9526       9537       9536       9646       9647       9658       9657  
      9527       9528       9539       9538       9648       9649       9660       9659  
      9528       9529       9540       9539       9649       9650       9661       9660  
      9529       9530       9541       9540       9650       9651       9662       9661  
      9530       9531       9542       9541       9651       9652       9663       9662  
      9531       9532       9543       9542       9652       9653       9664       9663  
      9532       9533       9544       9543       9653       9654       9665       9664  
      9533       9534       9545       9544       9654       9655       9666       9665  
      9534       9535       9546       9545       9655       9656       9667       9666  
      9535       9536       9547       9546       9656       9657       9668       9667  
      9536       9537       9548       9547       9657       9658       9669       9668  
      9538       9539       9550       9549       9659       9660       9671       9670  
      9539       9540       9551       9550       9660       9661       9672       9671  
      9540       9541       9552       9551       9661       9662       9673       9672  
      9541       9542       9553       9552       9662       9663       9674       9673  
      9542       9543       9554       9553       9663       9664       9675       9674  
      9543       9544       9555       9554       9664       9665       9676       9675  
      9544       9545       9556       9555       9665       9666       9677       9676  
      9545       9546       9557       9556       9666       9667       9678       9677  
      9546       9547       9558       9557       9667       9668       9679       9678  
      9547       9548       9559       9558       9668       9669       9680       9679  
      9560       9561       9572       9571       9681       9682       9693       9692  
      9561       9562       9573       9572       9682       9683       9694       9693  
      9562       9563       9574       9573       9683       9684       9695       9694  
      9563       9564       9575       9574       9684       9685       9696       9695  
      9564       9565       9576       9575       9685       9686       9697       9696  
      9565       9566       9577       9576       9686       9687       9698       9697  
      9566       9567       9578       9577       9687       9688       9699       9698  
      9567       9568       9579       9578       9688       9689       9700       9699  
      9568       9569       9580       9579       9689       9690       9701       9700  
      9569       9570       9581       9580       9690       9691       9702       9701  
      9571       9572       9583       9582       9692       9693       9704       9703  
      9572       9573       9584       9583       9693       9694       9705       9704  
      9573       9574       9585       9584       9694       9695       9706       9705  
      9574       9575       9586       9585       9695       9696       9707       9706  
      9575       9576       9587       9586       9696       9697       9708       9707  
      9576       9577       9588       9587       9697       9698       9709       9708  
      9577       9578       9589       9588       9698       9699       9710       9709  
      9578       9579       9590       9589       9699       9700       9711       9710  
      9579       9580       9591       9590       9700       9701       9712       9711  
      9580       9581       9592       9591       9701       9702       9713       9712  
      9582       9583       9594       9593       9703       9704       9715       9714  
      9583       9584       9595       9594       9704       9705       9716       9715  
      9584       9585       9596       9595       9705       9706       9717       9716  
      9585       9586       9597       9596       9706       9707       9718       9717  
      9586       9587       9598       9597       9707       9708       9719       9718  
      9587       9588       9599       9598       9708       9709       9720       9719  
      9588       9589       9600       9599       9709       9710       9721       9720  
      9589       9590       9601       9600       9710       9711       9722       9721  
      9590       9591       9602       9601       9711       9712       9723       9722  
      9591       9592       9603       9602       9712       9713       9724       9723  
      9593       9594       9605       9604       9714       9715       9726       9725  
      9594       9595       9606       9605       9715       9716       9727       9726  
      9595       9596       9607       9606       9716       9717       9728       9727  
      9596       9597       9608       9607       9717       9718       9729       9728  
      9597       9598       9609       9608       9718       9719       9730       9729  
      9598       9599       9610       9609       9719       9720       9731       9730  
      9599       9600       9611       9610       9720       9721       9732       9731  
      9600       9601       9612       9611       9721       9722       9733       9732  
      9601       9602       9613       9612       9722       9723       9734       9733  
      9602       9603       9614       9613       9723       9724       9735       9734  
      9604       9605       9616       9615       9725       9726       9737       9736  
      9605       9606       9617       9616       9726       9727       9738       9737  
      9606       9607       9618       9617       9727       9728       9739       9738  
      9607       9608       9619       9618       9728       9729       9740       9739  
      9608       9609       9620       9619       9729       9730       9741       9740  
      9609       9610       9621       9620       9730       9731       9742       9741  
      9610       9611       9622       9621       9731       9732       9743       9742  
      9611       9612       9623       9622       9732       9733       9744       9743  
      9612       9613       9624       9623       9733       9734       9745       9744  
      9613       9614       9625       9624       9734       9735       9746       9745  
      9615       9616       9627       9626       9736       9737       9748       9747  
      9616       9617       9628       9627       9737       9738       9749       9748  
      9617       9618       9629       9628       9738       9739       9750       9749  
      9618       9619       9630       9629       9739       9740       9751       9750  
      9619       9620       9631       9630       9740       9741       9752       9751  
      9620       9621       9632       9631       9741       9742       9753       9752  
      9621       9622       9633       9632       9742       9743       9754       9753  
      9622       9623       9634       9633       9743       9744       9755       9754  
      9623       9624       9635       9634       9744       9745       9756       9755  
      9624       9625       9636       9635       9745       9746       9757       9756  
      9626       9627       9638       9637       9747       9748       9759       9758  
      9627       9628       9639       9638       9748       9749       9760       9759  
      9628       9629       9640       9639       9749       9750       9761       9760  
      9629       9630       9641       9640       9750       9751       9762       9761  
      9630       9631       9642       9641       9751       9752       9763       9762  
      9631       9632       9643       9642       9752       9753       9764       9763  
      9632       9633       9644       9643       9753       9754       9765       9764  
      9633       9634       9645       9644       9754       9755       9766       9765  
      9634       9635       9646       9645       9755       9756       9767       9766  
      9635       9636       9647       9646       9756       9757       9768       9767  
      9637       9638       9649       9648       9758       9759       9770       9769  
      9638       9639       9650       9649       9759       9760       9771       9770  
      9639       9640       9651       9650       9760       9761       9772       9771  
      9640       9641       9652       9651       9761       9762       9773       9772  
      9641       9642       9653       9652       9762       9763       9774       9773  
      9642       9643       9654       9653       9763       9764       9775       9774  
      9643       9644       9655       9654       9764       9765       9776       9775  
      9644       9645       9656       9655       9765       9766       9777       9776  
      9645       9646       9657       9656       9766       9767       9778       9777  
      9646       9647       9658       9657       9767       9768       9779       9778  
      9648       9649       9660       9659       9769       9770       9781       9780  
      9649       9650       9661       9660       9770       9771       9782       9781  
      9650       9651       9662       9661       9771       9772       9783       9782  
      9651       9652       9663       9662       9772       9773       9784       9783  
      9652       9653       9664       9663       9773       9774       9785       9784  
      9653       9654       9665       9664       9774       9775       9786       9785  
      9654       9655       9666       9665       9775       9776       9787       9786  
      9655       9656       9667       9666       9776       9777       9788       9787  
      9656       9657       9668       9667       9777       9778       9789       9788  
      9657       9658       9669       9668       9778       9779       9790       9789  
      9659       9660       9671       9670       9780       9781       9792       9791  
      9660       9661       9672       9671       9781       9782       9793       9792  
      9661       9662       9673       9672       9782       9783       9794       9793  
      9662       9663       9674       9673       9783       9784       9795       9794  
      9663       9664       9675       9674       9784       9785       9796       9795  
      9664       9665       9676       9675       9785       9786       9797       9796  
      9665       9666       9677       9676       9786       9787       9798       9797  
      9666       9667       9678       9677       9787       9788       9799       9798  
      9667       9668       9679       9678       9788       9789       9800       9799  
      9668       9669       9680       9679       9789       9790       9801       9800  
      9681       9682       9693       9692       9802       9803       9814       9813  
      9682       9683       9694       9693       9803       9804       9815       9814  
      9683       9684       9695       9694       9804       9805       9816       9815  
      9684       9685       9696       9695       9805       9806       9817       9816  
      9685       9686       9697       9696       9806       9807       9818       9817  
      9686       9687       9698       9697       9807       9808       9819       9818  
      9687       9688       9699       9698       9808       9809       9820       9819  
      9688       9689       9700       9699       9809       9810       9821       9820  
      9689       9690       9701       9700       9810       9811       9822       9821  
      9690       9691       9702       9701       9811       9812       9823       9822  
      9692       9693       9704       9703       9813       9814       9825       9824  
      9693       9694       9705       9704       9814       9815       9826       9825  
      9694       9695       9706       9705       9815       9816       9827       9826  
      9695       9696       9707       9706       9816       9817       9828       9827  
      9696       9697       9708       9707       9817       9818       9829       9828  
      9697       9698       9709       9708       9818       9819       9830       9829  
      9698       9699       9710       9709       9819       9820       9831       9830  
      9699       9700       9711       9710       9820       9821       9832       9831  
      9700       9701       9712       9711       9821       9822       9833       9832  
      9701       9702       9713       9712       9822       9823       9834       9833  
      9703       9704       9715       9714       9824       9825       9836       9835  
      9704       9705       9716       9715       9825       9826       9837       9836  
      9705       9706       9717       9716       9826       9827       9838       9837  
      9706       9707       9718       9717       9827       9828       9839       9838  
      9707       9708       9719       9718       9828       9829       9840       9839  
      9708       9709       9720       9719       9829       9830       9841       9840  
      9709       9710       9721       9720       9830       9831       9842       9841  
      9710       9711       9722       9721       9831       9832       9843       9842  
      9711       9712       9723       9722       9832       9833       9844       9843  
      9712       9713       9724       9723       9833       9834       9845       9844  
      9714       9715       9726       9725       9835       9836       9847       9846  
      9715       9716       9727       9726       9836       9837       9848       9847  
      9716       9717       9728       9727       9837       9838       9849       9848  
      9717       9718       9729       9728       9838       9839       9850       9849  
      9718       9719       9730       9729       9839       9840       9851       9850  
      9719       9720       9731       9730       9840       9841       9852       9851  
      9720       9721       9732       9731       9841       9842       9853       9852  
      9721       9722       9733       9732       9842       9843       9854       9853  
      9722       9723       9734       9733       9843       9844       9855       9854  
      9723       9724       9735       9734       9844       9845       9856       9855  
      9725       9726       9737       9736       9846       9847       9858       9857  
      9726       9727       9738       9737       9847       9848       9859       9858  
      9727       9728       9739       9738       9848       9849       9860       9859  
      9728       9729       9740       9739       9849       9850       9861       9860  
      9729       9730       9741       9740       9850       9851       9862       9861  
      9730       9731       9742       9741       9851       9852       9863       9862  
      9731       9732       9743       9742       9852       9853       9864       9863  
      9732       9733       9744       9743       9853       9854       9865       9864  
      9733       9734       9745       9744       9854       9855       9866       9865  
      9734       9735       9746       9745       9855       9856       9867       9866  
      9736       9737       9748       9747       9857       9858       9869       9868  
      9737       9738       9749       9748       9858       9859       9870       9869  
      9738       9739       9750       9749       9859       9860       9871       9870  
      9739       9740       9751       9750       9860       9861       9872       9871  
      9740       9741       9752       9751       9861       9862       9873       9872  
      9741       9742       9753       9752       9862       9863       9874       9873  
      9742       9743       9754       9753       9863       9864       9875       9874  
      9743       9744       9755       9754       9864       9865       9876       9875  
      9744       9745       9756       9755       9865       9866       9877       9876  
      9745       9746       9757       9756       9866       9867       9878       9877  
      9747       9748       9759       9758       9868       9869       9880       9879  
      9748       9749       9760       9759       9869       9870       9881       9880  
      9749       9750       9761       9760       9870       9871       9882       9881  
      9750       9751       9762       9761       9871       9872       9883       9882  
      9751       9752       9763       9762       9872       9873       9884       9883  
      9752       9753       9764       9763       9873       9874       9885       9884  
      9753       9754       9765       9764       9874       9875       9886       9885  
      9754       9755       9766       9765       9875       9876       9887       9886  
      9755       9756       9767       9766       9876       9877       9888       9887  
      9756       9757       9768       9767       9877       9878       9889       9888  
      9758       9759       9770       9769       9879       9880       9891       9890  
      9759       9760       9771       9770       9880       9881       9892       9891  
      9760       9761       9772       9771       9881       9882       9893       9892  
      9761       9762       9773       9772       9882       9883       9894       9893  
      9762       9763       9774       9773       9883       9884       9895       9894  
      9763       9764       9775       9774       9884       9885       9896       9895  
      9764       9765       9776       9775       9885       9886       9897       9896  
      9765       9766       9777       9776       9886       9887       9898       9897  
      9766       9767       9778       9777       9887       9888       9899       9898  
      9767       9768       9779       9778       9888       9889       9900       9899  
      9769       9770       9781       9780       9890       9891       9902       9901  
      9770       9771       9782       9781       9891       9892       9903       9902  
      9771       9772       9783       9782       9892       9893       9904       9903  
      9772       9773       9784       9783       9893       9894       9905       9904  
      9773       9774       9785       9784       9894       9895       9906       9905  
      9774       9775       9786       9785       9895       9896       9907       9906  
      9775       9776       9787       9786       9896       9897       9908       9907  
      9776       9777       9788       9787       9897       9898       9909       9908  
      9777       9778       9789       9788       9898       9899       9910       9909  
      9778       9779       9790       9789       9899       9900       9911       9910  
      9780       9781       9792       9791       9901       9902       9913       9912  
      9781       9782       9793       9792       9902       9903       9914       9913  
      9782       9783       9794       9793       9903       9904       9915       9914  
      9783       9784       9795       9794       9904       9905       9916       9915  
      9784       9785       9796       9795       9905       9906       9917       9916  
      9785       9786       9797       9796       9906       9907       9918       9917  
      9786       9787       9798       9797       9907       9908       9919       9918  
      9787       9788       9799       9798       9908       9909       9920       9919  
      9788       9789       9800       9799       9909       9910       9921       9920  
      9789       9790       9801       9800       9910       9911       9922       9921  
      9802       9803       9814       9813       9923       9924       9935       9934  
      9803       9804       9815       9814       9924       9925       9936       9935  
      9804       9805       9816       9815       9925       9926       9937       9936  
      9805       9806       9817       9816       9926       9927       9938       9937  
      9806       9807       9818       9817       9927       9928       9939       9938  
      9807       9808       9819       9818       9928       9929       9940       9939  
      9808       9809       9820       9819       9929       9930       9941       9940  
      9809       9810       9821       9820       9930       9931       9942       9941  
      9810       9811       9822       9821       9931       9932       9943       9942  
      9811       9812       9823       9822       9932       9933       9944       9943  
      9813       9814       9825       9824       9934       9935       9946       9945  
      9814       9815       9826       9825       9935       9936       9947       9946  
      9815       9816       9827       9826       9936       9937       9948       9947  
      9816       9817       9828       9827       9937       9938       9949       9948  
      9817       9818       9829       9828       9938       9939       9950       9949  
      9818       9819       9830       9829       9939       9940       9951       9950  
      9819       9820       9831       9830       9940       9941       9952       9951  
      9820       9821       9832       9831       9941       9942       9953       9952  
      9821       9822       9833       9832       9942       9943       9954       9953  
      9822       9823       9834       9833       9943       9944       9955       9954  
      9824       9825       9836       9835       9945       9946       9957       9956  
      9825       9826       9837       9836       9946       9947       9958       9957  
      9826       9827       9838       9837       9947       9948       9959       9958  
      9827       9828       9839       9838       9948       9949       9960       9959  
      9828       9829       9840       9839       9949       9950       9961       9960  
      9829       9830       9841       9840       9950       9951       9962       9961  
      9830       9831       9842       9841       9951       9952       9963       9962  
      9831       9832       9843       9842       9952       9953       9964       9963  
      9832       9833       9844       9843       9953       9954       9965       9964  
      9833       9834       9845       9844       9954       9955       9966       9965  
      9835       9836       9847       9846       9956       9957       9968       9967  
      9836       9837       9848       9847       9957       9958       9969       9968  
      9837       9838       9849       9848       9958       9959       9970       9969  
      9838       9839       9850       9849       9959       9960       9971       9970  
      9839       9840       9851       9850       9960       9961       9972       9971  
      9840       9841       9852       9851       9961       9962       9973       9972  
      9841       9842       9853       9852       9962       9963       9974       9973  
      9842       9843       9854       9853       9963       9964       9975       9974  
      9843       9844       9855       9854       9964       9965       9976       9975  
      9844       9845       9856       9855       9965       9966       9977       9976  
      9846       9847       9858       9857       9967       9968       9979       9978  
      9847       9848       9859       9858       9968       9969       9980       9979  
      9848       9849       9860       9859       9969       9970       9981       9980  
      9849       9850       9861       9860       9970       9971       9982       9981  
      9850       9851       9862       9861       9971       9972       9983       9982  
      9851       9852       9863       9862       9972       9973       9984       9983  
      9852       9853       9864       9863       9973       9974       9985       9984  
      9853       9854       9865       9864       9974       9975       9986       9985  
      9854       9855       9866       9865       9975       9976       9987       9986  
      9855       9856       9867       9866       9976       9977       9988       9987  
      9857       9858       9869       9868       9978       9979       9990       9989  
      9858       9859       9870       9869       9979       9980       9991       9990  
      9859       9860       9871       9870       9980       9981       9992       9991  
      9860       9861       9872       9871       9981       9982       9993       9992  
      9861       9862       9873       9872       9982       9983       9994       9993  
      9862       9863       9874       9873       9983       9984       9995       9994  
      9863       9864       9875       9874       9984       9985       9996       9995  
      9864       9865       9876       9875       9985       9986       9997       9996  
      9865       9866       9877       9876       9986       9987       9998       9997  
      9866       9867       9878       9877       9987       9988       9999       9998  
      9868       9869       9880       9879       9989       9990      10001      10000  
      9869       9870       9881       9880       9990       9991      10002      10001  
      9870       9871       9882       9881       9991       9992      10003      10002  
      9871       9872       9883       9882       9992       9993      10004      10003  
      9872       9873       9884       9883       9993       9994      10005      10004  
      9873       9874       9885       9884       9994       9995      10006      10005  
      9874       9875       9886       9885       9995       9996      10007      10006  
      9875       9876       9887       9886       9996       9997      10008      10007  
      9876       9877       9888       9887       9997       9998      10009      10008  
      9877       9878       9889       9888       9998       9999      10010      10009  
      9879       9880       9891       9890      10000      10001      10012      10011  
      9880       9881       9892       9891      10001      10002      10013      10012  
      9881       9882       9893       9892      10002      10003      10014      10013  
      9882       9883       9894       9893      10003      10004      10015      10014  
      9883       9884       9895       9894      10004      10005      10016      10015  
      9884       9885       9896       9895      10005      10006      10017      10016  
      9885       9886       9897       9896      10006      10007      10018      10017  
      9886       9887       9898       9897      10007      10008      10019      10018  
      9887       9888       9899       9898      10008      10009      10020      10019  
      9888       9889       9900       9899      10009      10010      10021      10020  
      9890       9891       9902       9901      10011      10012      10023      10022  
      9891       9892       9903       9902      10012      10013      10024      10023  
      9892       9893       9904       9903      10013      10014      10025      10024  
      9893       9894       9905       9904      10014      10015      10026      10025  
      9894       9895       9906       9905      10015      10016      10027      10026  
      9895       9896       9907       9906      10016      10017      10028      10027  
      9896       9897       9908       9907      10017      10018      10029      10028  
      9897       9898       9909       9908      10018      10019      10030      10029  
      9898       9899       9910       9909      10019      10020      10031      10030  
      9899       9900       9911       9910      10020      10021      10032      10031  
      9901       9902       9913       9912      10022      10023      10034      10033  
      9902       9903       9914       9913      10023      10024      10035      10034  
      9903       9904       9915       9914      10024      10025      10036      10035  
      9904       9905       9916       9915      10025      10026      10037      10036  
      9905       9906       9917       9916      10026      10027      10038      10037  
      9906       9907       9918       9917      10027      10028      10039      10038  
      9907       9908       9919       9918      10028      10029      10040      10039  
      9908       9909       9920       9919      10029      10030      10041      10040  
      9909       9910       9921       9920      10030      10031      10042      10041  
      9910       9911       9922       9921      10031      10032      10043      10042  
      9923       9924       9935       9934      10044      10045      10056      10055  
      9924       9925       9936       9935      10045      10046      10057      10056  
      9925       9926       9937       9936      10046      10047      10058      10057  
      9926       9927       9938       9937      10047      10048      10059      10058  
      9927       9928       9939       9938      10048      10049      10060      10059  
      9928       9929       9940       9939      10049      10050      10061      10060  
      9929       9930       9941       9940      10050      10051      10062      10061  
      9930       9931       9942       9941      10051      10052      10063      10062  
      9931       9932       9943       9942      10052      10053      10064      10063  
      9932       9933       9944       9943      10053      10054      10065      10064  
      9934       9935       9946       9945      10055      10056      10067      10066  
      9935       9936       9947       9946      10056      10057      10068      10067  
      9936       9937       9948       9947      10057      10058      10069      10068  
      9937       9938       9949       9948      10058      10059      10070      10069  
      9938       9939       9950       9949      10059      10060      10071      10070  
      9939       9940       9951       9950      10060      10061      10072      10071  
      9940       9941       9952       9951      10061      10062      10073      10072  
      9941       9942       9953       9952      10062      10063      10074      10073  
      9942       9943       9954       9953      10063      10064      10075      10074  
      9943       9944       9955       9954      10064      10065      10076      10075  
      9945       9946       9957       9956      10066      10067      10078      10077  
      9946       9947       9958       9957      10067      10068      10079      10078  
      9947       9948       9959       9958      10068      10069      10080      10079  
      9948       9949       9960       9959      10069      10070      10081      10080  
      9949       9950       9961       9960      10070      10071      10082      10081  
      9950       9951       9962       9961      10071      10072      10083      10082  
      9951       9952       9963       9962      10072      10073      10084      10083  
      9952       9953       9964       9963      10073      10074      10085      10084  
      9953       9954       9965       9964      10074      10075      10086      10085  
      9954       9955       9966       9965      10075      10076      10087      10086  
      9956       9957       9968       9967      10077      10078      10089      10088  
      9957       9958       9969       9968      10078      10079      10090      10089  
      9958       9959       9970       9969      10079      10080      10091      10090  
      9959       9960       9971       9970      10080      10081      10092      10091  
      9960       9961       9972       9971      10081      10082      10093      10092  
      9961       9962       9973       9972      10082      10083      10094      10093  
      9962       9963       9974       9973      10083      10084      10095      10094  
      9963       9964       9975       9974      10084      10085      10096      10095  
      9964       9965       9976       9975      10085      10086      10097      10096  
      9965       9966       9977       9976      10086      10087      10098      10097  
      9967       9968       9979       9978      10088      10089      10100      10099  
      9968       9969       9980       9979      10089      10090      10101      10100  
      9969       9970       9981       9980      10090      10091      10102      10101  
      9970       9971       9982       9981      10091      10092      10103      10102  
      9971       9972       9983       9982      10092      10093      10104      10103  
      9972       9973       9984       9983      10093      10094      10105      10104  
      9973       9974       9985       9984      10094      10095      10106      10105  
      9974       9975       9986       9985      10095      10096      10107      10106  
      9975       9976       9987       9986      10096      10097      10108      10107  
      9976       9977       9988       9987      10097      10098      10109      10108  
      9978       9979       9990       9989      10099      10100      10111      10110  
      9979       9980       9991       9990      10100      10101      10112      10111  
      9980       9981       9992       9991      10101      10102      10113      10112  
      9981       9982       9993       9992      10102      10103      10114      10113  
      9982       9983       9994       9993      10103      10104      10115      10114  
      9983       9984       9995       9994      10104      10105      10116      10115  
      9984       9985       9996       9995      10105      10106      10117      10116  
      9985       9986       9997       9996      10106      10107      10118      10117  
      9986       9987       9998       9997      10107      10108      10119      10118  
      9987       9988       9999       9998      10108      10109      10120      10119  
      9989       9990      10001      10000      10110      10111      10122      10121  
      9990       9991      10002      10001      10111      10112      10123      10122  
      9991       9992      10003      10002      10112      10113      10124      10123  
      9992       9993      10004      10003      10113      10114      10125      10124  
      9993       9994      10005      10004      10114      10115      10126      10125  
      9994       9995      10006      10005      10115      10116      10127      10126  
      9995       9996      10007      10006      10116      10117      10128      10127  
      9996       9997      10008      10007      10117      10118      10129      10128  
      9997       9998      10009      10008      10118      10119      10130      10129  
      9998       9999      10010      10009      10119      10120      10131      10130  
     10000      10001      10012      10011      10121      10122      10133      10132  
     10001      10002      10013      10012      10122      10123      10134      10133  
     10002      10003      10014      10013      10123      10124      10135      10134  
     10003      10004      10015      10014      10124      10125      10136      10135  
     10004      10005      10016      10015      10125      10126      10137      10136  
     10005      10006      10017      10016      10126      10127      10138      10137  
     10006      10007      10018      10017      10127      10128      10139      10138  
     10007      10008      10019      10018      10128      10129      10140      10139  
     10008      10009      10020      10019      10129      10130      10141      10140  
     10009      10010      10021      10020      10130      10131      10142      10141  
     10011      10012      10023      10022      10132      10133      10144      10143  
     10012      10013      10024      10023      10133      10134      10145      10144  
     10013      10014      10025      10024      10134      10135      10146      10145  
     10014      10015      10026      10025      10135      10136      10147      10146  
     10015      10016      10027      10026      10136      10137      10148      10147  
     10016      10017      10028      10027      10137      10138      10149      10148  
     10017      10018      10029      10028      10138      10139      10150      10149  
     10018      10019      10030      10029      10139      10140      10151      10150  
     10019      10020      10031      10030      10140      10141      10152      10151  
     10020      10021      10032      10031      10141      10142      10153      10152  
     10022      10023      10034      10033      10143      10144      10155      10154  
     10023      10024      10035      10034      10144      10145      10156      10155  
     10024      10025      10036      10035      10145      10146      10157      10156  
     10025      10026      10037      10036      10146      10147      10158      10157  
     10026      10027      10038      10037      10147      10148      10159      10158  
     10027      10028      10039      10038      10148      10149      10160      10159  
     10028      10029      10040      10039      10149      10150      10161      10160  
     10029      10030      10041      10040      10150      10151      10162      10161  
     10030      10031      10042      10041      10151      10152      10163      10162  
     10031      10032      10043      10042      10152      10153      10164      10163  
     10044      10045      10056      10055      10165      10166      10177      10176  
     10045      10046      10057      10056      10166      10167      10178      10177  
     10046      10047      10058      10057      10167      10168      10179      10178  
     10047      10048      10059      10058      10168      10169      10180      10179  
     10048      10049      10060      10059      10169      10170      10181      10180  
     10049      10050      10061      10060      10170      10171      10182      10181  
     10050      10051      10062      10061      10171      10172      10183      10182  
     10051      10052      10063      10062      10172      10173      10184      10183  
     10052      10053      10064      10063      10173      10174      10185      10184  
     10053      10054      10065      10064      10174      10175      10186      10185  
     10055      10056      10067      10066      10176      10177      10188      10187  
     10056      10057      10068      10067      10177      10178      10189      10188  
     10057      10058      10069      10068      10178      10179      10190      10189  
     10058      10059      10070      10069      10179      10180      10191      10190  
     10059      10060      10071      10070      10180      10181      10192      10191  
     10060      10061      10072      10071      10181      10182      10193      10192  
     10061      10062      10073      10072      10182      10183      10194      10193  
     10062      10063      10074      10073      10183      10184      10195      10194  
     10063      10064      10075      10074      10184      10185      10196      10195  
     10064      10065      10076      10075      10185      10186      10197      10196  
     10066      10067      10078      10077      10187      10188      10199      10198  
     10067      10068      10079      10078      10188      10189      10200      10199  
     10068      10069      10080      10079      10189      10190      10201      10200  
     10069      10070      10081      10080      10190      10191      10202      10201  
     10070      10071      10082      10081      10191      10192      10203      10202  
     10071      10072      10083      10082      10192      10193      10204      10203  
     10072      10073      10084      10083      10193      10194      10205      10204  
     10073      10074      10085      10084      10194      10195      10206      10205  
     10074      10075      10086      10085      10195      10196      10207      10206  
     10075      10076      10087      10086      10196      10197      10208      10207  
     10077      10078      10089      10088      10198      10199      10210      10209  
     10078      10079      10090      10089      10199      10200      10211      10210  
     10079      10080      10091      10090      10200      10201      10212      10211  
     10080      10081      10092      10091      10201      10202      10213      10212  
     10081      10082      10093      10092      10202      10203      10214      10213  
     10082      10083      10094      10093      10203      10204      10215      10214  
     10083      10084      10095      10094      10204      10205      10216      10215  
     10084      10085      10096      10095      10205      10206      10217      10216  
     10085      10086      10097      10096      10206      10207      10218      10217  
     10086      10087      10098      10097      10207      10208      10219      10218  
     10088      10089      10100      10099      10209      10210      10221      10220  
     10089      10090      10101      10100      10210      10211      10222      10221  
     10090      10091      10102      10101      10211      10212      10223      10222  
     10091      10092      10103      10102      10212      10213      10224      10223  
     10092      10093      10104      10103      10213      10214      10225      10224  
     10093      10094      10105      10104      10214      10215      10226      10225  
     10094      10095      10106      10105      10215      10216      10227      10226  
     10095      10096      10107      10106      10216      10217      10228      10227  
     10096      10097      10108      10107      10217      10218      10229      10228  
     10097      10098      10109      10108      10218      10219      10230      10229  
     10099      10100      10111      10110      10220      10221      10232      10231  
     10100      10101      10112      10111      10221      10222      10233      10232  
     10101      10102      10113      10112      10222      10223      10234      10233  
     10102      10103      10114      10113      10223      10224      10235      10234  
     10103      10104      10115      10114      10224      10225      10236      10235  
     10104      10105      10116      10115      10225      10226      10237      10236  
     10105      10106      10117      10116      10226      10227      10238      10237  
     10106      10107      10118      10117      10227      10228      10239      10238  
     10107      10108      10119      10118      10228      10229      10240      10239  
     10108      10109      10120      10119      10229      10230      10241      10240  
     10110      10111      10122      10121      10231      10232      10243      10242  
     10111      10112      10123      10122      10232      10233      10244      10243  
     10112      10113      10124      10123      10233      10234      10245      10244  
     10113      10114      10125      10124      10234      10235      10246      10245  
     10114      10115      10126      10125      10235      10236      10247      10246  
     10115      10116      10127      10126      10236      10237      10248      10247  
     10116      10117      10128      10127      10237      10238      10249      10248  
     10117      10118      10129      10128      10238      10239      10250      10249  
     10118      10119      10130      10129      10239      10240      10251      10250  
     10119      10120      10131      10130      10240      10241      10252      10251  
     10121      10122      10133      10132      10242      10243      10254      10253  
     10122      10123      10134      10133      10243      10244      10255      10254  
     10123      10124      10135      10134      10244      10245      10256      10255  
     10124      10125      10136      10135      10245      10246      10257      10256  
     10125      10126      10137      10136      10246      10247      10258      10257  
     10126      10127      10138      10137      10247      10248      10259      10258  
     10127      10128      10139      10138      10248      10249      10260      10259  
     10128      10129      10140      10139      10249      10250      10261      10260  
     10129      10130      10141      10140      10250      10251      10262      10261  
     10130      10131      10142      10141      10251      10252      10263      10262  
     10132      10133      10144      10143      10253      10254      10265      10264  
     10133      10134      10145      10144      10254      10255      10266      10265  
     10134      10135      10146      10145      10255      10256      10267      10266  
     10135      10136      10147      10146      10256      10257      10268      10267  
     10136      10137      10148      10147      10257      10258      10269      10268  
     10137      10138      10149      10148      10258      10259      10270      10269  
     10138      10139      10150      10149      10259      10260      10271      10270  
     10139      10140      10151      10150      10260      10261      10272      10271  
     10140      10141      10152      10151      10261      10262      10273      10272  
     10141      10142      10153      10152      10262      10263      10274      10273  
     10143      10144      10155      10154      10264      10265      10276      10275  
     10144      10145      10156      10155      10265      10266      10277      10276  
     10145      10146      10157      10156      10266      10267      10278      10277  
     10146      10147      10158      10157      10267      10268      10279      10278  
     10147      10148      10159      10158      10268      10269      10280      10279  
     10148      10149      10160      10159      10269      10270      10281      10280  
     10149      10150      10161      10160      10270      10271      10282      10281  
     10150      10151      10162      10161      10271      10272      10283      10282  
     10151      10152      10163      10162      10272      10273      10284      10283  
     10152      10153      10164      10163      10273      10274      10285      10284  
     10165      10166      10177      10176      10286      10287      10298      10297  
     10166      10167      10178      10177      10287      10288      10299      10298  
     10167      10168      10179      10178      10288      10289      10300      10299  
     10168      10169      10180      10179      10289      10290      10301      10300  
     10169      10170      10181      10180      10290      10291      10302      10301  
     10170      10171      10182      10181      10291      10292      10303      10302  
     10171      10172      10183      10182      10292      10293      10304      10303  
     10172      10173      10184      10183      10293      10294      10305      10304  
     10173      10174      10185      10184      10294      10295      10306      10305  
     10174      10175      10186      10185      10295      10296      10307      10306  
     10176      10177      10188      10187      10297      10298      10309      10308  
     10177      10178      10189      10188      10298      10299      10310      10309  
     10178      10179      10190      10189      10299      10300      10311      10310  
     10179      10180      10191      10190      10300      10301      10312      10311  
     10180      10181      10192      10191      10301      10302      10313      10312  
     10181      10182      10193      10192      10302      10303      10314      10313  
     10182      10183      10194      10193      10303      10304      10315      10314  
     10183      10184      10195      10194      10304      10305      10316      10315  
     10184      10185      10196      10195      10305      10306      10317      10316  
     10185      10186      10197      10196      10306      10307      10318      10317  
     10187      10188      10199      10198      10308      10309      10320      10319  
     10188      10189      10200      10199      10309      10310      10321      10320  
     10189      10190      10201      10200      10310      10311      10322      10321  
     10190      10191      10202      10201      10311      10312      10323      10322  
     10191      10192      10203      10202      10312      10313      10324      10323  
     10192      10193      10204      10203      10313      10314      10325      10324  
     10193      10194      10205      10204      10314      10315      10326      10325  
     10194      10195      10206      10205      10315      10316      10327      10326  
     10195      10196      10207      10206      10316      10317      10328      10327  
     10196      10197      10208      10207      10317      10318      10329      10328  
     10198      10199      10210      10209      10319      10320      10331      10330  
     10199      10200      10211      10210      10320      10321      10332      10331  
     10200      10201      10212      10211      10321      10322      10333      10332  
     10201      10202      10213      10212      10322      10323      10334      10333  
     10202      10203      10214      10213      10323      10324      10335      10334  
     10203      10204      10215      10214      10324      10325      10336      10335  
     10204      10205      10216      10215      10325      10326      10337      10336  
     10205      10206      10217      10216      10326      10327      10338      10337  
     10206      10207      10218      10217      10327      10328      10339      10338  
     10207      10208      10219      10218      10328      10329      10340      10339  
     10209      10210      10221      10220      10330      10331      10342      10341  
     10210      10211      10222      10221      10331      10332      10343      10342  
     10211      10212      10223      10222      10332      10333      10344      10343  
     10212      10213      10224      10223      10333      10334      10345      10344  
     10213      10214      10225      10224      10334      10335      10346      10345  
     10214      10215      10226      10225      10335      10336      10347      10346  
     10215      10216      10227      10226      10336      10337      10348      10347  
     10216      10217      10228      10227      10337      10338      10349      10348  
     10217      10218      10229      10228      10338      10339      10350      10349  
     10218      10219      10230      10229      10339      10340      10351      10350  
     10220      10221      10232      10231      10341      10342      10353      10352  
     10221      10222      10233      10232      10342      10343      10354      10353  
     10222      10223      10234      10233      10343      10344      10355      10354  
     10223      10224      10235      10234      10344      10345      10356      10355  
     10224      10225      10236      10235      10345      10346      10357      10356  
     10225      10226      10237      10236      10346      10347      10358      10357  
     10226      10227      10238      10237      10347      10348      10359      10358  
     10227      10228      10239      10238      10348      10349      10360      10359  
     10228      10229      10240      10239      10349      10350      10361      10360  
     10229      10230      10241      10240      10350      10351      10362      10361  
     10231      10232      10243      10242      10352      10353      10364      10363  
     10232      10233      10244      10243      10353      10354      10365      10364  
     10233      10234      10245      10244      10354      10355      10366      10365  
     10234      10235      10246      10245      10355      10356      10367      10366  
     10235      10236      10247      10246      10356      10357      10368      10367  
     10236      10237      10248      10247      10357      10358      10369      10368  
     10237      10238      10249      10248      10358      10359      10370      10369  
     10238      10239      10250      10249      10359      10360      10371      10370  
     10239      10240      10251      10250      10360      10361      10372      10371  
     10240      10241      10252      10251      10361      10362      10373      10372  
     10242      10243      10254      10253      10363      10364      10375      10374  
     10243      10244      10255      10254      10364      10365      10376      10375  
     10244      10245      10256      10255      10365      10366      10377      10376  
     10245      10246      10257      10256      10366      10367      10378      10377  
     10246      10247      10258      10257      10367      10368      10379      10378  
     10247      10248      10259      10258      10368      10369      10380      10379  
     10248      10249      10260      10259      10369      10370      10381      10380  
     10249      10250      10261      10260      10370      10371      10382      10381  
     10250      10251      10262      10261      10371      10372      10383      10382  
     10251      10252      10263      10262      10372      10373      10384      10383  
     10253      10254      10265      10264      10374      10375      10386      10385  
     10254      10255      10266      10265      10375      10376      10387      10386  
     10255      10256      10267      10266      10376      10377      10388      10387  
     10256      10257      10268      10267      10377      10378      10389      10388  
     10257      10258      10269      10268      10378      10379      10390      10389  
     10258      10259      10270      10269      10379      10380      10391      10390  
     10259      10260      10271      10270      10380      10381      10392      10391  
     10260      10261      10272      10271      10381      10382      10393      10392  
     10261      10262      10273      10272      10382      10383      10394      10393  
     10262      10263      10274      10273      10383      10384      10395      10394  
     10264      10265      10276      10275      10385      10386      10397      10396  
     10265      10266      10277      10276      10386      10387      10398      10397  
     10266      10267      10278      10277      10387      10388      10399      10398  
     10267      10268      10279      10278      10388      10389      10400      10399  
     10268      10269      10280      10279      10389      10390      10401      10400  
     10269      10270      10281      10280      10390      10391      10402      10401  
     10270      10271      10282      10281      10391      10392      10403      10402  
     10271      10272      10283      10282      10392      10393      10404      10403  
     10272      10273      10284      10283      10393      10394      10405      10404  
     10273      10274      10285      10284      10394      10395      10406      10405  
     10286      10287      10298      10297      10407      10408      10419      10418  
     10287      10288      10299      10298      10408      10409      10420      10419  
     10288      10289      10300      10299      10409      10410      10421      10420  
     10289      10290      10301      10300      10410      10411      10422      10421  
     10290      10291      10302      10301      10411      10412      10423      10422  
     10291      10292      10303      10302      10412      10413      10424      10423  
     10292      10293      10304      10303      10413      10414      10425      10424  
     10293      10294      10305      10304      10414      10415      10426      10425  
     10294      10295      10306      10305      10415      10416      10427      10426  
     10295      10296      10307      10306      10416      10417      10428      10427  
     10297      10298      10309      10308      10418      10419      10430      10429  
     10298      10299      10310      10309      10419      10420      10431      10430  
     10299      10300      10311      10310      10420      10421      10432      10431  
     10300      10301      10312      10311      10421      10422      10433      10432  
     10301      10302      10313      10312      10422      10423      10434      10433  
     10302      10303      10314      10313      10423      10424      10435      10434  
     10303      10304      10315      10314      10424      10425      10436      10435  
     10304      10305      10316      10315      10425      10426      10437      10436  
     10305      10306      10317      10316      10426      10427      10438      10437  
     10306      10307      10318      10317      10427      10428      10439      10438  
     10308      10309      10320      10319      10429      10430      10441      10440  
     10309      10310      10321      10320      10430      10431      10442      10441  
     10310      10311      10322      10321      10431      10432      10443      10442  
     10311      10312      10323      10322      10432      10433      10444      10443  
     10312      10313      10324      10323      10433      10434      10445      10444  
     10313      10314      10325      10324      10434      10435      10446      10445  
     10314      10315      10326      10325      10435      10436      10447      10446  
     10315      10316      10327      10326      10436      10437      10448      10447  
     10316      10317      10328      10327      10437      10438      10449      10448  
     10317      10318      10329      10328      10438      10439      10450      10449  
     10319      10320      10331      10330      10440      10441      10452      10451  
     10320      10321      10332      10331      10441      10442      10453      10452  
     10321      10322      10333      10332      10442      10443      10454      10453  
     10322      10323      10334      10333      10443      10444      10455      10454  
     10323      10324      10335      10334      10444      10445      10456      10455  
     10324      10325      10336      10335      10445      10446      10457      10456  
     10325      10326      10337      10336      10446      10447      10458      10457  
     10326      10327      10338      10337      10447      10448      10459      10458  
     10327      10328      10339      10338      10448      10449      10460      10459  
     10328      10329      10340      10339      10449      10450      10461      10460  
     10330      10331      10342      10341      10451      10452      10463      10462  
     10331      10332      10343      10342      10452      10453      10464      10463  
     10332      10333      10344      10343      10453      10454      10465      10464  
     10333      10334      10345      10344      10454      10455      10466      10465  
     10334      10335      10346      10345      10455      10456      10467      10466  
     10335      10336      10347      10346      10456      10457      10468      10467  
     10336      10337      10348      10347      10457      10458      10469      10468  
     10337      10338      10349      10348      10458      10459      10470      10469  
     10338      10339      10350      10349      10459      10460      10471      10470  
     10339      10340      10351      10350      10460      10461      10472      10471  
     10341      10342      10353      10352      10462      10463      10474      10473  
     10342      10343      10354      10353      10463      10464      10475      10474  
     10343      10344      10355      10354      10464      10465      10476      10475  
     10344      10345      10356      10355      10465      10466      10477      10476  
     10345      10346      10357      10356      10466      10467      10478      10477  
     10346      10347      10358      10357      10467      10468      10479      10478  
     10347      10348      10359      10358      10468      10469      10480      10479  
     10348      10349      10360      10359      10469      10470      10481      10480  
     10349      10350      10361      10360      10470      10471      10482      10481  
     10350      10351      10362      10361      10471      10472      10483      10482  
     10352      10353      10364      10363      10473      10474      10485      10484  
     10353      10354      10365      10364      10474      10475      10486      10485  
     10354      10355      10366      10365      10475      10476      10487      10486  
     10355      10356      10367      10366      10476      10477      10488      10487  
     10356      10357      10368      10367      10477      10478      10489      10488  
     10357      10358      10369      10368      10478      10479      10490      10489  
     10358      10359      10370      10369      10479      10480      10491      10490  
     10359      10360      10371      10370      10480      10481      10492      10491  
     10360      10361      10372      10371      10481      10482      10493      10492  
     10361      10362      10373      10372      10482      10483      10494      10493  
     10363      10364      10375      10374      10484      10485      10496      10495  
     10364      10365      10376      10375      10485      10486      10497      10496  
     10365      10366      10377      10376      10486      10487      10498      10497  
     10366      10367      10378      10377      10487      10488      10499      10498  
     10367      10368      10379      10378      10488      10489      10500      10499  
     10368      10369      10380      10379      10489      10490      10501      10500  
     10369      10370      10381      10380      10490      10491      10502      10501  
     10370      10371      10382      10381      10491      10492      10503      10502  
     10371      10372      10383      10382      10492      10493      10504      10503  
     10372      10373      10384      10383      10493      10494      10505      10504  
     10374      10375      10386      10385      10495      10496      10507      10506  
     10375      10376      10387      10386      10496      10497      10508      10507  
     10376      10377      10388      10387      10497      10498      10509      10508  
     10377      10378      10389      10388      10498      10499      10510      10509  
     10378      10379      10390      10389      10499      10500      10511      10510  
     10379      10380      10391      10390      10500      10501      10512      10511  
     10380      10381      10392      10391      10501      10502      10513      10512  
     10381      10382      10393      10392      10502      10503      10514      10513  
     10382      10383      10394      10393      10503      10504      10515      10514  
     10383      10384      10395      10394      10504      10505      10516      10515  
     10385      10386      10397      10396      10506      10507      10518      10517  
     10386      10387      10398      10397      10507      10508      10519      10518  
     10387      10388      10399      10398      10508      10509      10520      10519  
     10388      10389      10400      10399      10509      10510      10521      10520  
     10389      10390      10401      10400      10510      10511      10522      10521  
     10390      10391      10402      10401      10511      10512      10523      10522  
     10391      10392      10403      10402      10512      10513      10524      10523  
     10392      10393      10404      10403      10513      10514      10525      10524  
     10393      10394      10405      10404      10514      10515      10526      10525  
     10394      10395      10406      10405      10515      10516      10527      10526  
     10407      10408      10419      10418      10528      10529      10540      10539  
     10408      10409      10420      10419      10529      10530      10541      10540  
     10409      10410      10421      10420      10530      10531      10542      10541  
     10410      10411      10422      10421      10531      10532      10543      10542  
     10411      10412      10423      10422      10532      10533      10544      10543  
     10412      10413      10424      10423      10533      10534      10545      10544  
     10413      10414      10425      10424      10534      10535      10546      10545  
     10414      10415      10426      10425      10535      10536      10547      10546  
     10415      10416      10427      10426      10536      10537      10548      10547  
     10416      10417      10428      10427      10537      10538      10549      10548  
     10418      10419      10430      10429      10539      10540      10551      10550  
     10419      10420      10431      10430      10540      10541      10552      10551  
     10420      10421      10432      10431      10541      10542      10553      10552  
     10421      10422      10433      10432      10542      10543      10554      10553  
     10422      10423      10434      10433      10543      10544      10555      10554  
     10423      10424      10435      10434      10544      10545      10556      10555  
     10424      10425      10436      10435      10545      10546      10557      10556  
     10425      10426      10437      10436      10546      10547      10558      10557  
     10426      10427      10438      10437      10547      10548      10559      10558  
     10427      10428      10439      10438      10548      10549      10560      10559  
     10429      10430      10441      10440      10550      10551      10562      10561  
     10430      10431      10442      10441      10551      10552      10563      10562  
     10431      10432      10443      10442      10552      10553      10564      10563  
     10432      10433      10444      10443      10553      10554      10565      10564  
     10433      10434      10445      10444      10554      10555      10566      10565  
     10434      10435      10446      10445      10555      10556      10567      10566  
     10435      10436      10447      10446      10556      10557      10568      10567  
     10436      10437      10448      10447      10557      10558      10569      10568  
     10437      10438      10449      10448      10558      10559      10570      10569  
     10438      10439      10450      10449      10559      10560      10571      10570  
     10440      10441      10452      10451      10561      10562      10573      10572  
     10441      10442      10453      10452      10562      10563      10574      10573  
     10442      10443      10454      10453      10563      10564      10575      10574  
     10443      10444      10455      10454      10564      10565      10576      10575  
     10444      10445      10456      10455      10565      10566      10577      10576  
     10445      10446      10457      10456      10566      10567      10578      10577  
     10446      10447      10458      10457      10567      10568      10579      10578  
     10447      10448      10459      10458      10568      10569      10580      10579  
     10448      10449      10460      10459      10569      10570      10581      10580  
     10449      10450      10461      10460      10570      10571      10582      10581  
     10451      10452      10463      10462      10572      10573      10584      10583  
     10452      10453      10464      10463      10573      10574      10585      10584  
     10453      10454      10465      10464      10574      10575      10586      10585  
     10454      10455      10466      10465      10575      10576      10587      10586  
     10455      10456      10467      10466      10576      10577      10588      10587  
     10456      10457      10468      10467      10577      10578      10589      10588  
     10457      10458      10469      10468      10578      10579      10590      10589  
     10458      10459      10470      10469      10579      10580      10591      10590  
     10459      10460      10471      10470      10580      10581      10592      10591  
     10460      10461      10472      10471      10581      10582      10593      10592  
     10462      10463      10474      10473      10583      10584      10595      10594  
     10463      10464      10475      10474      10584      10585      10596      10595  
     10464      10465      10476      10475      10585      10586      10597      10596  
     10465      10466      10477      10476      10586      10587      10598      10597  
     10466      10467      10478      10477      10587      10588      10599      10598  
     10467      10468      10479      10478      10588      10589      10600      10599  
     10468      10469      10480      10479      10589      10590      10601      10600  
     10469      10470      10481      10480      10590      10591      10602      10601  
     10470      10471      10482      10481      10591      10592      10603      10602  
     10471      10472      10483      10482      10592      10593      10604      10603  
     10473      10474      10485      10484      10594      10595      10606      10605  
     10474      10475      10486      10485      10595      10596      10607      10606  
     10475      10476      10487      10486      10596      10597      10608      10607  
     10476      10477      10488      10487      10597      10598      10609      10608  
     10477      10478      10489      10488      10598      10599      10610      10609  
     10478      10479      10490      10489      10599      10600      10611      10610  
     10479      10480      10491      10490      10600      10601      10612      10611  
     10480      10481      10492      10491      10601      10602      10613      10612  
     10481      10482      10493      10492      10602      10603      10614      10613  
     10482      10483      10494      10493      10603      10604      10615      10614  
     10484      10485      10496      10495      10605      10606      10617      10616  
     10485      10486      10497      10496      10606      10607      10618      10617  
     10486      10487      10498      10497      10607      10608      10619      10618  
     10487      10488      10499      10498      10608      10609      10620      10619  
     10488      10489      10500      10499      10609      10610      10621      10620  
     10489      10490      10501      10500      10610      10611      10622      10621  
     10490      10491      10502      10501      10611      10612      10623      10622  
     10491      10492      10503      10502      10612      10613      10624      10623  
     10492      10493      10504      10503      10613      10614      10625      10624  
     10493      10494      10505      10504      10614      10615      10626      10625  
     10495      10496      10507      10506      10616      10617      10628      10627  
     10496      10497      10508      10507      10617      10618      10629      10628  
     10497      10498      10509      10508      10618      10619      10630      10629  
     10498      10499      10510      10509      10619      10620      10631      10630  
     10499      10500      10511      10510      10620      10621      10632      10631  
     10500      10501      10512      10511      10621      10622      10633      10632  
     10501      10502      10513      10512      10622      10623      10634      10633  
     10502      10503      10514      10513      10623      10624      10635      10634  
     10503      10504      10515      10514      10624      10625      10636      10635  
     10504      10505      10516      10515      10625      10626      10637      10636  
     10506      10507      10518      10517      10627      10628      10639      10638  
     10507      10508      10519      10518      10628      10629      10640      10639  
     10508      10509      10520      10519      10629      10630      10641      10640  
     10509      10510      10521      10520      10630      10631      10642      10641  
     10510      10511      10522      10521      10631      10632      10643      10642  
     10511      10512      10523      10522      10632      10633      10644      10643  
     10512      10513      10524      10523      10633      10634      10645      10644  
     10513      10514      10525      10524      10634      10635      10646      10645  
     10514      10515      10526      10525      10635      10636      10647      10646  
     10515      10516      10527      10526      10636      10637      10648      10647  
     10528      10529      10540      10539      10649      10650      10661      10660  
     10529      10530      10541      10540      10650      10651      10662      10661  
     10530      10531      10542      10541      10651      10652      10663      10662  
     10531      10532      10543      10542      10652      10653      10664      10663  
     10532      10533      10544      10543      10653      10654      10665      10664  
     10533      10534      10545      10544      10654      10655      10666      10665  
     10534      10535      10546      10545      10655      10656      10667      10666  
     10535      10536      10547      10546      10656      10657      10668      10667  
     10536      10537      10548      10547      10657      10658      10669      10668  
     10537      10538      10549      10548      10658      10659      10670      10669  
     10539      10540      10551      10550      10660      10661      10672      10671  
     10540      10541      10552      10551      10661      10662      10673      10672  
     10541      10542      10553      10552      10662      10663      10674      10673  
     10542      10543      10554      10553      10663      10664      10675      10674  
     10543      10544      10555      10554      10664      10665      10676      10675  
     10544      10545      10556      10555      10665      10666      10677      10676  
     10545      10546      10557      10556      10666      10667      10678      10677  
     10546      10547      10558      10557      10667      10668      10679      10678  
     10547      10548      10559      10558      10668      10669      10680      10679  
     10548      10549      10560      10559      10669      10670      10681      10680  
     10550      10551      10562      10561      10671      10672      10683      10682  
     10551      10552      10563      10562      10672      10673      10684      10683  
     10552      10553      10564      10563      10673      10674      10685      10684  
     10553      10554      10565      10564      10674      10675      10686      10685  
     10554      10555      10566      10565      10675      10676      10687      10686  
     10555      10556      10567      10566      10676      10677      10688      10687  
     10556      10557      10568      10567      10677      10678      10689      10688  
     10557      10558      10569      10568      10678      10679      10690      10689  
     10558      10559      10570      10569      10679      10680      10691      10690  
     10559      10560      10571      10570      10680      10681      10692      10691  
     10561      10562      10573      10572      10682      10683      10694      10693  
     10562      10563      10574      10573      10683      10684      10695      10694  
     10563      10564      10575      10574      10684      10685      10696      10695  
     10564      10565      10576      10575      10685      10686      10697      10696  
     10565      10566      10577      10576      10686      10687      10698      10697  
     10566      10567      10578      10577      10687      10688      10699      10698  
     10567      10568      10579      10578      10688      10689      10700      10699  
     10568      10569      10580      10579      10689      10690      10701      10700  
     10569      10570      10581      10580      10690      10691      10702      10701  
     10570      10571      10582      10581      10691      10692      10703      10702  
     10572      10573      10584      10583      10693      10694      10705      10704  
     10573      10574      10585      10584      10694      10695      10706      10705  
     10574      10575      10586      10585      10695      10696      10707      10706  
     10575      10576      10587      10586      10696      10697      10708      10707  
     10576      10577      10588      10587      10697      10698      10709      10708  
     10577      10578      10589      10588      10698      10699      10710      10709  
     10578      10579      10590      10589      10699      10700      10711      10710  
     10579      10580      10591      10590      10700      10701      10712      10711  
     10580      10581      10592      10591      10701      10702      10713      10712  
     10581      10582      10593      10592      10702      10703      10714      10713  
     10583      10584      10595      10594      10704      10705      10716      10715  
     10584      10585      10596      10595      10705      10706      10717      10716  
     10585      10586      10597      10596      10706      10707      10718      10717  
     10586      10587      10598      10597      10707      10708      10719      10718  
     10587      10588      10599      10598      10708      10709      10720      10719  
     10588      10589      10600      10599      10709      10710      10721      10720  
     10589      10590      10601      10600      10710      10711      10722      10721  
     10590      10591      10602      10601      10711      10712      10723      10722  
     10591      10592      10603      10602      10712      10713      10724      10723  
     10592      10593      10604      10603      10713      10714      10725      10724  
     10594      10595      10606      10605      10715      10716      10727      10726  
     10595      10596      10607      10606      10716      10717      10728      10727  
     10596      10597      10608      10607      10717      10718      10729      10728  
     10597      10598      10609      10608      10718      10719      10730      10729  
     10598      10599      10610      10609      10719      10720      10731      10730  
     10599      10600      10611      10610      10720      10721      10732      10731  
     10600      10601      10612      10611      10721      10722      10733      10732  
     10601      10602      10613      10612      10722      10723      10734      10733  
     10602      10603      10614      10613      10723      10724      10735      10734  
     10603      10604      10615      10614      10724      10725      10736      10735  
     10605      10606      10617      10616      10726      10727      10738      10737  
     10606      10607      10618      10617      10727      10728      10739      10738  
     10607      10608      10619      10618      10728      10729      10740      10739  
     10608      10609      10620      10619      10729      10730      10741      10740  
     10609      10610      10621      10620      10730      10731      10742      10741  
     10610      10611      10622      10621      10731      10732      10743      10742  
     10611      10612      10623      10622      10732      10733      10744      10743  
     10612      10613      10624      10623      10733      10734      10745      10744  
     10613      10614      10625      10624      10734      10735      10746      10745  
     10614      10615      10626      10625      10735      10736      10747      10746  
     10616      10617      10628      10627      10737      10738      10749      10748  
     10617      10618      10629      10628      10738      10739      10750      10749  
     10618      10619      10630      10629      10739      10740      10751      10750  
     10619      10620      10631      10630      10740      10741      10752      10751  
     10620      10621      10632      10631      10741      10742      10753      10752  
     10621      10622      10633      10632      10742      10743      10754      10753  
     10622      10623      10634      10633      10743      10744      10755      10754  
     10623      10624      10635      10634      10744      10745      10756      10755  
     10624      10625      10636      10635      10745      10746      10757      10756  
     10625      10626      10637      10636      10746      10747      10758      10757  
     10627      10628      10639      10638      10748      10749      10760      10759  
     10628      10629      10640      10639      10749      10750      10761      10760  
     10629      10630      10641      10640      10750      10751      10762      10761  
     10630      10631      10642      10641      10751      10752      10763      10762  
     10631      10632      10643      10642      10752      10753      10764      10763  
     10632      10633      10644      10643      10753      10754      10765      10764  
     10633      10634      10645      10644      10754      10755      10766      10765  
     10634      10635      10646      10645      10755      10756      10767      10766  
     10635      10636      10647      10646      10756      10757      10768      10767  
     10636      10637      10648      10647      10757      10758      10769      10768  
     10649      10650      10661      10660      10770      10771      10782      10781  
     10650      10651      10662      10661      10771      10772      10783      10782  
     10651      10652      10663      10662      10772      10773      10784      10783  
     10652      10653      10664      10663      10773      10774      10785      10784  
     10653      10654      10665      10664      10774      10775      10786      10785  
     10654      10655      10666      10665      10775      10776      10787      10786  
     10655      10656      10667      10666      10776      10777      10788      10787  
     10656      10657      10668      10667      10777      10778      10789      10788  
     10657      10658      10669      10668      10778      10779      10790      10789  
     10658      10659      10670      10669      10779      10780      10791      10790  
     10660      10661      10672      10671      10781      10782      10793      10792  
     10661      10662      10673      10672      10782      10783      10794      10793  
     10662      10663      10674      10673      10783      10784      10795      10794  
     10663      10664      10675      10674      10784      10785      10796      10795  
     10664      10665      10676      10675      10785      10786      10797      10796  
     10665      10666      10677      10676      10786      10787      10798      10797  
     10666      10667      10678      10677      10787      10788      10799      10798  
     10667      10668      10679      10678      10788      10789      10800      10799  
     10668      10669      10680      10679      10789      10790      10801      10800  
     10669      10670      10681      10680      10790      10791      10802      10801  
     10671      10672      10683      10682      10792      10793      10804      10803  
     10672      10673      10684      10683      10793      10794      10805      10804  
     10673      10674      10685      10684      10794      10795      10806      10805  
     10674      10675      10686      10685      10795      10796      10807      10806  
     10675      10676      10687      10686      10796      10797      10808      10807  
     10676      10677      10688      10687      10797      10798      10809      10808  
     10677      10678      10689      10688      10798      10799      10810      10809  
     10678      10679      10690      10689      10799      10800      10811      10810  
     10679      10680      10691      10690      10800      10801      10812      10811  
     10680      10681      10692      10691      10801      10802      10813      10812  
     10682      10683      10694      10693      10803      10804      10815      10814  
     10683      10684      10695      10694      10804      10805      10816      10815  
     10684      10685      10696      10695      10805      10806      10817      10816  
     10685      10686      10697      10696      10806      10807      10818      10817  
     10686      10687      10698      10697      10807      10808      10819      10818  
     10687      10688      10699      10698      10808      10809      10820      10819  
     10688      10689      10700      10699      10809      10810      10821      10820  
     10689      10690      10701      10700      10810      10811      10822      10821  
     10690      10691      10702      10701      10811      10812      10823      10822  
     10691      10692      10703      10702      10812      10813      10824      10823  
     10693      10694      10705      10704      10814      10815      10826      10825  
     10694      10695      10706      10705      10815      10816      10827      10826  
     10695      10696      10707      10706      10816      10817      10828      10827  
     10696      10697      10708      10707      10817      10818      10829      10828  
     10697      10698      10709      10708      10818      10819      10830      10829  
     10698      10699      10710      10709      10819      10820      10831      10830  
     10699      10700      10711      10710      10820      10821      10832      10831  
     10700      10701      10712      10711      10821      10822      10833      10832  
     10701      10702      10713      10712      10822      10823      10834      10833  
     10702      10703      10714      10713      10823      10824      10835      10834  
     10704      10705      10716      10715      10825      10826      10837      10836  
     10705      10706      10717      10716      10826      10827      10838      10837  
     10706      10707      10718      10717      10827      10828      10839      10838  
     10707      10708      10719      10718      10828      10829      10840      10839  
     10708      10709      10720      10719      10829      10830      10841      10840  
     10709      10710      10721      10720      10830      10831      10842      10841  
     10710      10711      10722      10721      10831      10832      10843      10842  
     10711      10712      10723      10722      10832      10833      10844      10843  
     10712      10713      10724      10723      10833      10834      10845      10844  
     10713      10714      10725      10724      10834      10835      10846      10845  
     10715      10716      10727      10726      10836      10837      10848      10847  
     10716      10717      10728      10727      10837      10838      10849      10848  
     10717      10718      10729      10728      10838      10839      10850      10849  
     10718      10719      10730      10729      10839      10840      10851      10850  
     10719      10720      10731      10730      10840      10841      10852      10851  
     10720      10721      10732      10731      10841      10842      10853      10852  
     10721      10722      10733      10732      10842      10843      10854      10853  
     10722      10723      10734      10733      10843      10844      10855      10854  
     10723      10724      10735      10734      10844      10845      10856      10855  
     10724      10725      10736      10735      10845      10846      10857      10856  
     10726      10727      10738      10737      10847      10848      10859      10858  
     10727      10728      10739      10738      10848      10849      10860      10859  
     10728      10729      10740      10739      10849      10850      10861      10860  
     10729      10730      10741      10740      10850      10851      10862      10861  
     10730      10731      10742      10741      10851      10852      10863      10862  
     10731      10732      10743      10742      10852      10853      10864      10863  
     10732      10733      10744      10743      10853      10854      10865      10864  
     10733      10734      10745      10744      10854      10855      10866      10865  
     10734      10735      10746      10745      10855      10856      10867      10866  
     10735      10736      10747      10746      10856      10857      10868      10867  
     10737      10738      10749      10748      10858      10859      10870      10869  
     10738      10739      10750      10749      10859      10860      10871      10870  
     10739      10740      10751      10750      10860      10861      10872      10871  
     10740      10741      10752      10751      10861      10862      10873      10872  
     10741      10742      10753      10752      10862      10863      10874      10873  
     10742      10743      10754      10753      10863      10864      10875      10874  
     10743      10744      10755      10754      10864      10865      10876      10875  
     10744      10745      10756      10755      10865      10866      10877      10876  
     10745      10746      10757      10756      10866      10867      10878      10877  
     10746      10747      10758      10757      10867      10868      10879      10878  
     10748      10749      10760      10759      10869      10870      10881      10880  
     10749      10750      10761      10760      10870      10871      10882      10881  
     10750      10751      10762      10761      10871      10872      10883      10882  
     10751      10752      10763      10762      10872      10873      10884      10883  
     10752      10753      10764      10763      10873      10874      10885      10884  
     10753      10754      10765      10764      10874      10875      10886      10885  
     10754      10755      10766      10765      10875      10876      10887      10886  
     10755      10756      10767      10766      10876      10877      10888      10887  
     10756      10757      10768      10767      10877      10878      10889      10888  
     10757      10758      10769      10768      10878      10879      10890      10889  
     10770      10771      10782      10781      10891      10892      10903      10902  
     10771      10772      10783      10782      10892      10893      10904      10903  
     10772      10773      10784      10783      10893      10894      10905      10904  
     10773      10774      10785      10784      10894      10895      10906      10905  
     10774      10775      10786      10785      10895      10896      10907      10906  
     10775      10776      10787      10786      10896      10897      10908      10907  
     10776      10777      10788      10787      10897      10898      10909      10908  
     10777      10778      10789      10788      10898      10899      10910      10909  
     10778      10779      10790      10789      10899      10900      10911      10910  
     10779      10780      10791      10790      10900      10901      10912      10911  
     10781      10782      10793      10792      10902      10903      10914      10913  
     10782      10783      10794      10793      10903      10904      10915      10914  
     10783      10784      10795      10794      10904      10905      10916      10915  
     10784      10785      10796      10795      10905      10906      10917      10916  
     10785      10786      10797      10796      10906      10907      10918      10917  
     10786      10787      10798      10797      10907      10908      10919      10918  
     10787      10788      10799      10798      10908      10909      10920      10919  
     10788      10789      10800      10799      10909      10910      10921      10920  
     10789      10790      10801      10800      10910      10911      10922      10921  
     10790      10791      10802      10801      10911      10912      10923      10922  
     10792      10793      10804      10803      10913      10914      10925      10924  
     10793      10794      10805      10804      10914      10915      10926      10925  
     10794      10795      10806      10805      10915      10916      10927      10926  
     10795      10796      10807      10806      10916      10917      10928      10927  
     10796      10797      10808      10807      10917      10918      10929      10928  
     10797      10798      10809      10808      10918      10919      10930      10929  
     10798      10799      10810      10809      10919      10920      10931      10930  
     10799      10800      10811      10810      10920      10921      10932      10931  
     10800      10801      10812      10811      10921      10922      10933      10932  
     10801      10802      10813      10812      10922      10923      10934      10933  
     10803      10804      10815      10814      10924      10925      10936      10935  
     10804      10805      10816      10815      10925      10926      10937      10936  
     10805      10806      10817      10816      10926      10927      10938      10937  
     10806      10807      10818      10817      10927      10928      10939      10938  
     10807      10808      10819      10818      10928      10929      10940      10939  
     10808      10809      10820      10819      10929      10930      10941      10940  
     10809      10810      10821      10820      10930      10931      10942      10941  
     10810      10811      10822      10821      10931      10932      10943      10942  
     10811      10812      10823      10822      10932      10933      10944      10943  
     10812      10813      10824      10823      10933      10934      10945      10944  
     10814      10815      10826      10825      10935      10936      10947      10946  
     10815      10816      10827      10826      10936      10937      10948      10947  
     10816      10817      10828      10827      10937      10938      10949      10948  
     10817      10818      10829      10828      10938      10939      10950      10949  
     10818      10819      10830      10829      10939      10940      10951      10950  
     10819      10820      10831      10830      10940      10941      10952      10951  
     10820      10821      10832      10831      10941      10942      10953      10952  
     10821      10822      10833      10832      10942      10943      10954      10953  
     10822      10823      10834      10833      10943      10944      10955      10954  
     10823      10824      10835      10834      10944      10945      10956      10955  
     10825      10826      10837      10836      10946      10947      10958      10957  
     10826      10827      10838      10837      10947      10948      10959      10958  
     10827      10828      10839      10838      10948      10949      10960      10959  
     10828      10829      10840      10839      10949      10950      10961      10960  
     10829      10830      10841      10840      10950      10951      10962      10961  
     10830      10831      10842      10841      10951      10952      10963      10962  
     10831      10832      10843      10842      10952      10953      10964      10963  
     10832      10833      10844      10843      10953      10954      10965      10964  
     10833      10834      10845      10844      10954      10955      10966      10965  
     10834      10835      10846      10845      10955      10956      10967      10966  
     10836      10837      10848      10847      10957      10958      10969      10968  
     10837      10838      10849      10848      10958      10959      10970      10969  
     10838      10839      10850      10849      10959      10960      10971      10970  
     10839      10840      10851      10850      10960      10961      10972      10971  
     10840      10841      10852      10851      10961      10962      10973      10972  
     10841      10842      10853      10852      10962      10963      10974      10973  
     10842      10843      10854      10853      10963      10964      10975      10974  
     10843      10844      10855      10854      10964      10965      10976      10975  
     10844      10845      10856      10855      10965      10966      10977      10976  
     10845      10846      10857      10856      10966      10967      10978      10977  
     10847      10848      10859      10858      10968      10969      10980      10979  
     10848      10849      10860      10859      10969      10970      10981      10980  
     10849      10850      10861      10860      10970      10971      10982      10981  
     10850      10851      10862      10861      10971      10972      10983      10982  
     10851      10852      10863      10862      10972      10973      10984      10983  
     10852      10853      10864      10863      10973      10974      10985      10984  
     10853      10854      10865      10864      10974      10975      10986      10985  
     10854      10855      10866      10865      10975      10976      10987      10986  
     10855      10856      10867      10866      10976      10977      10988      10987  
     10856      10857      10868      10867      10977      10978      10989      10988  
     10858      10859      10870      10869      10979      10980      10991      10990  
     10859      10860      10871      10870      10980      10981      10992      10991  
     10860      10861      10872      10871      10981      10982      10993      10992  
     10861      10862      10873      10872      10982      10983      10994      10993  
     10862      10863      10874      10873      10983      10984      10995      10994  
     10863      10864      10875      10874      10984      10985      10996      10995  
     10864      10865      10876      10875      10985      10986      10997      10996  
     10865      10866      10877      10876      10986      10987      10998      10997  
     10866      10867      10878      10877      10987      10988      10999      10998  
     10867      10868      10879      10878      10988      10989      11000      10999  
     10869      10870      10881      10880      10990      10991      11002      11001  
     10870      10871      10882      10881      10991      10992      11003      11002  
     10871      10872      10883      10882      10992      10993      11004      11003  
     10872      10873      10884      10883      10993      10994      11005      11004  
     10873      10874      10885      10884      10994      10995      11006      11005  
     10874      10875      10886      10885      10995      10996      11007      11006  
     10875      10876      10887      10886      10996      10997      11008      11007  
     10876      10877      10888      10887      10997      10998      11009      11008  
     10877      10878      10889      10888      10998      10999      11010      11009  
     10878      10879      10890      10889      10999      11000      11011      11010  
     10891      10892      10903      10902      11012      11013      11024      11023  
     10892      10893      10904      10903      11013      11014      11025      11024  
     10893      10894      10905      10904      11014      11015      11026      11025  
     10894      10895      10906      10905      11015      11016      11027      11026  
     10895      10896      10907      10906      11016      11017      11028      11027  
     10896      10897      10908      10907      11017      11018      11029      11028  
     10897      10898      10909      10908      11018      11019      11030      11029  
     10898      10899      10910      10909      11019      11020      11031      11030  
     10899      10900      10911      10910      11020      11021      11032      11031  
     10900      10901      10912      10911      11021      11022      11033      11032  
     10902      10903      10914      10913      11023      11024      11035      11034  
     10903      10904      10915      10914      11024      11025      11036      11035  
     10904      10905      10916      10915      11025      11026      11037      11036  
     10905      10906      10917      10916      11026      11027      11038      11037  
     10906      10907      10918      10917      11027      11028      11039      11038  
     10907      10908      10919      10918      11028      11029      11040      11039  
     10908      10909      10920      10919      11029      11030      11041      11040  
     10909      10910      10921      10920      11030      11031      11042      11041  
     10910      10911      10922      10921      11031      11032      11043      11042  
     10911      10912      10923      10922      11032      11033      11044      11043  
     10913      10914      10925      10924      11034      11035      11046      11045  
     10914      10915      10926      10925      11035      11036      11047      11046  
     10915      10916      10927      10926      11036      11037      11048      11047  
     10916      10917      10928      10927      11037      11038      11049      11048  
     10917      10918      10929      10928      11038      11039      11050      11049  
     10918      10919      10930      10929      11039      11040      11051      11050  
     10919      10920      10931      10930      11040      11041      11052      11051  
     10920      10921      10932      10931      11041      11042      11053      11052  
     10921      10922      10933      10932      11042      11043      11054      11053  
     10922      10923      10934      10933      11043      11044      11055      11054  
     10924      10925      10936      10935      11045      11046      11057      11056  
     10925      10926      10937      10936      11046      11047      11058      11057  
     10926      10927      10938      10937      11047      11048      11059      11058  
     10927      10928      10939      10938      11048      11049      11060      11059  
     10928      10929      10940      10939      11049      11050      11061      11060  
     10929      10930      10941      10940      11050      11051      11062      11061  
     10930      10931      10942      10941      11051      11052      11063      11062  
     10931      10932      10943      10942      11052      11053      11064      11063  
     10932      10933      10944      10943      11053      11054      11065      11064  
     10933      10934      10945      10944      11054      11055      11066      11065  
     10935      10936      10947      10946      11056      11057      11068      11067  
     10936      10937      10948      10947      11057      11058      11069      11068  
     10937      10938      10949      10948      11058      11059      11070      11069  
     10938      10939      10950      10949      11059      11060      11071      11070  
     10939      10940      10951      10950      11060      11061      11072      11071  
     10940      10941      10952      10951      11061      11062      11073      11072  
     10941      10942      10953      10952      11062      11063      11074      11073  
     10942      10943      10954      10953      11063      11064      11075      11074  
     10943      10944      10955      10954      11064      11065      11076      11075  
     10944      10945      10956      10955      11065      11066      11077      11076  
     10946      10947      10958      10957      11067      11068      11079      11078  
     10947      10948      10959      10958      11068      11069      11080      11079  
     10948      10949      10960      10959      11069      11070      11081      11080  
     10949      10950      10961      10960      11070      11071      11082      11081  
     10950      10951      10962      10961      11071      11072      11083      11082  
     10951      10952      10963      10962      11072      11073      11084      11083  
     10952      10953      10964      10963      11073      11074      11085      11084  
     10953      10954      10965      10964      11074      11075      11086      11085  
     10954      10955      10966      10965      11075      11076      11087      11086  
     10955      10956      10967      10966      11076      11077      11088      11087  
     10957      10958      10969      10968      11078      11079      11090      11089  
     10958      10959      10970      10969      11079      11080      11091      11090  
     10959      10960      10971      10970      11080      11081      11092      11091  
     10960      10961      10972      10971      11081      11082      11093      11092  
     10961      10962      10973      10972      11082      11083      11094      11093  
     10962      10963      10974      10973      11083      11084      11095      11094  
     10963      10964      10975      10974      11084      11085      11096      11095  
     10964      10965      10976      10975      11085      11086      11097      11096  
     10965      10966      10977      10976      11086      11087      11098      11097  
     10966      10967      10978      10977      11087      11088      11099      11098  
     10968      10969      10980      10979      11089      11090      11101      11100  
     10969      10970      10981      10980      11090      11091      11102      11101  
     10970      10971      10982      10981      11091      11092      11103      11102  
     10971      10972      10983      10982      11092      11093      11104      11103  
     10972      10973      10984      10983      11093      11094      11105      11104  
     10973      10974      10985      10984      11094      11095      11106      11105  
     10974      10975      10986      10985      11095      11096      11107      11106  
     10975      10976      10987      10986      11096      11097      11108      11107  
     10976      10977      10988      10987      11097      11098      11109      11108  
     10977      10978      10989      10988      11098      11099      11110      11109  
     10979      10980      10991      10990      11100      11101      11112      11111  
     10980      10981      10992      10991      11101      11102      11113      11112  
     10981      10982      10993      10992      11102      11103      11114      11113  
     10982      10983      10994      10993      11103      11104      11115      11114  
     10983      10984      10995      10994      11104      11105      11116      11115  
     10984      10985      10996      10995      11105      11106      11117      11116  
     10985      10986      10997      10996      11106      11107      11118      11117  
     10986      10987      10998      10997      11107      11108      11119      11118  
     10987      10988      10999      10998      11108      11109      11120      11119  
     10988      10989      11000      10999      11109      11110      11121      11120  
     10990      10991      11002      11001      11111      11112      11123      11122  
     10991      10992      11003      11002      11112      11113      11124      11123  
     10992      10993      11004      11003      11113      11114      11125      11124  
     10993      10994      11005      11004      11114      11115      11126      11125  
     10994      10995      11006      11005      11115      11116      11127      11126  
     10995      10996      11007      11006      11116      11117      11128      11127  
     10996      10997      11008      11007      11117      11118      11129      11128  
     10997      10998      11009      11008      11118      11119      11130      11129  
     10998      10999      11010      11009      11119      11120      11131      11130  
     10999      11000      11011      11010      11120      11121      11132      11131  
     11012      11013      11024      11023      11133      11134      11145      11144  
     11013      11014      11025      11024      11134      11135      11146      11145  
     11014      11015      11026      11025      11135      11136      11147      11146  
     11015      11016      11027      11026      11136      11137      11148      11147  
     11016      11017      11028      11027      11137      11138      11149      11148  
     11017      11018      11029      11028      11138      11139      11150      11149  
     11018      11019      11030      11029      11139      11140      11151      11150  
     11019      11020      11031      11030      11140      11141      11152      11151  
     11020      11021      11032      11031      11141      11142      11153      11152  
     11021      11022      11033      11032      11142      11143      11154      11153  
     11023      11024      11035      11034      11144      11145      11156      11155  
     11024      11025      11036      11035      11145      11146      11157      11156  
     11025      11026      11037      11036      11146      11147      11158      11157  
     11026      11027      11038      11037      11147      11148      11159      11158  
     11027      11028      11039      11038      11148      11149      11160      11159  
     11028      11029      11040      11039      11149      11150      11161      11160  
     11029      11030      11041      11040      11150      11151      11162      11161  
     11030      11031      11042      11041      11151      11152      11163      11162  
     11031      11032      11043      11042      11152      11153      11164      11163  
     11032      11033      11044      11043      11153      11154      11165      11164  
     11034      11035      11046      11045      11155      11156      11167      11166  
     11035      11036      11047      11046      11156      11157      11168      11167  
     11036      11037      11048      11047      11157      11158      11169      11168  
     11037      11038      11049      11048      11158      11159      11170      11169  
     11038      11039      11050      11049      11159      11160      11171      11170  
     11039      11040      11051      11050      11160      11161      11172      11171  
     11040      11041      11052      11051      11161      11162      11173      11172  
     11041      11042      11053      11052      11162      11163      11174      11173  
     11042      11043      11054      11053      11163      11164      11175      11174  
     11043      11044      11055      11054      11164      11165      11176      11175  
     11045      11046      11057      11056      11166      11167      11178      11177  
     11046      11047      11058      11057      11167      11168      11179      11178  
     11047      11048      11059      11058      11168      11169      11180      11179  
     11048      11049      11060      11059      11169      11170      11181      11180  
     11049      11050      11061      11060      11170      11171      11182      11181  
     11050      11051      11062      11061      11171      11172      11183      11182  
     11051      11052      11063      11062      11172      11173      11184      11183  
     11052      11053      11064      11063      11173      11174      11185      11184  
     11053      11054      11065      11064      11174      11175      11186      11185  
     11054      11055      11066      11065      11175      11176      11187      11186  
     11056      11057      11068      11067      11177      11178      11189      11188  
     11057      11058      11069      11068      11178      11179      11190      11189  
     11058      11059      11070      11069      11179      11180      11191      11190  
     11059      11060      11071      11070      11180      11181      11192      11191  
     11060      11061      11072      11071      11181      11182      11193      11192  
     11061      11062      11073      11072      11182      11183      11194      11193  
     11062      11063      11074      11073      11183      11184      11195      11194  
     11063      11064      11075      11074      11184      11185      11196      11195  
     11064      11065      11076      11075      11185      11186      11197      11196  
     11065      11066      11077      11076      11186      11187      11198      11197  
     11067      11068      11079      11078      11188      11189      11200      11199  
     11068      11069      11080      11079      11189      11190      11201      11200  
     11069      11070      11081      11080      11190      11191      11202      11201  
     11070      11071      11082      11081      11191      11192      11203      11202  
     11071      11072      11083      11082      11192      11193      11204      11203  
     11072      11073      11084      11083      11193      11194      11205      11204  
     11073      11074      11085      11084      11194      11195      11206      11205  
     11074      11075      11086      11085      11195      11196      11207      11206  
     11075      11076      11087      11086      11196      11197      11208      11207  
     11076      11077      11088      11087      11197      11198      11209      11208  
     11078      11079      11090      11089      11199      11200      11211      11210  
     11079      11080      11091      11090      11200      11201      11212      11211  
     11080      11081      11092      11091      11201      11202      11213      11212  
     11081      11082      11093      11092      11202      11203      11214      11213  
     11082      11083      11094      11093      11203      11204      11215      11214  
     11083      11084      11095      11094      11204      11205      11216      11215  
     11084      11085      11096      11095      11205      11206      11217      11216  
     11085      11086      11097      11096      11206      11207      11218      11217  
     11086      11087      11098      11097      11207      11208      11219      11218  
     11087      11088      11099      11098      11208      11209      11220      11219  
     11089      11090      11101      11100      11210      11211      11222      11221  
     11090      11091      11102      11101      11211      11212      11223      11222  
     11091      11092      11103      11102      11212      11213      11224      11223  
     11092      11093      11104      11103      11213      11214      11225      11224  
     11093      11094      11105      11104      11214      11215      11226      11225  
     11094      11095      11106      11105      11215      11216      11227      11226  
     11095      11096      11107      11106      11216      11217      11228      11227  
     11096      11097      11108      11107      11217      11218      11229      11228  
     11097      11098      11109      11108      11218      11219      11230      11229  
     11098      11099      11110      11109      11219      11220      11231      11230  
     11100      11101      11112      11111      11221      11222      11233      11232  
     11101      11102      11113      11112      11222      11223      11234      11233  
     11102      11103      11114      11113      11223      11224      11235      11234  
     11103      11104      11115      11114      11224      11225      11236      11235  
     11104      11105      11116      11115      11225      11226      11237      11236  
     11105      11106      11117      11116      11226      11227      11238      11237  
     11106      11107      11118      11117      11227      11228      11239      11238  
     11107      11108      11119      11118      11228      11229      11240      11239  
     11108      11109      11120      11119      11229      11230      11241      11240  
     11109      11110      11121      11120      11230      11231      11242      11241  
     11111      11112      11123      11122      11232      11233      11244      11243  
     11112      11113      11124      11123      11233      11234      11245      11244  
     11113      11114      11125      11124      11234      11235      11246      11245  
     11114      11115      11126      11125      11235      11236      11247      11246  
     11115      11116      11127      11126      11236      11237      11248      11247  
     11116      11117      11128      11127      11237      11238      11249      11248  
     11117      11118      11129      11128      11238      11239      11250      11249  
     11118      11119      11130      11129      11239      11240      11251      11250  
     11119      11120      11131      11130      11240      11241      11252      11251  
     11120      11121      11132      11131      11241      11242      11253      11252  
     11133      11134      11145      11144      11254      11255      11266      11265  
     11134      11135      11146      11145      11255      11256      11267      11266  
     11135      11136      11147      11146      11256      11257      11268      11267  
     11136      11137      11148      11147      11257      11258      11269      11268  
     11137      11138      11149      11148      11258      11259      11270      11269  
     11138      11139      11150      11149      11259      11260      11271      11270  
     11139      11140      11151      11150      11260      11261      11272      11271  
     11140      11141      11152      11151      11261      11262      11273      11272  
     11141      11142      11153      11152      11262      11263      11274      11273  
     11142      11143      11154      11153      11263      11264      11275      11274  
     11144      11145      11156      11155      11265      11266      11277      11276  
     11145      11146      11157      11156      11266      11267      11278      11277  
     11146      11147      11158      11157      11267      11268      11279      11278  
     11147      11148      11159      11158      11268      11269      11280      11279  
     11148      11149      11160      11159      11269      11270      11281      11280  
     11149      11150      11161      11160      11270      11271      11282      11281  
     11150      11151      11162      11161      11271      11272      11283      11282  
     11151      11152      11163      11162      11272      11273      11284      11283  
     11152      11153      11164      11163      11273      11274      11285      11284  
     11153      11154      11165      11164      11274      11275      11286      11285  
     11155      11156      11167      11166      11276      11277      11288      11287  
     11156      11157      11168      11167      11277      11278      11289      11288  
     11157      11158      11169      11168      11278      11279      11290      11289  
     11158      11159      11170      11169      11279      11280      11291      11290  
     11159      11160      11171      11170      11280      11281      11292      11291  
     11160      11161      11172      11171      11281      11282      11293      11292  
     11161      11162      11173      11172      11282      11283      11294      11293  
     11162      11163      11174      11173      11283      11284      11295      11294  
     11163      11164      11175      11174      11284      11285      11296      11295  
     11164      11165      11176      11175      11285      11286      11297      11296  
     11166      11167      11178      11177      11287      11288      11299      11298  
     11167      11168      11179      11178      11288      11289      11300      11299  
     11168      11169      11180      11179      11289      11290      11301      11300  
     11169      11170      11181      11180      11290      11291      11302      11301  
     11170      11171      11182      11181      11291      11292      11303      11302  
     11171      11172      11183      11182      11292      11293      11304      11303  
     11172      11173      11184      11183      11293      11294      11305      11304  
     11173      11174      11185      11184      11294      11295      11306      11305  
     11174      11175      11186      11185      11295      11296      11307      11306  
     11175      11176      11187      11186      11296      11297      11308      11307  
     11177      11178      11189      11188      11298      11299      11310      11309  
     11178      11179      11190      11189      11299      11300      11311      11310  
     11179      11180      11191      11190      11300      11301      11312      11311  
     11180      11181      11192      11191      11301      11302      11313      11312  
     11181      11182      11193      11192      11302      11303      11314      11313  
     11182      11183      11194      11193      11303      11304      11315      11314  
     11183      11184      11195      11194      11304      11305      11316      11315  
     11184      11185      11196      11195      11305      11306      11317      11316  
     11185      11186      11197      11196      11306      11307      11318      11317  
     11186      11187      11198      11197      11307      11308      11319      11318  
     11188      11189      11200      11199      11309      11310      11321      11320  
     11189      11190      11201      11200      11310      11311      11322      11321  
     11190      11191      11202      11201      11311      11312      11323      11322  
     11191      11192      11203      11202      11312      11313      11324      11323  
     11192      11193      11204      11203      11313      11314      11325      11324  
     11193      11194      11205      11204      11314      11315      11326      11325  
     11194      11195      11206      11205      11315      11316      11327      11326  
     11195      11196      11207      11206      11316      11317      11328      11327  
     11196      11197      11208      11207      11317      11318      11329      11328  
     11197      11198      11209      11208      11318      11319      11330      11329  
     11199      11200      11211      11210      11320      11321      11332      11331  
     11200      11201      11212      11211      11321      11322      11333      11332  
     11201      11202      11213      11212      11322      11323      11334      11333  
     11202      11203      11214      11213      11323      11324      11335      11334  
     11203      11204      11215      11214      11324      11325      11336      11335  
     11204      11205      11216      11215      11325      11326      11337      11336  
     11205      11206      11217      11216      11326      11327      11338      11337  
     11206      11207      11218      11217      11327      11328      11339      11338  
     11207      11208      11219      11218      11328      11329      11340      11339  
     11208      11209      11220      11219      11329      11330      11341      11340  
     11210      11211      11222      11221      11331      11332      11343      11342  
     11211      11212      11223      11222      11332      11333      11344      11343  
     11212      11213      11224      11223      11333      11334      11345      11344  
     11213      11214      11225      11224      11334      11335      11346      11345  
     11214      11215      11226      11225      11335      11336      11347      11346  
     11215      11216      11227      11226      11336      11337      11348      11347  
     11216      11217      11228      11227      11337      11338      11349      11348  
     11217      11218      11229      11228      11338      11339      11350      11349  
     11218      11219      11230      11229      11339      11340      11351      11350  
     11219      11220      11231      11230      11340      11341      11352      11351  
     11221      11222      11233      11232      11342      11343      11354      11353  
     11222      11223      11234      11233      11343      11344      11355      11354  
     11223      11224      11235      11234      11344      11345      11356      11355  
     11224      11225      11236      11235      11345      11346      11357      11356  
     11225      11226      11237      11236      11346      11347      11358      11357  
     11226      11227      11238      11237      11347      11348      11359      11358  
     11227      11228      11239      11238      11348      11349      11360      11359  
     11228      11229      11240      11239      11349      11350      11361      11360  
     11229      11230      11241      11240      11350      11351      11362      11361  
     11230      11231      11242      11241      11351      11352      11363      11362  
     11232      11233      11244      11243      11353      11354      11365      11364  
     11233      11234      11245      11244      11354      11355      11366      11365  
     11234      11235      11246      11245      11355      11356      11367      11366  
     11235      11236      11247      11246      11356      11357      11368      11367  
     11236      11237      11248      11247      11357      11358      11369      11368  
     11237      11238      11249      11248      11358      11359      11370      11369  
     11238      11239      11250      11249      11359      11360      11371      11370  
     11239      11240      11251      11250      11360      11361      11372      11371  
     11240      11241      11252      11251      11361      11362      11373      11372  
     11241      11242      11253      11252      11362      11363      11374      11373  
     11254      11255      11266      11265      11375      11376      11387      11386  
     11255      11256      11267      11266      11376      11377      11388      11387  
     11256      11257      11268      11267      11377      11378      11389      11388  
     11257      11258      11269      11268      11378      11379      11390      11389  
     11258      11259      11270      11269      11379      11380      11391      11390  
     11259      11260      11271      11270      11380      11381      11392      11391  
     11260      11261      11272      11271      11381      11382      11393      11392  
     11261      11262      11273      11272      11382      11383      11394      11393  
     11262      11263      11274      11273      11383      11384      11395      11394  
     11263      11264      11275      11274      11384      11385      11396      11395  
     11265      11266      11277      11276      11386      11387      11398      11397  
     11266      11267      11278      11277      11387      11388      11399      11398  
     11267      11268      11279      11278      11388      11389      11400      11399  
     11268      11269      11280      11279      11389      11390      11401      11400  
     11269      11270      11281      11280      11390      11391      11402      11401  
     11270      11271      11282      11281      11391      11392      11403      11402  
     11271      11272      11283      11282      11392      11393      11404      11403  
     11272      11273      11284      11283      11393      11394      11405      11404  
     11273      11274      11285      11284      11394      11395      11406      11405  
     11274      11275      11286      11285      11395      11396      11407      11406  
     11276      11277      11288      11287      11397      11398      11409      11408  
     11277      11278      11289      11288      11398      11399      11410      11409  
     11278      11279      11290      11289      11399      11400      11411      11410  
     11279      11280      11291      11290      11400      11401      11412      11411  
     11280      11281      11292      11291      11401      11402      11413      11412  
     11281      11282      11293      11292      11402      11403      11414      11413  
     11282      11283      11294      11293      11403      11404      11415      11414  
     11283      11284      11295      11294      11404      11405      11416      11415  
     11284      11285      11296      11295      11405      11406      11417      11416  
     11285      11286      11297      11296      11406      11407      11418      11417  
     11287      11288      11299      11298      11408      11409      11420      11419  
     11288      11289      11300      11299      11409      11410      11421      11420  
     11289      11290      11301      11300      11410      11411      11422      11421  
     11290      11291      11302      11301      11411      11412      11423      11422  
     11291      11292      11303      11302      11412      11413      11424      11423  
     11292      11293      11304      11303      11413      11414      11425      11424  
     11293      11294      11305      11304      11414      11415      11426      11425  
     11294      11295      11306      11305      11415      11416      11427      11426  
     11295      11296      11307      11306      11416      11417      11428      11427  
     11296      11297      11308      11307      11417      11418      11429      11428  
     11298      11299      11310      11309      11419      11420      11431      11430  
     11299      11300      11311      11310      11420      11421      11432      11431  
     11300      11301      11312      11311      11421      11422      11433      11432  
     11301      11302      11313      11312      11422      11423      11434      11433  
     11302      11303      11314      11313      11423      11424      11435      11434  
     11303      11304      11315      11314      11424      11425      11436      11435  
     11304      11305      11316      11315      11425      11426      11437      11436  
     11305      11306      11317      11316      11426      11427      11438      11437  
     11306      11307      11318      11317      11427      11428      11439      11438  
     11307      11308      11319      11318      11428      11429      11440      11439  
     11309      11310      11321      11320      11430      11431      11442      11441  
     11310      11311      11322      11321      11431      11432      11443      11442  
     11311      11312      11323      11322      11432      11433      11444      11443  
     11312      11313      11324      11323      11433      11434      11445      11444  
     11313      11314      11325      11324      11434      11435      11446      11445  
     11314      11315      11326      11325      11435      11436      11447      11446  
     11315      11316      11327      11326      11436      11437      11448      11447  
     11316      11317      11328      11327      11437      11438      11449      11448  
     11317      11318      11329      11328      11438      11439      11450      11449  
     11318      11319      11330      11329      11439      11440      11451      11450  
     11320      11321      11332      11331      11441      11442      11453      11452  
     11321      11322      11333      11332      11442      11443      11454      11453  
     11322      11323      11334      11333      11443      11444      11455      11454  
     11323      11324      11335      11334      11444      11445      11456      11455  
     11324      11325      11336      11335      11445      11446      11457      11456  
     11325      11326      11337      11336      11446      11447      11458      11457  
     11326      11327      11338      11337      11447      11448      11459      11458  
     11327      11328      11339      11338      11448      11449      11460      11459  
     11328      11329      11340      11339      11449      11450      11461      11460  
     11329      11330      11341      11340      11450      11451      11462      11461  
     11331      11332      11343      11342      11452      11453      11464      11463  
     11332      11333      11344      11343      11453      11454      11465      11464  
     11333      11334      11345      11344      11454      11455      11466      11465  
     11334      11335      11346      11345      11455      11456      11467      11466  
     11335      11336      11347      11346      11456      11457      11468      11467  
     11336      11337      11348      11347      11457      11458      11469      11468  
     11337      11338      11349      11348      11458      11459      11470      11469  
     11338      11339      11350      11349      11459      11460      11471      11470  
     11339      11340      11351      11350      11460      11461      11472      11471  
     11340      11341      11352      11351      11461      11462      11473      11472  
     11342      11343      11354      11353      11463      11464      11475      11474  
     11343      11344      11355      11354      11464      11465      11476      11475  
     11344      11345      11356      11355      11465      11466      11477      11476  
     11345      11346      11357      11356      11466      11467      11478      11477  
     11346      11347      11358      11357      11467      11468      11479      11478  
     11347      11348      11359      11358      11468      11469      11480      11479  
     11348      11349      11360      11359      11469      11470      11481      11480  
     11349      11350      11361      11360      11470      11471      11482      11481  
     11350      11351      11362      11361      11471      11472      11483      11482  
     11351      11352      11363      11362      11472      11473      11484      11483  
     11353      11354      11365      11364      11474      11475      11486      11485  
     11354      11355      11366      11365      11475      11476      11487      11486  
     11355      11356      11367      11366      11476      11477      11488      11487  
     11356      11357      11368      11367      11477      11478      11489      11488  
     11357      11358      11369      11368      11478      11479      11490      11489  
     11358      11359      11370      11369      11479      11480      11491      11490  
     11359      11360      11371      11370      11480      11481      11492      11491  
     11360      11361      11372      11371      11481      11482      11493      11492  
     11361      11362      11373      11372      11482      11483      11494      11493  
     11362      11363      11374      11373      11483      11484      11495      11494  
     11375      11376      11387      11386      11496      11497      11508      11507  
     11376      11377      11388      11387      11497      11498      11509      11508  
     11377      11378      11389      11388      11498      11499      11510      11509  
     11378      11379      11390      11389      11499      11500      11511      11510  
     11379      11380      11391      11390      11500      11501      11512      11511  
     11380      11381      11392      11391      11501      11502      11513      11512  
     11381      11382      11393      11392      11502      11503      11514      11513  
     11382      11383      11394      11393      11503      11504      11515      11514  
     11383      11384      11395      11394      11504      11505      11516      11515  
     11384      11385      11396      11395      11505      11506      11517      11516  
     11386      11387      11398      11397      11507      11508      11519      11518  
     11387      11388      11399      11398      11508      11509      11520      11519  
     11388      11389      11400      11399      11509      11510      11521      11520  
     11389      11390      11401      11400      11510      11511      11522      11521  
     11390      11391      11402      11401      11511      11512      11523      11522  
     11391      11392      11403      11402      11512      11513      11524      11523  
     11392      11393      11404      11403      11513      11514      11525      11524  
     11393      11394      11405      11404      11514      11515      11526      11525  
     11394      11395      11406      11405      11515      11516      11527      11526  
     11395      11396      11407      11406      11516      11517      11528      11527  
     11397      11398      11409      11408      11518      11519      11530      11529  
     11398      11399      11410      11409      11519      11520      11531      11530  
     11399      11400      11411      11410      11520      11521      11532      11531  
     11400      11401      11412      11411      11521      11522      11533      11532  
     11401      11402      11413      11412      11522      11523      11534      11533  
     11402      11403      11414      11413      11523      11524      11535      11534  
     11403      11404      11415      11414      11524      11525      11536      11535  
     11404      11405      11416      11415      11525      11526      11537      11536  
     11405      11406      11417      11416      11526      11527      11538      11537  
     11406      11407      11418      11417      11527      11528      11539      11538  
     11408      11409      11420      11419      11529      11530      11541      11540  
     11409      11410      11421      11420      11530      11531      11542      11541  
     11410      11411      11422      11421      11531      11532      11543      11542  
     11411      11412      11423      11422      11532      11533      11544      11543  
     11412      11413      11424      11423      11533      11534      11545      11544  
     11413      11414      11425      11424      11534      11535      11546      11545  
     11414      11415      11426      11425      11535      11536      11547      11546  
     11415      11416      11427      11426      11536      11537      11548      11547  
     11416      11417      11428      11427      11537      11538      11549      11548  
     11417      11418      11429      11428      11538      11539      11550      11549  
     11419      11420      11431      11430      11540      11541      11552      11551  
     11420      11421      11432      11431      11541      11542      11553      11552  
     11421      11422      11433      11432      11542      11543      11554      11553  
     11422      11423      11434      11433      11543      11544      11555      11554  
     11423      11424      11435      11434      11544      11545      11556      11555  
     11424      11425      11436      11435      11545      11546      11557      11556  
     11425      11426      11437      11436      11546      11547      11558      11557  
     11426      11427      11438      11437      11547      11548      11559      11558  
     11427      11428      11439      11438      11548      11549      11560      11559  
     11428      11429      11440      11439      11549      11550      11561      11560  
     11430      11431      11442      11441      11551      11552      11563      11562  
     11431      11432      11443      11442      11552      11553      11564      11563  
     11432      11433      11444      11443      11553      11554      11565      11564  
     11433      11434      11445      11444      11554      11555      11566      11565  
     11434      11435      11446      11445      11555      11556      11567      11566  
     11435      11436      11447      11446      11556      11557      11568      11567  
     11436      11437      11448      11447      11557      11558      11569      11568  
     11437      11438      11449      11448      11558      11559      11570      11569  
     11438      11439      11450      11449      11559      11560      11571      11570  
     11439      11440      11451      11450      11560      11561      11572      11571  
     11441      11442      11453      11452      11562      11563      11574      11573  
     11442      11443      11454      11453      11563      11564      11575      11574  
     11443      11444      11455      11454      11564      11565      11576      11575  
     11444      11445      11456      11455      11565      11566      11577      11576  
     11445      11446      11457      11456      11566      11567      11578      11577  
     11446      11447      11458      11457      11567      11568      11579      11578  
     11447      11448      11459      11458      11568      11569      11580      11579  
     11448      11449      11460      11459      11569      11570      11581      11580  
     11449      11450      11461      11460      11570      11571      11582      11581  
     11450      11451      11462      11461      11571      11572      11583      11582  
     11452      11453      11464      11463      11573      11574      11585      11584  
     11453      11454      11465      11464      11574      11575      11586      11585  
     11454      11455      11466      11465      11575      11576      11587      11586  
     11455      11456      11467      11466      11576      11577      11588      11587  
     11456      11457      11468      11467      11577      11578      11589      11588  
     11457      11458      11469      11468      11578      11579      11590      11589  
     11458      11459      11470      11469      11579      11580      11591      11590  
     11459      11460      11471      11470      11580      11581      11592      11591  
     11460      11461      11472      11471      11581      11582      11593      11592  
     11461      11462      11473      11472      11582      11583      11594      11593  
     11463      11464      11475      11474      11584      11585      11596      11595  
     11464      11465      11476      11475      11585      11586      11597      11596  
     11465      11466      11477      11476      11586      11587      11598      11597  
     11466      11467      11478      11477      11587      11588      11599      11598  
     11467      11468      11479      11478      11588      11589      11600      11599  
     11468      11469      11480      11479      11589      11590      11601      11600  
     11469      11470      11481      11480      11590      11591      11602      11601  
     11470      11471      11482      11481      11591      11592      11603      11602  
     11471      11472      11483      11482      11592      11593      11604      11603  
     11472      11473      11484      11483      11593      11594      11605      11604  
     11474      11475      11486      11485      11595      11596      11607      11606  
     11475      11476      11487      11486      11596      11597      11608      11607  
     11476      11477      11488      11487      11597      11598      11609      11608  
     11477      11478      11489      11488      11598      11599      11610      11609  
     11478      11479      11490      11489      11599      11600      11611      11610  
     11479      11480      11491      11490      11600      11601      11612      11611  
     11480      11481      11492      11491      11601      11602      11613      11612  
     11481      11482      11493      11492      11602      11603      11614      11613  
     11482      11483      11494      11493      11603      11604      11615      11614  
     11483      11484      11495      11494      11604      11605      11616      11615  
     11496      11497      11508      11507      11617      11618      11629      11628  
     11497      11498      11509      11508      11618      11619      11630      11629  
     11498      11499      11510      11509      11619      11620      11631      11630  
     11499      11500      11511      11510      11620      11621      11632      11631  
     11500      11501      11512      11511      11621      11622      11633      11632  
     11501      11502      11513      11512      11622      11623      11634      11633  
     11502      11503      11514      11513      11623      11624      11635      11634  
     11503      11504      11515      11514      11624      11625      11636      11635  
     11504      11505      11516      11515      11625      11626      11637      11636  
     11505      11506      11517      11516      11626      11627      11638      11637  
     11507      11508      11519      11518      11628      11629      11640      11639  
     11508      11509      11520      11519      11629      11630      11641      11640  
     11509      11510      11521      11520      11630      11631      11642      11641  
     11510      11511      11522      11521      11631      11632      11643      11642  
     11511      11512      11523      11522      11632      11633      11644      11643  
     11512      11513      11524      11523      11633      11634      11645      11644  
     11513      11514      11525      11524      11634      11635      11646      11645  
     11514      11515      11526      11525      11635      11636      11647      11646  
     11515      11516      11527      11526      11636      11637      11648      11647  
     11516      11517      11528      11527      11637      11638      11649      11648  
     11518      11519      11530      11529      11639      11640      11651      11650  
     11519      11520      11531      11530      11640      11641      11652      11651  
     11520      11521      11532      11531      11641      11642      11653      11652  
     11521      11522      11533      11532      11642      11643      11654      11653  
     11522      11523      11534      11533      11643      11644      11655      11654  
     11523      11524      11535      11534      11644      11645      11656      11655  
     11524      11525      11536      11535      11645      11646      11657      11656  
     11525      11526      11537      11536      11646      11647      11658      11657  
     11526      11527      11538      11537      11647      11648      11659      11658  
     11527      11528      11539      11538      11648      11649      11660      11659  
     11529      11530      11541      11540      11650      11651      11662      11661  
     11530      11531      11542      11541      11651      11652      11663      11662  
     11531      11532      11543      11542      11652      11653      11664      11663  
     11532      11533      11544      11543      11653      11654      11665      11664  
     11533      11534      11545      11544      11654      11655      11666      11665  
     11534      11535      11546      11545      11655      11656      11667      11666  
     11535      11536      11547      11546      11656      11657      11668      11667  
     11536      11537      11548      11547      11657      11658      11669      11668  
     11537      11538      11549      11548      11658      11659      11670      11669  
     11538      11539      11550      11549      11659      11660      11671      11670  
     11540      11541      11552      11551      11661      11662      11673      11672  
     11541      11542      11553      11552      11662      11663      11674      11673  
     11542      11543      11554      11553      11663      11664      11675      11674  
     11543      11544      11555      11554      11664      11665      11676      11675  
     11544      11545      11556      11555      11665      11666      11677      11676  
     11545      11546      11557      11556      11666      11667      11678      11677  
     11546      11547      11558      11557      11667      11668      11679      11678  
     11547      11548      11559      11558      11668      11669      11680      11679  
     11548      11549      11560      11559      11669      11670      11681      11680  
     11549      11550      11561      11560      11670      11671      11682      11681  
     11551      11552      11563      11562      11672      11673      11684      11683  
     11552      11553      11564      11563      11673      11674      11685      11684  
     11553      11554      11565      11564      11674      11675      11686      11685  
     11554      11555      11566      11565      11675      11676      11687      11686  
     11555      11556      11567      11566      11676      11677      11688      11687  
     11556      11557      11568      11567      11677      11678      11689      11688  
     11557      11558      11569      11568      11678      11679      11690      11689  
     11558      11559      11570      11569      11679      11680      11691      11690  
     11559      11560      11571      11570      11680      11681      11692      11691  
     11560      11561      11572      11571      11681      11682      11693      11692  
     11562      11563      11574      11573      11683      11684      11695      11694  
     11563      11564      11575      11574      11684      11685      11696      11695  
     11564      11565      11576      11575      11685      11686      11697      11696  
     11565      11566      11577      11576      11686      11687      11698      11697  
     11566      11567      11578      11577      11687      11688      11699      11698  
     11567      11568      11579      11578      11688      11689      11700      11699  
     11568      11569      11580      11579      11689      11690      11701      11700  
     11569      11570      11581      11580      11690      11691      11702      11701  
     11570      11571      11582      11581      11691      11692      11703      11702  
     11571      11572      11583      11582      11692      11693      11704      11703  
     11573      11574      11585      11584      11694      11695      11706      11705  
     11574      11575      11586      11585      11695      11696      11707      11706  
     11575      11576      11587      11586      11696      11697      11708      11707  
     11576      11577      11588      11587      11697      11698      11709      11708  
     11577      11578      11589      11588      11698      11699      11710      11709  
     11578      11579      11590      11589      11699      11700      11711      11710  
     11579      11580      11591      11590      11700      11701      11712      11711  
     11580      11581      11592      11591      11701      11702      11713      11712  
     11581      11582      11593      11592      11702      11703      11714      11713  
     11582      11583      11594      11593      11703      11704      11715      11714  
     11584      11585      11596      11595      11705      11706      11717      11716  
     11585      11586      11597      11596      11706      11707      11718      11717  
     11586      11587      11598      11597      11707      11708      11719      11718  
     11587      11588      11599      11598      11708      11709      11720      11719  
     11588      11589      11600      11599      11709      11710      11721      11720  
     11589      11590      11601      11600      11710      11711      11722      11721  
     11590      11591      11602      11601      11711      11712      11723      11722  
     11591      11592      11603      11602      11712      11713      11724      11723  
     11592      11593      11604      11603      11713      11714      11725      11724  
     11593      11594      11605      11604      11714      11715      11726      11725  
     11595      11596      11607      11606      11716      11717      11728      11727  
     11596      11597      11608      11607      11717      11718      11729      11728  
     11597      11598      11609      11608      11718      11719      11730      11729  
     11598      11599      11610      11609      11719      11720      11731      11730  
     11599      11600      11611      11610      11720      11721      11732      11731  
     11600      11601      11612      11611      11721      11722      11733      11732  
     11601      11602      11613      11612      11722      11723      11734      11733  
     11602      11603      11614      11613      11723      11724      11735      11734  
     11603      11604      11615      11614      11724      11725      11736      11735  
     11604      11605      11616      11615      11725      11726      11737      11736  
     11617      11618      11629      11628      11738      11739      11750      11749  
     11618      11619      11630      11629      11739      11740      11751      11750  
     11619      11620      11631      11630      11740      11741      11752      11751  
     11620      11621      11632      11631      11741      11742      11753      11752  
     11621      11622      11633      11632      11742      11743      11754      11753  
     11622      11623      11634      11633      11743      11744      11755      11754  
     11623      11624      11635      11634      11744      11745      11756      11755  
     11624      11625      11636      11635      11745      11746      11757      11756  
     11625      11626      11637      11636      11746      11747      11758      11757  
     11626      11627      11638      11637      11747      11748      11759      11758  
     11628      11629      11640      11639      11749      11750      11761      11760  
     11629      11630      11641      11640      11750      11751      11762      11761  
     11630      11631      11642      11641      11751      11752      11763      11762  
     11631      11632      11643      11642      11752      11753      11764      11763  
     11632      11633      11644      11643      11753      11754      11765      11764  
     11633      11634      11645      11644      11754      11755      11766      11765  
     11634      11635      11646      11645      11755      11756      11767      11766  
     11635      11636      11647      11646      11756      11757      11768      11767  
     11636      11637      11648      11647      11757      11758      11769      11768  
     11637      11638      11649      11648      11758      11759      11770      11769  
     11639      11640      11651      11650      11760      11761      11772      11771  
     11640      11641      11652      11651      11761      11762      11773      11772  
     11641      11642      11653      11652      11762      11763      11774      11773  
     11642      11643      11654      11653      11763      11764      11775      11774  
     11643      11644      11655      11654      11764      11765      11776      11775  
     11644      11645      11656      11655      11765      11766      11777      11776  
     11645      11646      11657      11656      11766      11767      11778      11777  
     11646      11647      11658      11657      11767      11768      11779      11778  
     11647      11648      11659      11658      11768      11769      11780      11779  
     11648      11649      11660      11659      11769      11770      11781      11780  
     11650      11651      11662      11661      11771      11772      11783      11782  
     11651      11652      11663      11662      11772      11773      11784      11783  
     11652      11653      11664      11663      11773      11774      11785      11784  
     11653      11654      11665      11664      11774      11775      11786      11785  
     11654      11655      11666      11665      11775      11776      11787      11786  
     11655      11656      11667      11666      11776      11777      11788      11787  
     11656      11657      11668      11667      11777      11778      11789      11788  
     11657      11658      11669      11668      11778      11779      11790      11789  
     11658      11659      11670      11669      11779      11780      11791      11790  
     11659      11660      11671      11670      11780      11781      11792      11791  
     11661      11662      11673      11672      11782      11783      11794      11793  
     11662      11663      11674      11673      11783      11784      11795      11794  
     11663      11664      11675      11674      11784      11785      11796      11795  
     11664      11665      11676      11675      11785      11786      11797      11796  
     11665      11666      11677      11676      11786      11787      11798      11797  
     11666      11667      11678      11677      11787      11788      11799      11798  
     11667      11668      11679      11678      11788      11789      11800      11799  
     11668      11669      11680      11679      11789      11790      11801      11800  
     11669      11670      11681      11680      11790      11791      11802      11801  
     11670      11671      11682      11681      11791      11792      11803      11802  
     11672      11673      11684      11683      11793      11794      11805      11804  
     11673      11674      11685      11684      11794      11795      11806      11805  
     11674      11675      11686      11685      11795      11796      11807      11806  
     11675      11676      11687      11686      11796      11797      11808      11807  
     11676      11677      11688      11687      11797      11798      11809      11808  
     11677      11678      11689      11688      11798      11799      11810      11809  
     11678      11679      11690      11689      11799      11800      11811      11810  
     11679      11680      11691      11690      11800      11801      11812      11811  
     11680      11681      11692      11691      11801      11802      11813      11812  
     11681      11682      11693      11692      11802      11803      11814      11813  
     11683      11684      11695      11694      11804      11805      11816      11815  
     11684      11685      11696      11695      11805      11806      11817      11816  
     11685      11686      11697      11696      11806      11807      11818      11817  
     11686      11687      11698      11697      11807      11808      11819      11818  
     11687      11688      11699      11698      11808      11809      11820      11819  
     11688      11689      11700      11699      11809      11810      11821      11820  
     11689      11690      11701      11700      11810      11811      11822      11821  
     11690      11691      11702      11701      11811      11812      11823      11822  
     11691      11692      11703      11702      11812      11813      11824      11823  
     11692      11693      11704      11703      11813      11814      11825      11824  
     11694      11695      11706      11705      11815      11816      11827      11826  
     11695      11696      11707      11706      11816      11817      11828      11827  
     11696      11697      11708      11707      11817      11818      11829      11828  
     11697      11698      11709      11708      11818      11819      11830      11829  
     11698      11699      11710      11709      11819      11820      11831      11830  
     11699      11700      11711      11710      11820      11821      11832      11831  
     11700      11701      11712      11711      11821      11822      11833      11832  
     11701      11702      11713      11712      11822      11823      11834      11833  
     11702      11703      11714      11713      11823      11824      11835      11834  
     11703      11704      11715      11714      11824      11825      11836      11835  
     11705      11706      11717      11716      11826      11827      11838      11837  
     11706      11707      11718      11717      11827      11828      11839      11838  
     11707      11708      11719      11718      11828      11829      11840      11839  
     11708      11709      11720      11719      11829      11830      11841      11840  
     11709      11710      11721      11720      11830      11831      11842      11841  
     11710      11711      11722      11721      11831      11832      11843      11842  
     11711      11712      11723      11722      11832      11833      11844      11843  
     11712      11713      11724      11723      11833      11834      11845      11844  
     11713      11714      11725      11724      11834      11835      11846      11845  
     11714      11715      11726      11725      11835      11836      11847      11846  
     11716      11717      11728      11727      11837      11838      11849      11848  
     11717      11718      11729      11728      11838      11839      11850      11849  
     11718      11719      11730      11729      11839      11840      11851      11850  
     11719      11720      11731      11730      11840      11841      11852      11851  
     11720      11721      11732      11731      11841      11842      11853      11852  
     11721      11722      11733      11732      11842      11843      11854      11853  
     11722      11723      11734      11733      11843      11844      11855      11854  
     11723      11724      11735      11734      11844      11845      11856      11855  
     11724      11725      11736      11735      11845      11846      11857      11856  
     11725      11726      11737      11736      11846      11847      11858      11857  
     11738      11739      11750      11749      11859      11860      11871      11870  
     11739      11740      11751      11750      11860      11861      11872      11871  
     11740      11741      11752      11751      11861      11862      11873      11872  
     11741      11742      11753      11752      11862      11863      11874      11873  
     11742      11743      11754      11753      11863      11864      11875      11874  
     11743      11744      11755      11754      11864      11865      11876      11875  
     11744      11745      11756      11755      11865      11866      11877      11876  
     11745      11746      11757      11756      11866      11867      11878      11877  
     11746      11747      11758      11757      11867      11868      11879      11878  
     11747      11748      11759      11758      11868      11869      11880      11879  
     11749      11750      11761      11760      11870      11871      11882      11881  
     11750      11751      11762      11761      11871      11872      11883      11882  
     11751      11752      11763      11762      11872      11873      11884      11883  
     11752      11753      11764      11763      11873      11874      11885      11884  
     11753      11754      11765      11764      11874      11875      11886      11885  
     11754      11755      11766      11765      11875      11876      11887      11886  
     11755      11756      11767      11766      11876      11877      11888      11887  
     11756      11757      11768      11767      11877      11878      11889      11888  
     11757      11758      11769      11768      11878      11879      11890      11889  
     11758      11759      11770      11769      11879      11880      11891      11890  
     11760      11761      11772      11771      11881      11882      11893      11892  
     11761      11762      11773      11772      11882      11883      11894      11893  
     11762      11763      11774      11773      11883      11884      11895      11894  
     11763      11764      11775      11774      11884      11885      11896      11895  
     11764      11765      11776      11775      11885      11886      11897      11896  
     11765      11766      11777      11776      11886      11887      11898      11897  
     11766      11767      11778      11777      11887      11888      11899      11898  
     11767      11768      11779      11778      11888      11889      11900      11899  
     11768      11769      11780      11779      11889      11890      11901      11900  
     11769      11770      11781      11780      11890      11891      11902      11901  
     11771      11772      11783      11782      11892      11893      11904      11903  
     11772      11773      11784      11783      11893      11894      11905      11904  
     11773      11774      11785      11784      11894      11895      11906      11905  
     11774      11775      11786      11785      11895      11896      11907      11906  
     11775      11776      11787      11786      11896      11897      11908      11907  
     11776      11777      11788      11787      11897      11898      11909      11908  
     11777      11778      11789      11788      11898      11899      11910      11909  
     11778      11779      11790      11789      11899      11900      11911      11910  
     11779      11780      11791      11790      11900      11901      11912      11911  
     11780      11781      11792      11791      11901      11902      11913      11912  
     11782      11783      11794      11793      11903      11904      11915      11914  
     11783      11784      11795      11794      11904      11905      11916      11915  
     11784      11785      11796      11795      11905      11906      11917      11916  
     11785      11786      11797      11796      11906      11907      11918      11917  
     11786      11787      11798      11797      11907      11908      11919      11918  
     11787      11788      11799      11798      11908      11909      11920      11919  
     11788      11789      11800      11799      11909      11910      11921      11920  
     11789      11790      11801      11800      11910      11911      11922      11921  
     11790      11791      11802      11801      11911      11912      11923      11922  
     11791      11792      11803      11802      11912      11913      11924      11923  
     11793      11794      11805      11804      11914      11915      11926      11925  
     11794      11795      11806      11805      11915      11916      11927      11926  
     11795      11796      11807      11806      11916      11917      11928      11927  
     11796      11797      11808      11807      11917      11918      11929      11928  
     11797      11798      11809      11808      11918      11919      11930      11929  
     11798      11799      11810      11809      11919      11920      11931      11930  
     11799      11800      11811      11810      11920      11921      11932      11931  
     11800      11801      11812      11811      11921      11922      11933      11932  
     11801      11802      11813      11812      11922      11923      11934      11933  
     11802      11803      11814      11813      11923      11924      11935      11934  
     11804      11805      11816      11815      11925      11926      11937      11936  
     11805      11806      11817      11816      11926      11927      11938      11937  
     11806      11807      11818      11817      11927      11928      11939      11938  
     11807      11808      11819      11818      11928      11929      11940      11939  
     11808      11809      11820      11819      11929      11930      11941      11940  
     11809      11810      11821      11820      11930      11931      11942      11941  
     11810      11811      11822      11821      11931      11932      11943      11942  
     11811      11812      11823      11822      11932      11933      11944      11943  
     11812      11813      11824      11823      11933      11934      11945      11944  
     11813      11814      11825      11824      11934      11935      11946      11945  
     11815      11816      11827      11826      11936      11937      11948      11947  
     11816      11817      11828      11827      11937      11938      11949      11948  
     11817      11818      11829      11828      11938      11939      11950      11949  
     11818      11819      11830      11829      11939      11940      11951      11950  
     11819      11820      11831      11830      11940      11941      11952      11951  
     11820      11821      11832      11831      11941      11942      11953      11952  
     11821      11822      11833      11832      11942      11943      11954      11953  
     11822      11823      11834      11833      11943      11944      11955      11954  
     11823      11824      11835      11834      11944      11945      11956      11955  
     11824      11825      11836      11835      11945      11946      11957      11956  
     11826      11827      11838      11837      11947      11948      11959      11958  
     11827      11828      11839      11838      11948      11949      11960      11959  
     11828      11829      11840      11839      11949      11950      11961      11960  
     11829      11830      11841      11840      11950      11951      11962      11961  
     11830      11831      11842      11841      11951      11952      11963      11962  
     11831      11832      11843      11842      11952      11953      11964      11963  
     11832      11833      11844      11843      11953      11954      11965      11964  
     11833      11834      11845      11844      11954      11955      11966      11965  
     11834      11835      11846      11845      11955      11956      11967      11966  
     11835      11836      11847      11846      11956      11957      11968      11967  
     11837      11838      11849      11848      11958      11959      11970      11969  
     11838      11839      11850      11849      11959      11960      11971      11970  
     11839      11840      11851      11850      11960      11961      11972      11971  
     11840      11841      11852      11851      11961      11962      11973      11972  
     11841      11842      11853      11852      11962      11963      11974      11973  
     11842      11843      11854      11853      11963      11964      11975      11974  
     11843      11844      11855      11854      11964      11965      11976      11975  
     11844      11845      11856      11855      11965      11966      11977      11976  
     11845      11846      11857      11856      11966      11967      11978      11977  
     11846      11847      11858      11857      11967      11968      11979      11978  
     11859      11860      11871      11870      11980      11981      11992      11991  
     11860      11861      11872      11871      11981      11982      11993      11992  
     11861      11862      11873      11872      11982      11983      11994      11993  
     11862      11863      11874      11873      11983      11984      11995      11994  
     11863      11864      11875      11874      11984      11985      11996      11995  
     11864      11865      11876      11875      11985      11986      11997      11996  
     11865      11866      11877      11876      11986      11987      11998      11997  
     11866      11867      11878      11877      11987      11988      11999      11998  
     11867      11868      11879      11878      11988      11989      12000      11999  
     11868      11869      11880      11879      11989      11990      12001      12000  
     11870      11871      11882      11881      11991      11992      12003      12002  
     11871      11872      11883      11882      11992      11993      12004      12003  
     11872      11873      11884      11883      11993      11994      12005      12004  
     11873      11874      11885      11884      11994      11995      12006      12005  
     11874      11875      11886      11885      11995      11996      12007      12006  
     11875      11876      11887      11886      11996      11997      12008      12007  
     11876      11877      11888      11887      11997      11998      12009      12008  
     11877      11878      11889      11888      11998      11999      12010      12009  
     11878      11879      11890      11889      11999      12000      12011      12010  
     11879      11880      11891      11890      12000      12001      12012      12011  
     11881      11882      11893      11892      12002      12003      12014      12013  
     11882      11883      11894      11893      12003      12004      12015      12014  
     11883      11884      11895      11894      12004      12005      12016      12015  
     11884      11885      11896      11895      12005      12006      12017      12016  
     11885      11886      11897      11896      12006      12007      12018      12017  
     11886      11887      11898      11897      12007      12008      12019      12018  
     11887      11888      11899      11898      12008      12009      12020      12019  
     11888      11889      11900      11899      12009      12010      12021      12020  
     11889      11890      11901      11900      12010      12011      12022      12021  
     11890      11891      11902      11901      12011      12012      12023      12022  
     11892      11893      11904      11903      12013      12014      12025      12024  
     11893      11894      11905      11904      12014      12015      12026      12025  
     11894      11895      11906      11905      12015      12016      12027      12026  
     11895      11896      11907      11906      12016      12017      12028      12027  
     11896      11897      11908      11907      12017      12018      12029      12028  
     11897      11898      11909      11908      12018      12019      12030      12029  
     11898      11899      11910      11909      12019      12020      12031      12030  
     11899      11900      11911      11910      12020      12021      12032      12031  
     11900      11901      11912      11911      12021      12022      12033      12032  
     11901      11902      11913      11912      12022      12023      12034      12033  
     11903      11904      11915      11914      12024      12025      12036      12035  
     11904      11905      11916      11915      12025      12026      12037      12036  
     11905      11906      11917      11916      12026      12027      12038      12037  
     11906      11907      11918      11917      12027      12028      12039      12038  
     11907      11908      11919      11918      12028      12029      12040      12039  
     11908      11909      11920      11919      12029      12030      12041      12040  
     11909      11910      11921      11920      12030      12031      12042      12041  
     11910      11911      11922      11921      12031      12032      12043      12042  
     11911      11912      11923      11922      12032      12033      12044      12043  
     11912      11913      11924      11923      12033      12034      12045      12044  
     11914      11915      11926      11925      12035      12036      12047      12046  
     11915      11916      11927      11926      12036      12037      12048      12047  
     11916      11917      11928      11927      12037      12038      12049      12048  
     11917      11918      11929      11928      12038      12039      12050      12049  
     11918      11919      11930      11929      12039      12040      12051      12050  
     11919      11920      11931      11930      12040      12041      12052      12051  
     11920      11921      11932      11931      12041      12042      12053      12052  
     11921      11922      11933      11932      12042      12043      12054      12053  
     11922      11923      11934      11933      12043      12044      12055      12054  
     11923      11924      11935      11934      12044      12045      12056      12055  
     11925      11926      11937      11936      12046      12047      12058      12057  
     11926      11927      11938      11937      12047      12048      12059      12058  
     11927      11928      11939      11938      12048      12049      12060      12059  
     11928      11929      11940      11939      12049      12050      12061      12060  
     11929      11930      11941      11940      12050      12051      12062      12061  
     11930      11931      11942      11941      12051      12052      12063      12062  
     11931      11932      11943      11942      12052      12053      12064      12063  
     11932      11933      11944      11943      12053      12054      12065      12064  
     11933      11934      11945      11944      12054      12055      12066      12065  
     11934      11935      11946      11945      12055      12056      12067      12066  
     11936      11937      11948      11947      12057      12058      12069      12068  
     11937      11938      11949      11948      12058      12059      12070      12069  
     11938      11939      11950      11949      12059      12060      12071      12070  
     11939      11940      11951      11950      12060      12061      12072      12071  
     11940      11941      11952      11951      12061      12062      12073      12072  
     11941      11942      11953      11952      12062      12063      12074      12073  
     11942      11943      11954      11953      12063      12064      12075      12074  
     11943      11944      11955      11954      12064      12065      12076      12075  
     11944      11945      11956      11955      12065      12066      12077      12076  
     11945      11946      11957      11956      12066      12067      12078      12077  
     11947      11948      11959      11958      12068      12069      12080      12079  
     11948      11949      11960      11959      12069      12070      12081      12080  
     11949      11950      11961      11960      12070      12071      12082      12081  
     11950      11951      11962      11961      12071      12072      12083      12082  
     11951      11952      11963      11962      12072      12073      12084      12083  
     11952      11953      11964      11963      12073      12074      12085      12084  
     11953      11954      11965      11964      12074      12075      12086      12085  
     11954      11955      11966      11965      12075      12076      12087      12086  
     11955      11956      11967      11966      12076      12077      12088      12087  
     11956      11957      11968      11967      12077      12078      12089      12088  
     11958      11959      11970      11969      12079      12080      12091      12090  
     11959      11960      11971      11970      12080      12081      12092      12091  
     11960      11961      11972      11971      12081      12082      12093      12092  
     11961      11962      11973      11972      12082      12083      12094      12093  
     11962      11963      11974      11973      12083      12084      12095      12094  
     11963      11964      11975      11974      12084      12085      12096      12095  
     11964      11965      11976      11975      12085      12086      12097      12096  
     11965      11966      11977      11976      12086      12087      12098      12097  
     11966      11967      11978      11977      12087      12088      12099      12098  
     11967      11968      11979      11978      12088      12089      12100      12099  
     11980      11981      11992      11991      12101      12102      12113      12112  
     11981      11982      11993      11992      12102      12103      12114      12113  
     11982      11983      11994      11993      12103      12104      12115      12114  
     11983      11984      11995      11994      12104      12105      12116      12115  
     11984      11985      11996      11995      12105      12106      12117      12116  
     11985      11986      11997      11996      12106      12107      12118      12117  
     11986      11987      11998      11997      12107      12108      12119      12118  
     11987      11988      11999      11998      12108      12109      12120      12119  
     11988      11989      12000      11999      12109      12110      12121      12120  
     11989      11990      12001      12000      12110      12111      12122      12121  
     11991      11992      12003      12002      12112      12113      12124      12123  
     11992      11993      12004      12003      12113      12114      12125      12124  
     11993      11994      12005      12004      12114      12115      12126      12125  
     11994      11995      12006      12005      12115      12116      12127      12126  
     11995      11996      12007      12006      12116      12117      12128      12127  
     11996      11997      12008      12007      12117      12118      12129      12128  
     11997      11998      12009      12008      12118      12119      12130      12129  
     11998      11999      12010      12009      12119      12120      12131      12130  
     11999      12000      12011      12010      12120      12121      12132      12131  
     12000      12001      12012      12011      12121      12122      12133      12132  
     12002      12003      12014      12013      12123      12124      12135      12134  
     12003      12004      12015      12014      12124      12125      12136      12135  
     12004      12005      12016      12015      12125      12126      12137      12136  
     12005      12006      12017      12016      12126      12127      12138      12137  
     12006      12007      12018      12017      12127      12128      12139      12138  
     12007      12008      12019      12018      12128      12129      12140      12139  
     12008      12009      12020      12019      12129      12130      12141      12140  
     12009      12010      12021      12020      12130      12131      12142      12141  
     12010      12011      12022      12021      12131      12132      12143      12142  
     12011      12012      12023      12022      12132      12133      12144      12143  
     12013      12014      12025      12024      12134      12135      12146      12145  
     12014      12015      12026      12025      12135      12136      12147      12146  
     12015      12016      12027      12026      12136      12137      12148      12147  
     12016      12017      12028      12027      12137      12138      12149      12148  
     12017      12018      12029      12028      12138      12139      12150      12149  
     12018      12019      12030      12029      12139      12140      12151      12150  
     12019      12020      12031      12030      12140      12141      12152      12151  
     12020      12021      12032      12031      12141      12142      12153      12152  
     12021      12022      12033      12032      12142      12143      12154      12153  
     12022      12023      12034      12033      12143      12144      12155      12154  
     12024      12025      12036      12035      12145      12146      12157      12156  
     12025      12026      12037      12036      12146      12147      12158      12157  
     12026      12027      12038      12037      12147      12148      12159      12158  
     12027      12028      12039      12038      12148      12149      12160      12159  
     12028      12029      12040      12039      12149      12150      12161      12160  
     12029      12030      12041      12040      12150      12151      12162      12161  
     12030      12031      12042      12041      12151      12152      12163      12162  
     12031      12032      12043      12042      12152      12153      12164      12163  
     12032      12033      12044      12043      12153      12154      12165      12164  
     12033      12034      12045      12044      12154      12155      12166      12165  
     12035      12036      12047      12046      12156      12157      12168      12167  
     12036      12037      12048      12047      12157      12158      12169      12168  
     12037      12038      12049      12048      12158      12159      12170      12169  
     12038      12039      12050      12049      12159      12160      12171      12170  
     12039      12040      12051      12050      12160      12161      12172      12171  
     12040      12041      12052      12051      12161      12162      12173      12172  
     12041      12042      12053      12052      12162      12163      12174      12173  
     12042      12043      12054      12053      12163      12164      12175      12174  
     12043      12044      12055      12054      12164      12165      12176      12175  
     12044      12045      12056      12055      12165      12166      12177      12176  
     12046      12047      12058      12057      12167      12168      12179      12178  
     12047      12048      12059      12058      12168      12169      12180      12179  
     12048      12049      12060      12059      12169      12170      12181      12180  
     12049      12050      12061      12060      12170      12171      12182      12181  
     12050      12051      12062      12061      12171      12172      12183      12182  
     12051      12052      12063      12062      12172      12173      12184      12183  
     12052      12053      12064      12063      12173      12174      12185      12184  
     12053      12054      12065      12064      12174      12175      12186      12185  
     12054      12055      12066      12065      12175      12176      12187      12186  
     12055      12056      12067      12066      12176      12177      12188      12187  
     12057      12058      12069      12068      12178      12179      12190      12189  
     12058      12059      12070      12069      12179      12180      12191      12190  
     12059      12060      12071      12070      12180      12181      12192      12191  
     12060      12061      12072      12071      12181      12182      12193      12192  
     12061      12062      12073      12072      12182      12183      12194      12193  
     12062      12063      12074      12073      12183      12184      12195      12194  
     12063      12064      12075      12074      12184      12185      12196      12195  
     12064      12065      12076      12075      12185      12186      12197      12196  
     12065      12066      12077      12076      12186      12187      12198      12197  
     12066      12067      12078      12077      12187      12188      12199      12198  
     12068      12069      12080      12079      12189      12190      12201      12200  
     12069      12070      12081      12080      12190      12191      12202      12201  
     12070      12071      12082      12081      12191      12192      12203      12202  
     12071      12072      12083      12082      12192      12193      12204      12203  
     12072      12073      12084      12083      12193      12194      12205      12204  
     12073      12074      12085      12084      12194      12195      12206      12205  
     12074      12075      12086      12085      12195      12196      12207      12206  
     12075      12076      12087      12086      12196      12197      12208      12207  
     12076      12077      12088      12087      12197      12198      12209      12208  
     12077      12078      12089      12088      12198      12199      12210      12209  
     12079      12080      12091      12090      12200      12201      12212      12211  
     12080      12081      12092      12091      12201      12202      12213      12212  
     12081      12082      12093      12092      12202      12203      12214      12213  
     12082      12083      12094      12093      12203      12204      12215      12214  
     12083      12084      12095      12094      12204      12205      12216      12215  
     12084      12085      12096      12095      12205      12206      12217      12216  
     12085      12086      12097      12096      12206      12207      12218      12217  
     12086      12087      12098      12097      12207      12208      12219      12218  
     12087      12088      12099      12098      12208      12209      12220      12219  
     12088      12089      12100      12099      12209      12210      12221      12220  
