TITLE="results for TO code"
VARIABLES = "x", "y", "z", "density", "sigmaxx", "sigmayy", "sigmazz", "sigmaxy", "sigmaxz", "sigmayz"
ZONE T="load step 1", NODES= 12221, ELEMENTS= 10000, DATAPACKING=POINT, ZONETYPE=FEBRICK
               0.00000000                0.00000000                0.00000000                1.00000000               -0.00000000               -0.00000000                1.83466287                0.00000000                0.53498297                1.10012658
               1.00000000                0.00000000                0.00000000                1.00000000                0.00000000               -0.00000000                1.26007299               -0.00000000                0.02993163                0.74792476
               2.00000000                0.00000000                0.00000000                1.00000000                0.00000000                0.00000000                0.66883091               -0.00000000               -0.16152955                0.37975804
               3.00000000                0.00000000                0.00000000                1.00000000                0.00000000                0.00000000                0.14498106                0.00000000               -0.14557520                0.08645893
               4.00000000                0.00000000                0.00000000                1.00000000               -0.00000000                0.00000000               -0.01396037                0.00000000               -0.03214046               -0.00751039
               5.00000000                0.00000000                0.00000000                1.00000000               -0.00000000               -0.00000000               -0.00586425               -0.00000000                0.00172450               -0.00513335
               6.00000000                0.00000000                0.00000000                1.00000000               -0.00000000                0.00000000               -0.01410383                0.00000000               -0.00439038               -0.00156524
               7.00000000                0.00000000                0.00000000                1.00000000               -0.00000000               -0.00000000               -0.08663845                0.00000000               -0.05324286               -0.09107163
               8.00000000                0.00000000                0.00000000                1.00000000                0.00000000                0.00000000               -0.76294543               -0.00000000               -0.05053907               -0.47063154
               9.00000000                0.00000000                0.00000000                1.00000000               -0.00000000               -0.00000000               -1.56395366                0.00000000                0.24233892               -0.86818222
              10.00000000                0.00000000                0.00000000                1.00000000               -0.00000000                0.00000000               -2.25076050                0.00000000                0.86672013               -1.20737659
               0.00000000                1.00000000                0.00000000                1.00000000               -0.00000000               -0.00000000                1.48678209                0.00000000                0.73923507                0.58801368
               1.00000000                1.00000000                0.00000000                1.00000000               -0.00000000                0.00000000                0.93256644               -0.00000000                0.26601820                0.36812284
               2.00000000                1.00000000                0.00000000                1.00000000               -0.00000000               -0.00000000                0.40493776                0.00000000                0.05480183                0.12097099
               3.00000000                1.00000000                0.00000000                1.00000000               -0.00000000               -0.00000000                0.04605876                0.00000000                0.00937338               -0.00665422
               4.00000000                1.00000000                0.00000000                1.00000000                0.00000000               -0.00000000               -0.00113295                0.00000000                0.00452834               -0.01455008
               5.00000000                1.00000000                0.00000000                1.00000000               -0.00000000               -0.00000000               -0.00089874               -0.00000000                0.00709386               -0.00373384
               6.00000000                1.00000000                0.00000000                1.00000000                0.00000000               -0.00000000               -0.00743468               -0.00000000                0.02324421                0.00378032
               7.00000000                1.00000000                0.00000000                1.00000000               -0.00000000                0.00000000               -0.00851064               -0.00000000                0.06667118               -0.01847856
               8.00000000                1.00000000                0.00000000                1.00000000               -0.00000000               -0.00000000               -0.37698815               -0.00000000                0.15340639               -0.15721991
               9.00000000                1.00000000                0.00000000                1.00000000               -0.00000000                0.00000000               -1.08495083                0.00000000                0.45815729               -0.38963884
              10.00000000                1.00000000                0.00000000                1.00000000                0.00000000               -0.00000000               -1.86327015                0.00000000                1.04573035               -0.56913518
               0.00000000                2.00000000                0.00000000                1.00000000                0.00000000                0.00000000                1.44200052                0.00000000                0.81513210                0.31044627
               1.00000000                2.00000000                0.00000000                1.00000000               -0.00000000               -0.00000000                0.78913142                0.00000000                0.32700294                0.17007061
               2.00000000                2.00000000                0.00000000                1.00000000                0.00000000                0.00000000                0.17997413               -0.00000000                0.11416616                0.01259254
               3.00000000                2.00000000                0.00000000                1.00000000                0.00000000               -0.00000000               -0.01656030               -0.00000000                0.04936155               -0.01081622
               4.00000000                2.00000000                0.00000000                1.00000000               -0.00000000               -0.00000000                0.00355767               -0.00000000                0.01973697               -0.00890312
               5.00000000                2.00000000                0.00000000                1.00000000                0.00000000                0.00000000               -0.00055118                0.00000000                0.01272482               -0.00384443
               6.00000000                2.00000000                0.00000000                1.00000000               -0.00000000                0.00000000               -0.00146326               -0.00000000                0.02530333               -0.00302652
               7.00000000                2.00000000                0.00000000                1.00000000                0.00000000               -0.00000000               -0.00004357                0.00000000                0.06407964               -0.01920000
               8.00000000                2.00000000                0.00000000                1.00000000               -0.00000000                0.00000000               -0.06685960                0.00000000                0.15574990               -0.02685784
               9.00000000                2.00000000                0.00000000                1.00000000               -0.00000000               -0.00000000               -0.69578446                0.00000000                0.43283455               -0.13476649
              10.00000000                2.00000000                0.00000000                1.00000000               -0.00000000               -0.00000000               -1.76179910                0.00000000                1.03994301               -0.20789998
               0.00000000                3.00000000                0.00000000                1.00000000                0.00000000                0.00000000                1.38462140                0.00000000                0.80996066                0.13493908
               1.00000000                3.00000000                0.00000000                1.00000000               -0.00000000                0.00000000                0.65481571                0.00000000                0.33483602                0.05488801
               2.00000000                3.00000000                0.00000000                1.00000000                0.00000000                0.00000000                0.03973631               -0.00000000                0.15726961               -0.03596653
               3.00000000                3.00000000                0.00000000                1.00000000               -0.00000000               -0.00000000                0.00329237                0.00000000                0.06257560               -0.00957991
               4.00000000                3.00000000                0.00000000                1.00000000                0.00000000               -0.00000000                0.00118081                0.00000000                0.02538918               -0.00449390
               5.00000000                3.00000000                0.00000000                1.00000000               -0.00000000                0.00000000               -0.00000305                0.00000000                0.01509858               -0.00309592
               6.00000000                3.00000000                0.00000000                1.00000000               -0.00000000                0.00000000               -0.00064324                0.00000000                0.02205582               -0.00531428
               7.00000000                3.00000000                0.00000000                1.00000000               -0.00000000               -0.00000000               -0.00894658               -0.00000000                0.04908072               -0.01156217
               8.00000000                3.00000000                0.00000000                1.00000000               -0.00000000               -0.00000000                0.03153387                0.00000000                0.11955003               -0.02288954
               9.00000000                3.00000000                0.00000000                1.00000000                0.00000000                0.00000000               -0.41150629               -0.00000000                0.32649818               -0.04302622
              10.00000000                3.00000000                0.00000000                1.00000000               -0.00000000               -0.00000000               -1.57197510                0.00000000                0.88581927               -0.00651250
               0.00000000                4.00000000                0.00000000                1.00000000               -0.00000000               -0.00000000                1.31884917                0.00000000                0.77673874                0.01643181
               1.00000000                4.00000000                0.00000000                1.00000000                0.00000000                0.00000000                0.51072339                0.00000000                0.32568002               -0.02295107
               2.00000000                4.00000000                0.00000000                1.00000000                0.00000000                0.00000000               -0.07260810                0.00000000                0.17836726               -0.05004258
               3.00000000                4.00000000                0.00000000                1.00000000                0.00000000               -0.00000000                0.01272472               -0.00000000                0.06981747               -0.00554955
               4.00000000                4.00000000                0.00000000                1.00000000               -0.00000000               -0.00000000                0.00091745               -0.00000000                0.02677332               -0.00206028
               5.00000000                4.00000000                0.00000000                1.00000000               -0.00000000               -0.00000000                0.00024104               -0.00000000                0.01478974               -0.00212527
               6.00000000                4.00000000                0.00000000                1.00000000               -0.00000000               -0.00000000               -0.00093417                0.00000000                0.01815620               -0.00414589
               7.00000000                4.00000000                0.00000000                1.00000000               -0.00000000                0.00000000               -0.00415458               -0.00000000                0.04008921               -0.00914947
               8.00000000                4.00000000                0.00000000                1.00000000               -0.00000000               -0.00000000                0.01383883                0.00000000                0.09793773               -0.01626199
               9.00000000                4.00000000                0.00000000                1.00000000               -0.00000000               -0.00000000               -0.30547166                0.00000000                0.27359738                0.01023504
              10.00000000                4.00000000                0.00000000                1.00000000               -0.00000000                0.00000000               -1.38554961                0.00000000                0.75302673                0.08371380
               0.00000000                5.00000000                0.00000000                1.00000000               -0.00000000                0.00000000                1.24028157                0.00000000                0.72247675               -0.06900532
               1.00000000                5.00000000                0.00000000                1.00000000                0.00000000               -0.00000000                0.34270042               -0.00000000                0.29380483               -0.06618385
               2.00000000                5.00000000                0.00000000                1.00000000               -0.00000000               -0.00000000               -0.11731423               -0.00000000                0.16603752               -0.03869561
               3.00000000                5.00000000                0.00000000                1.00000000                0.00000000               -0.00000000                0.01587739                0.00000000                0.06684471               -0.00195781
               4.00000000                5.00000000                0.00000000                1.00000000                0.00000000                0.00000000                0.00063451                0.00000000                0.02589090               -0.00024992
               5.00000000                5.00000000                0.00000000                1.00000000               -0.00000000               -0.00000000                0.00035365               -0.00000000                0.01354572               -0.00121745
               6.00000000                5.00000000                0.00000000                1.00000000               -0.00000000                0.00000000               -0.00054887                0.00000000                0.01500036               -0.00325779
               7.00000000                5.00000000                0.00000000                1.00000000               -0.00000000               -0.00000000               -0.00352178                0.00000000                0.03130500               -0.00777960
               8.00000000                5.00000000                0.00000000                1.00000000               -0.00000000                0.00000000                0.00943320               -0.00000000                0.07751903               -0.01366766
               9.00000000                5.00000000                0.00000000                1.00000000                0.00000000               -0.00000000               -0.20804174                0.00000000                0.22232311                0.04554567
              10.00000000                5.00000000                0.00000000                1.00000000               -0.00000000                0.00000000               -1.19803305               -0.00000000                0.64553696                0.15022972
               0.00000000                6.00000000                0.00000000                1.00000000                0.00000000                0.00000000                1.13109266               -0.00000000                0.64596041               -0.12476508
               1.00000000                6.00000000                0.00000000                1.00000000               -0.00000000               -0.00000000                0.20360406                0.00000000                0.25614116               -0.08360805
               2.00000000                6.00000000                0.00000000                1.00000000                0.00000000               -0.00000000               -0.11063837                0.00000000                0.14488539               -0.02851279
               3.00000000                6.00000000                0.00000000                1.00000000               -0.00000000                0.00000000                0.01375466                0.00000000                0.06092464               -0.00065059
               4.00000000                6.00000000                0.00000000                1.00000000               -0.00000000                0.00000000                0.00077263                0.00000000                0.02401287                0.00063877
               5.00000000                6.00000000                0.00000000                1.00000000                0.00000000                0.00000000                0.00039147               -0.00000000                0.01209636               -0.00056555
               6.00000000                6.00000000                0.00000000                1.00000000               -0.00000000               -0.00000000               -0.00041285                0.00000000                0.01209007               -0.00244437
               7.00000000                6.00000000                0.00000000                1.00000000                0.00000000                0.00000000               -0.00219759               -0.00000000                0.02319553               -0.00587713
               8.00000000                6.00000000                0.00000000                1.00000000                0.00000000               -0.00000000                0.00400494                0.00000000                0.05251219               -0.00944103
               9.00000000                6.00000000                0.00000000                1.00000000                0.00000000                0.00000000               -0.11546035                0.00000000                0.14383741                0.05704085
              10.00000000                6.00000000                0.00000000                1.00000000               -0.00000000                0.00000000               -0.88301930                0.00000000                0.51714623                0.20468758
               0.00000000                7.00000000                0.00000000                1.00000000               -0.00000000                0.00000000                0.99855512                0.00000000                0.56567171               -0.15692631
               1.00000000                7.00000000                0.00000000                1.00000000               -0.00000000               -0.00000000                0.10477638                0.00000000                0.23067939               -0.08853484
               2.00000000                7.00000000                0.00000000                1.00000000               -0.00000000                0.00000000               -0.11629629                0.00000000                0.13988381               -0.02145171
               3.00000000                7.00000000                0.00000000                1.00000000               -0.00000000                0.00000000                0.01309225                0.00000000                0.05865465                0.00079122
               4.00000000                7.00000000                0.00000000                1.00000000                0.00000000                0.00000000                0.00068647               -0.00000000                0.02231295                0.00163593
               5.00000000                7.00000000                0.00000000                1.00000000               -0.00000000               -0.00000000                0.00040153                0.00000000                0.01048082               -0.00000511
               6.00000000                7.00000000                0.00000000                1.00000000                0.00000000               -0.00000000               -0.00028690               -0.00000000                0.00963538               -0.00190596
               7.00000000                7.00000000                0.00000000                1.00000000               -0.00000000               -0.00000000               -0.00123704               -0.00000000                0.01771362               -0.00351391
               8.00000000                7.00000000                0.00000000                1.00000000               -0.00000000                0.00000000               -0.00033585               -0.00000000                0.03655059                0.00081320
               9.00000000                7.00000000                0.00000000                1.00000000               -0.00000000                0.00000000               -0.04413736               -0.00000000                0.08521056                0.06149768
              10.00000000                7.00000000                0.00000000                1.00000000                0.00000000               -0.00000000               -0.52658737                0.00000000                0.35324960                0.17769680
               0.00000000                8.00000000                0.00000000                1.00000000                0.00000000               -0.00000000                0.85948118                0.00000000                0.49486454               -0.18941193
               1.00000000                8.00000000                0.00000000                1.00000000               -0.00000000                0.00000000                0.02653018                0.00000000                0.21539977               -0.07879752
               2.00000000                8.00000000                0.00000000                1.00000000               -0.00000000               -0.00000000               -0.15166810               -0.00000000                0.15043421               -0.00039627
               3.00000000                8.00000000                0.00000000                1.00000000                0.00000000                0.00000000                0.01100329               -0.00000000                0.06120017                0.01047809
               4.00000000                8.00000000                0.00000000                1.00000000               -0.00000000                0.00000000                0.00006635                0.00000000                0.02026673                0.00473442
               5.00000000                8.00000000                0.00000000                1.00000000                0.00000000                0.00000000                0.00052688               -0.00000000                0.00870972                0.00025823
               6.00000000                8.00000000                0.00000000                1.00000000               -0.00000000                0.00000000               -0.00015663                0.00000000                0.00769385               -0.00195733
               7.00000000                8.00000000                0.00000000                1.00000000               -0.00000000                0.00000000               -0.00091603               -0.00000000                0.01449751               -0.00345973
               8.00000000                8.00000000                0.00000000                1.00000000               -0.00000000               -0.00000000               -0.00146160                0.00000000                0.03747474                0.00702088
               9.00000000                8.00000000                0.00000000                1.00000000               -0.00000000               -0.00000000               -0.00721088               -0.00000000                0.08109268                0.08177605
              10.00000000                8.00000000                0.00000000                1.00000000               -0.00000000                0.00000000               -0.40126036               -0.00000000                0.27040451                0.14588834
               0.00000000                9.00000000                0.00000000                1.00000000               -0.00000000               -0.00000000                0.69300896               -0.00000000                0.39215215               -0.26705635
               1.00000000                9.00000000                0.00000000                1.00000000                0.00000000               -0.00000000               -0.03637041               -0.00000000                0.19211251               -0.04279143
               2.00000000                9.00000000                0.00000000                1.00000000                0.00000000                0.00000000               -0.28470254                0.00000000                0.17087767                0.08440369
               3.00000000                9.00000000                0.00000000                1.00000000               -0.00000000               -0.00000000               -0.02462163               -0.00000000                0.06934239                0.05040888
               4.00000000                9.00000000                0.00000000                1.00000000                0.00000000               -0.00000000                0.00351970               -0.00000000                0.01894927                0.00971283
               5.00000000                9.00000000                0.00000000                1.00000000               -0.00000000                0.00000000                0.00029274               -0.00000000                0.00961876               -0.00083891
               6.00000000                9.00000000                0.00000000                1.00000000                0.00000000               -0.00000000               -0.00005331               -0.00000000                0.00684646               -0.00183870
               7.00000000                9.00000000                0.00000000                1.00000000                0.00000000                0.00000000               -0.00037762               -0.00000000                0.01003561               -0.00560903
               8.00000000                9.00000000                0.00000000                1.00000000                0.00000000                0.00000000               -0.00407612                0.00000000                0.03553046               -0.00771119
               9.00000000                9.00000000                0.00000000                1.00000000                0.00000000               -0.00000000                0.08073040                0.00000000                0.11880631                0.08910951
              10.00000000                9.00000000                0.00000000                1.00000000               -0.00000000                0.00000000               -0.45568252               -0.00000000                0.26536500                0.20308485
               0.00000000               10.00000000                0.00000000                1.00000000                0.00000000                0.00000000                0.65210116               -0.00000000                0.10536694               -0.44844809
               1.00000000               10.00000000                0.00000000                1.00000000               -0.00000000                0.00000000               -0.07736952               -0.00000000               -0.01478325                0.01386469
               2.00000000               10.00000000                0.00000000                1.00000000                0.00000000               -0.00000000               -0.50667439               -0.00000000                0.10125418                0.33725581
               3.00000000               10.00000000                0.00000000                1.00000000                0.00000000                0.00000000               -0.13840703                0.00000000                0.12885923                0.16006068
               4.00000000               10.00000000                0.00000000                1.00000000               -0.00000000                0.00000000               -0.00008270               -0.00000000                0.05200117                0.02104419
               5.00000000               10.00000000                0.00000000                1.00000000                0.00000000                0.00000000               -0.00093750                0.00000000                0.01774698                0.00256152
               6.00000000               10.00000000                0.00000000                1.00000000               -0.00000000                0.00000000                0.00082635                0.00000000                0.00938472               -0.00168110
               7.00000000               10.00000000                0.00000000                1.00000000               -0.00000000               -0.00000000                0.00261412                0.00000000                0.01161195               -0.00794527
               8.00000000               10.00000000                0.00000000                1.00000000               -0.00000000                0.00000000                0.01337178               -0.00000000                0.01526116               -0.02890175
               9.00000000               10.00000000                0.00000000                1.00000000               -0.00000000                0.00000000                0.10536232               -0.00000000                0.01131318                0.01894694
              10.00000000               10.00000000                0.00000000                1.00000000                0.00000000               -0.00000000               -0.57378455                0.00000000                0.07748030                0.38656722
               0.00534983                0.01100127                1.01834663                1.00000000               -0.50505134               -0.51211290                1.78122052               -0.14794972               -0.05334454                0.50188672
               1.00029932                0.00747925                1.01260073                1.00000000               -0.34825626               -0.37980192                1.26454601               -0.12409770               -0.27683849                0.24957499
               1.99838470                0.00379758                1.00668831                0.88292638               -0.08775341               -0.25878706                0.72591415               -0.11440153               -0.39778622                0.02781469
               2.99854425                0.00086459                1.00144981                0.46534838                0.06469454               -0.09311315                0.23407405               -0.03868563               -0.24931087               -0.09234178
               3.99967860               -0.00007510                0.99986040                0.37941666                0.07364985               -0.00703969               -0.04189955               -0.00912734                0.17510119               -0.08920927
               5.00001724               -0.00005133                0.99994136                0.38197893                0.01387504                0.00139951               -0.12902543                0.00834193                0.38939028               -0.07739410
               5.99995610               -0.00001565                0.99985896                0.43884682               -0.02748368                0.00534556               -0.25637121               -0.01533455                0.32623402               -0.06896756
               6.99946757               -0.00091072                0.99913362                0.61282308               -0.02307434                0.07259307               -0.54140224               -0.11461911               -0.06724967               -0.12147967
               7.99949461               -0.00470632                0.99237055                1.00000000                0.14779089                0.31341162               -0.94759346               -0.18460984               -0.35163266               -0.04407217
               9.00242339               -0.00868182                0.98436046                1.00000000                0.45862960                0.47854338               -1.53348233               -0.15255416               -0.15996082               -0.19359083
              10.00866720               -0.01207377                0.97749240                1.00000000                0.62438122                0.63824141               -2.15412325               -0.16018415                0.14991681               -0.51822087
               0.00739235                1.00588014                1.01486782                1.00000000               -0.47321687               -0.39484015                1.57805678               -0.07981628                0.18922566                0.40861103
               1.00266018                1.00368123                1.00932566                1.00000000               -0.34221662               -0.28892708                1.05381629               -0.08498569               -0.00792172                0.16374795
               2.00054802                1.00120971                1.00404938                0.39549151               -0.12832241               -0.18358275                0.56785814               -0.04954067               -0.04441321               -0.06767479
               3.00009373                0.99993346                1.00046059                0.00010000               -0.02513675               -0.04863757                0.18871330                0.02970784                0.14951444               -0.13501905
               4.00004528                0.99985450                0.99998867                0.00010000               -0.00113976               -0.00069637                0.01160706                0.02739890                0.31440285               -0.13809199
               5.00007094                0.99996266                0.99999101                0.00010000                0.00935793                0.00064446               -0.05393510                0.01466536                0.36824011               -0.05575494
               6.00023244                1.00003780                0.99992565                0.00010000                0.02978866               -0.00073064               -0.16878962                0.00747450                0.43177958                0.03897669
               7.00066671                0.99981521                0.99991489                0.01130471                0.06508109                0.03593582               -0.39692279               -0.02183886                0.33309460                0.00738735
               8.00153406                0.99842780                0.99623012                0.82577845                0.19574306                0.22188685               -0.77001601               -0.08243565                0.05908746                0.09125391
               9.00458157                0.99610361                0.98915049                1.00000000                0.44616198                0.36670787               -1.33384741               -0.11070982                0.04553357               -0.02595331
              10.01045730                0.99430865                0.98136730                1.00000000                0.58757307                0.49973830               -1.89280951               -0.09288491                0.26136943               -0.37661776
               0.00815132                2.00310446                1.01442001                1.00000000               -0.48812917               -0.22653730                1.48278260               -0.10501287                0.21553314                0.34474866
               1.00327003                2.00170071                1.00789131                1.00000000               -0.35048297               -0.15661742                0.88775917               -0.11451796                0.03319276                0.11138493
               2.00114166                2.00012593                1.00179974                0.05679078               -0.13882069               -0.07846876                0.30063041               -0.03920952                0.14809214               -0.10160498
               3.00049362                1.99989184                0.99983440                0.00010000               -0.04721460               -0.00146285                0.02658151                0.01585328                0.55484837               -0.17795918
               4.00019737                1.99991097                1.00003558                0.00010000               -0.01831837                0.00502809               -0.01437265                0.01391631                0.64455924               -0.11093712
               5.00012725                1.99996156                0.99999449                0.00010000                0.00278318                0.00031896               -0.07607015                0.00694066                0.62255391               -0.07411111
               6.00025303                1.99996973                0.99998537                0.00010000                0.02567741               -0.00454730               -0.14309788               -0.00827198                0.68656784               -0.02826358
               7.00064080                1.99980800                0.99999956                0.00010000                0.06522329                0.00345819               -0.37532747               -0.02071089                0.80039082                0.02382973
               8.00155750                1.99973142                0.99933140                0.15271799                0.18437746                0.06716519               -0.62730359               -0.07471142                0.43481830                0.10780290
               9.00432835                1.99865234                0.99304216                1.00000000                0.44209655                0.17330631               -1.08249933               -0.15635062                0.07020296                0.05765794
              10.01039943                1.99792100                0.98238201                1.00000000                0.60710845                0.28131134               -1.70339558               -0.15308904                0.08169586               -0.21905844
               0.00809961                3.00134939                1.01384621                1.00000000               -0.47512464               -0.14700723                1.41204552               -0.09924776                0.20561197                0.18771365
               1.00334836                3.00054888                1.00654816                1.00000000               -0.32634552               -0.09651084                0.74128178               -0.08611426                0.06382225                0.00879355
               2.00157270                2.99964033                1.00039736                0.00010000               -0.13613021               -0.03131756                0.06224253               -0.00013341                0.33071863               -0.10855591
               3.00062576                2.99990420                1.00003292                0.00010000               -0.06594022                0.00263334               -0.27475316                0.02596428                0.79723636               -0.19214403
               4.00025389                2.99995506                1.00001181                0.00010000               -0.02373851                0.00342142               -0.03931716                0.00676017                0.81973648               -0.07339967
               5.00015099                2.99996904                0.99999997                0.00010000               -0.00166668                0.00085958               -0.08261195                0.00062227                0.82224450               -0.06474312
               6.00022056                2.99994686                0.99999357                0.00010000                0.01699107               -0.00055968               -0.13862263               -0.00780670                0.83655610               -0.03771731
               7.00049081                2.99988438                0.99991053                0.00010000                0.04874711                0.00502527               -0.15229053               -0.02078285                0.89181619                0.00478577
               8.00119550                2.99977110                1.00031534                0.03760028                0.13870873                0.00529793               -0.61672718               -0.04463811                0.85321184                0.04565104
               9.00326498                2.99956974                0.99588494                1.00000000                0.38313462                0.07250076               -0.72343540               -0.07143007                0.11951016                0.02452245
              10.00885819                2.99993488                0.98428025                1.00000000                0.55932109                0.14580689               -1.54698026               -0.10694442               -0.01934127                0.01097642
               0.00776739                4.00016432                1.01318849                1.00000000               -0.45105872               -0.10197220                1.33173405               -0.08312483                0.16504307                0.07444516
               1.00325680                3.99977049                1.00510723                0.89663543               -0.29918574               -0.06053593                0.60888838               -0.05375279                0.09163069               -0.08022397
               2.00178367                3.99949957                0.99927392                0.00010000               -0.12793127               -0.00136454               -0.13007396                0.01308472                0.49761681               -0.10346750
               3.00069817                3.99994450                1.00012725                0.00010000               -0.07579697                0.00381105               -0.08116303                0.02612570                0.90724079               -0.07767717
               4.00026773                3.99997940                1.00000917                0.00010000               -0.02751387                0.00212199               -0.09138051                0.00196300                0.93523341               -0.06993098
               5.00014790                3.99997875                1.00000241                0.00010000               -0.00430856                0.00093923               -0.08629415               -0.00181923                0.97506019               -0.04566139
               6.00018156                3.99995854                0.99999066                0.00010000                0.01264973                0.00102825               -0.09586547               -0.00703982                0.98561383               -0.01968400
               7.00040089                3.99990851                0.99995845                0.00010000                0.03989077                0.00189129               -0.10031939               -0.01494591                1.01104952                0.00860030
               8.00097938                3.99983738                1.00013839                0.02444424                0.11675408                0.00461094               -0.03773290               -0.01132324                0.81455186                0.09364386
               9.00273597                4.00010235                0.99694528                1.00000000                0.32754450                0.04428595               -0.51931066               -0.00209964                0.19950414                0.01963717
              10.00753027                4.00083714                0.98614450                1.00000000                0.47942935                0.07837111               -1.37803124               -0.04666240                0.00485973                0.12274387
               0.00722477                4.99930995                1.01240282                1.00000000               -0.42867192               -0.07059844                1.23656177               -0.06256769                0.09518227               -0.02337705
               1.00293805                4.99933816                1.00342700                0.73610101               -0.27821961               -0.03032849                0.47588739               -0.01961457                0.14845638               -0.12952549
               2.00166038                4.99961304                0.99882686                0.00010000               -0.11348006                0.01076490               -0.34078220                0.01537209                0.66023280               -0.07173222
               3.00066845                4.99998042                1.00015877                0.00010000               -0.07007331                0.00244948               -0.19544251                0.01477642                1.06851464               -0.11670784
               4.00025891                4.99999750                1.00000635                0.00010000               -0.02664949                0.00134953               -0.12622949               -0.00101005                1.07380142               -0.06060351
               5.00013546                4.99998783                1.00000354                0.00010000               -0.00544527                0.00077986               -0.08648335               -0.00285062                1.10635556               -0.03030209
               6.00015000                4.99996742                0.99999451                0.00010000                0.00887964                0.00085076               -0.05627018               -0.00631413                1.11055399               -0.00822025
               7.00031305                4.99992220                0.99996478                0.00010000                0.03125934                0.00163617                0.00417240               -0.01365178                1.08022439                0.02522408
               8.00077519                4.99986332                1.00009433                0.03019139                0.09550905                0.00341048                0.40234141                0.00394986                0.79249143                0.14482784
               9.00222323                5.00045546                0.99791958                0.93793666                0.28400896                0.02340290               -0.36497083                0.01706871                0.26407545                0.08388741
              10.00645537                5.00150230                0.98801967                1.00000000                0.42321385                0.06048689               -1.26141576               -0.01325620                0.03676932                0.27170599
               0.00645960                5.99875235                1.01131093                1.00000000               -0.38981926               -0.04396050                1.13071973               -0.03724549                0.06103448               -0.11024634
               1.00256141                5.99916392                1.00203604                0.66147803               -0.25053751               -0.01117550                0.31517379                0.01656343                0.22944034               -0.12738976
               2.00144885                5.99971487                0.99889362                0.08026638               -0.09760826                0.00862195               -0.57685241                0.02840188                0.78044008               -0.05622163
               3.00060925                5.99999349                1.00013755                0.00010000               -0.06043626                0.00137452               -0.80852279                0.01048075                1.21052488               -0.10036885
               4.00024013                6.00000639                1.00000773                0.00010000               -0.02441414                0.00094292               -0.14762376               -0.00174646                1.20143673               -0.03395161
               5.00012096                5.99999434                1.00000391                0.00010000               -0.00596140                0.00060617               -0.09070408               -0.00307402                1.21743664               -0.01291454
               6.00012090                5.99997556                0.99999587                0.00010000                0.00554958                0.00067592               -0.01627882               -0.00533828                1.20892617                0.00189575
               7.00023196                5.99994123                0.99997802                0.00010000                0.02021106                0.00213284                0.09313130               -0.01029402                1.13684561                0.03132093
               8.00052512                5.99990559                1.00004005                0.04760890                0.06032094                0.00724043                0.80215412                0.01097477                0.76928524                0.16576469
               9.00143837                6.00057041                0.99884540                0.76817678                0.23231702                0.00797601               -0.24228292                0.03850804                0.37966889                0.13212308
              10.00517146                6.00204688                0.99116981                1.00000000                0.37330882                0.01373354               -1.22430750                0.00150305                0.18890173                0.43674349
               0.00565672                6.99843074                1.00998555                1.00000000               -0.33499232               -0.03232343                1.01387367               -0.00715647                0.06441533               -0.17394636
               1.00230679                6.99911465                1.00104776                0.65834930               -0.21289395                0.00240527                0.15805947                0.04736660                0.28906531               -0.10725882
               2.00139884                6.99978548                0.99883704                0.18383535               -0.08601237                0.01405826               -0.76995613                0.04743744                0.85026778               -0.04021094
               3.00058655                7.00000791                1.00013092                0.00010000               -0.05878543                0.00556434               -1.23488728                0.01168159                1.26470155                0.05204182
               4.00022313                7.00001636                1.00000686                0.00010000               -0.02408691                0.00204783               -0.18042442               -0.00227124                1.28080553                0.00866733
               5.00010481                6.99999995                1.00000402                0.00010000               -0.00633878                0.00041189               -0.10113408               -0.00346427                1.29982763                0.01075909
               6.00009635                6.99998094                0.99999713                0.00010000                0.00361640                0.00024352                0.01609961               -0.00395251                1.28822553                0.00757350
               7.00017714                6.99996486                0.99998763                0.00010000                0.01345761                0.00120870                0.16896135               -0.00298943                1.17911537                0.02331333
               8.00036551                7.00000813                0.99999664                0.08080685                0.03374847                0.00823096                1.16180615                0.02498707                0.74288799                0.14324573
               9.00085211                7.00061498                0.99955863                0.69856842                0.15834950                0.01236760               -0.08243477                0.05706944                0.51948117                0.15676137
              10.00353250                7.00177697                0.99473413                1.00000000                0.26803904               -0.02939962               -1.17518813               -0.00717174                0.39162169                0.38698033
               0.00494865                7.99810588                1.00859481                1.00000000               -0.27946478               -0.05506502                0.88620675                0.02385463                0.06865020               -0.24000558
               1.00215400                7.99921202                1.00026530                0.72365619               -0.17221517                0.02287171                0.04022375                0.07522439                0.31438702               -0.08149563
               2.00150434                7.99999604                0.99848332                0.31372804               -0.07709980                0.05292770               -0.88389030                0.06013474                0.88487391               -0.02214499
               3.00061200                8.00010478                1.00011003                0.00010000               -0.06508374                0.02480883               -1.17440692                0.00790921                1.31657106                0.15003767
               4.00020267                8.00004734                1.00000066                0.00010000               -0.02624523                0.00403845               -0.22493646               -0.00679177                1.29752691                0.08328448
               5.00008710                8.00000258                1.00000527                0.00010000               -0.00628644               -0.00041690               -0.11976980               -0.00377691                1.35546066                0.03704141
               6.00007694                7.99998043                0.99999843                0.00010000                0.00289390                0.00003363                0.04149091               -0.00325344                1.34878351                0.00670254
               7.00014498                7.99996540                0.99999084                0.00010000                0.01489045               -0.00104756                0.22612650                0.00065010                1.21584691                0.00458706
               8.00037475                8.00007021                0.99998538                0.14698819                0.03329759               -0.00426220                1.41481309                0.04210782                0.73185705                0.04949301
               9.00081093                8.00081776                0.99992789                0.75584392                0.11646489                0.01380592                0.11984679                0.08623160                0.55845656                0.18621138
              10.00270405                8.00145888                0.99598740                1.00000000                0.18931183                0.01269402               -0.98310608                0.02016998                0.43205787                0.19756151
               0.00392152                8.99732944                1.00693009                1.00000000               -0.20003963               -0.12951808                0.75208775                0.02951612                0.06261006               -0.26323697
               1.00192113                8.99957209                0.99963630                0.88775876               -0.11063724                0.04633111               -0.04934938                0.06063851                0.24870056               -0.04369418
               2.00170878                9.00084404                0.99715297                0.52137408               -0.06138506                0.16882604               -0.85643291                0.02201014                0.84694356               -0.01503381
               3.00069342                9.00050409                0.99975378                0.00010000               -0.07596420                0.07479129               -1.11056975               -0.00351590                1.27618453                0.19529058
               4.00018949                9.00009713                1.00003520                0.00010000               -0.02986181                0.00815488               -0.26676705               -0.00975668                1.27968996                0.16889269
               5.00009619                8.99999161                1.00000293                0.00010000               -0.00605141                0.00115164               -0.14243817               -0.00125714                1.39766165                0.06423293
               6.00006846                8.99998161                0.99999947                0.00010000                0.00020843                0.00013812                0.05875632               -0.00153962                1.39764626                0.00370727
               7.00010036                8.99994391                0.99999622                0.00010000                0.01434200               -0.00224277                0.27952743               -0.00437903                1.23219463               -0.04038906
               8.00035530                8.99992289                0.99995924                0.31152956                0.05438535               -0.01796132                1.48472056                0.03625249                0.77287385               -0.02860713
               9.00118806                9.00089110                1.00080730                1.00000000                0.11491727               -0.03141456                0.25113105                0.07050827                0.50827656                0.14556259
              10.00265365                9.00203085                0.99544317                1.00000000                0.14655869                0.12033944               -0.69152476                0.01751323                0.23860811                0.09759410
               0.00105367                9.99551552                1.00652101                1.00000000               -0.12015018               -0.18139174                0.65360351                0.17552757               -0.16179242               -0.29238206
               0.99985217               10.00013865                0.99922630                1.00000000               -0.00205638                0.05665612               -0.13293005                0.18595619               -0.03426098               -0.00430163
               2.00101254               10.00337256                0.99493326                0.84044701                0.07182124                0.25285212               -0.89033263                0.00347450                0.64155203                0.07797577
               3.00128859               10.00160061                0.99861593                0.37166400               -0.02462650                0.10965180               -1.25229245               -0.09858897                1.25685729                0.31012262
               4.00052001               10.00021044                0.99999917                0.35039586               -0.05555613                0.01133136               -0.32359763               -0.04569768                1.37703417                0.27603039
               5.00017747               10.00002562                0.99999063                0.36425350               -0.02130823                0.00340043               -0.18010339               -0.00323443                1.48224910                0.10695570
               6.00009385                9.99998319                1.00000826                0.39931924               -0.00306751                0.00015761                0.06167723               -0.00271514                1.47138804                0.00430279
               7.00011612                9.99992055                1.00002614                0.46948887                0.00293822               -0.00233624                0.31121692               -0.01203399                1.26843672               -0.10393527
               8.00015261                9.99971098                1.00013372                0.74193359               -0.00014939               -0.02119056                1.58457217               -0.00682320                0.68677274               -0.10782555
               9.00011313               10.00018947                1.00105362                1.00000000                0.03110957               -0.07016258                0.29530432                0.10024135                0.30342778                0.03175988
              10.00077480               10.00386567                0.99426215                1.00000000                0.06616712                0.18348237               -0.55469561                0.17973559               -0.08260374                0.13716206
               0.01042491                0.01699535                2.03562441                1.00000000               -0.43033570               -0.48965058                1.72799153               -0.10097996               -0.25349939                0.23619130
               1.00612155                0.01154163                2.02529092                1.00000000               -0.36148560               -0.35572562                1.26362034               -0.10421375               -0.24656577                0.01258395
               2.00319519                0.00583416                2.01451828                0.95512045               -0.21399272               -0.22990849                0.76582598               -0.09233928               -0.26700099               -0.09689207
               3.00184170                0.00013161                2.00468148                0.49668513                0.09076409               -0.12165777                0.29632897                0.12718552               -0.06904294               -0.11707815
               4.00501048               -0.00204073                1.99916201                0.40682487                0.29737724               -0.08962865               -0.01173012                0.08577540                0.45992201               -0.05391454
               5.00778924               -0.00164719                1.99741949                0.41313126                0.11609728                0.04789627               -0.22510621               -0.00974210                0.78407391               -0.01173799
               6.00733242               -0.00151273                1.99487258                0.48791038               -0.08229088                0.21658624               -0.49898506                0.02068094                0.60547491                0.00998416
               7.00614342               -0.00399215                1.98917196                0.70505902                0.02040383                0.32739478               -0.82452025                0.06700769                0.30804169                0.02743392
               8.00774050               -0.00860059                1.98104813                1.00000000                0.27677559                0.34648089               -1.13220280               -0.05242096                0.08545006                0.00089306
               9.01167893               -0.01345187                1.96933035                1.00000000                0.44969870                0.42511149               -1.52443673               -0.06622607               -0.08836552               -0.08769453
              10.01673447               -0.01811422                1.95691753                1.00000000                0.50555387                0.56922552               -1.99611575               -0.06030494               -0.17635610               -0.11450997
               0.01486883                1.01209884                2.03156114                1.00000000               -0.42088174               -0.45393849                1.65691486               -0.06429006               -0.04115893                0.34645724
               1.01066001                1.00798437                2.02107633                1.00000000               -0.34460069               -0.32682125                1.16884292               -0.07006016                0.02361220                0.06535045
               2.00797681                1.00353507                2.01135716                0.62617866               -0.18045064               -0.21071209                0.69515471               -0.06228885                0.14208379               -0.18863742
               3.00705100                0.99891503                2.00377427                0.00010000               -0.06095903               -0.16315650                0.24969411                0.22736722                0.41394232               -0.22922889
               4.00675763                0.99706298                2.00023214                0.00010000                0.01884117               -0.01005731                0.01941319                0.38186774                0.71154955               -0.19896137
               5.00742782                0.99883177                1.99892130                0.00010000                0.09770393                0.00780065               -0.14136557                0.41510979                0.81722243               -0.11285482
               6.00871171                1.00065313                1.99662421                0.00010000                0.14648037                0.04397741               -0.37200703                0.34219429                0.75397417                0.03073799
               7.01035743                0.99928180                1.99206154                0.20616885                0.16172202                0.22365519               -0.70264085                0.23647246                0.58793801               -0.02198458
               8.01194615                0.99486422                1.98459968                1.00000000                0.27080322                0.33357134               -1.04538085               -0.02846402                0.33170739               -0.03010046
               9.01577349                0.99079924                1.97332305                1.00000000                0.44238119                0.39352933               -1.48139076               -0.03058347                0.16537680               -0.06007399
              10.02079377                0.98757803                1.96214381                1.00000000                0.50202836                0.54100526               -1.89697466               -0.01113425                0.12082138               -0.22284756
               0.01736804                2.00791658                2.02965565                1.00000000               -0.40839257               -0.35565288                1.53205931               -0.09916107                0.02098582                0.39620703
               1.01328412                2.00500521                2.01775518                1.00000000               -0.31746423               -0.25122117                0.99485820               -0.11156891                0.07451856                0.07231317
               2.01101876                2.00161991                2.00601261                0.22096402               -0.02114935               -0.15901839                0.44759099               -0.14919661                0.39160615               -0.30842635
               3.01286113                1.99686848                2.00053163                0.00010000                0.08561668               -0.15253817               -0.00472801                0.27087456                0.91910092               -0.49436348
               4.01273109                1.99775812                1.99971255                0.00010000               -0.01799222                0.07477145               -0.04577779                0.56551962                1.25470977               -0.20875291
               5.01250129                1.99850882                1.99847860                0.00010000                0.04975936               -0.00672776               -0.16789290                0.53220026                1.27436999               -0.18394877
               6.01372628                1.99936681                1.99713804                0.00010000                0.20802461               -0.07063827               -0.34818091                0.50404900                1.18791022               -0.09768739
               7.01666178                2.00048095                1.99249345                0.00010000                0.09637471                0.04275136               -0.42969195                0.29305748                1.02160163                0.17853079
               8.01565377                1.99807084                1.98745393                0.43760928                0.08458371                0.26209082               -0.89612949                0.15407210                0.80280643               -0.13985114
               9.01835345                1.99441871                1.97835001                1.00000000                0.36502175                0.28940395               -1.34992103               -0.13565777                0.43503676                0.15065872
              10.02295421                1.99270588                1.96593209                1.00000000                0.46007559                0.44395013               -1.67972069               -0.06984447                0.19287558               -0.25169552
               0.01870835                3.00498579                2.02824091                1.00000000               -0.39830573               -0.24921393                1.43313032               -0.09781692                0.04505066                0.32012072
               1.01472530                3.00295995                2.01482564                1.00000000               -0.27893736               -0.17442663                0.82521071               -0.10840075                0.09123289                0.03851759
               2.01312961                3.00035470                2.00124485                0.07564307                0.08024932               -0.10593798                0.15364367               -0.15910596                0.43460837               -0.28426827
               3.01633028                2.99586427                1.99450494                0.00010000                0.16490390                0.07260630               -0.37328659                0.13760665                1.40434026               -0.15438225
               4.01642768                2.99855841                1.99921366                0.00010000                0.00664241                0.04243617               -0.14402099                0.44656789                1.86103692               -0.19935155
               5.01646313                2.99869722                1.99834776                0.00010000                0.01964367                0.02871922               -0.19185197                0.38501933                1.63787360               -0.13904975
               6.01682056                2.99924036                1.99722755                0.00010000                0.05257111                0.01192811               -0.26521137                0.37347810                1.69196420               -0.06768428
               7.01751455                3.00013683                1.99695419                0.00010000                0.21346383               -0.01815981               -0.42999545                0.21385771                1.32028195                0.14759213
               8.02108983                3.00010604                1.98766546                0.29929919                0.04553702                0.20115230               -0.54800563                0.00504643                1.08077642                0.38209373
               9.01842529                2.99658732                1.98553129                1.00000000                0.08663585                0.19696922               -1.05977050               -0.20092449                0.75887062                0.19414410
              10.02282255                2.99645703                1.96906039                1.00000000                0.43972579                0.30047881               -1.51202249               -0.07580156               -0.02857084               -0.15015807
               0.01946338                4.00293230                2.02663468                1.00000000               -0.37161905               -0.17878813                1.33561936               -0.08421704                0.08415741                0.21729078
               1.01574719                4.00151667                2.01217777                1.00000000               -0.22655270               -0.12396338                0.67158974               -0.08056782                0.12930003               -0.00125965
               2.01493232                3.99950116                1.99739852                0.05723135                0.08311869               -0.07045229               -0.11223631                0.00736066                0.92811542               -0.29524203
               3.01740956                3.99832061                1.99837674                0.00010000                0.19485911                0.08956374               -0.24659453                0.14831055                1.84993908                0.05564869
               4.01882951                3.99860684                1.99817239                0.00010000                0.10550799                0.01154847               -0.22220059                0.29830904                1.93216991               -0.15859997
               5.01951972                3.99908321                1.99827412                0.00010000                0.04633639                0.03476193               -0.20024235                0.33371737                1.99818156               -0.09411735
               6.01975623                3.99960538                1.99808269                0.00010000                0.02767702                0.02950095               -0.20257270                0.32319148                2.00685507               -0.01639402
               7.02007326                4.00011776                1.99799361                0.00010000               -0.02260124                0.01740432               -0.18298863                0.32393111                2.03005103                0.06137648
               8.01930421                4.00209388                1.99924534                0.29182058               -0.10446467                0.14444296               -0.01445134               -0.24772328                1.36791666                0.86761773
               9.01798397                3.99835810                1.98961379                1.00000000                0.11972727                0.15951571               -0.77826173               -0.22237742                0.43624916                0.08824208
              10.02169875                3.99871546                1.97243938                1.00000000                0.37147864                0.19758915               -1.35977143               -0.07863102               -0.00101396               -0.06561162
               0.01985527                5.00141002                2.02473124                1.00000000               -0.33101828               -0.13599819                1.23075277               -0.07757981                0.12624610                0.12400667
               1.01654509                5.00048068                2.00951775                1.00000000               -0.16911911               -0.08426141                0.52560628               -0.06027174                0.14345852               -0.07111551
               2.01647289                4.99894566                1.99318436                0.09725935                0.18228598               -0.03178838               -0.39521471               -0.01250835                1.09567898               -0.35450989
               3.02019081                4.99765554                1.99609115                0.00010000                0.25791899               -0.01500659               -0.41866188                0.27652736                2.16771717               -0.65894784
               4.02163127                4.99878938                1.99747541                0.00010000                0.09740699                0.03568024               -0.29785621                0.35348857                2.23503752               -0.06556811
               5.02213894                4.99939245                1.99827033                0.00010000                0.03092841                0.03290126               -0.20489582                0.29409356                2.29249879               -0.05710735
               6.02224983                4.99983038                1.99887460                0.00010000               -0.03171389                0.02149595               -0.11452157                0.27703195                2.31569018                0.00786945
               7.02150467                5.00048491                2.00008345                0.00010000               -0.21774029                0.02429066                0.06682175                0.28919939                2.56687434                0.12393485
               8.01789503                5.00299490                2.00804683                0.30294241               -0.20742478                0.06595501                0.45438861               -0.17465762                1.50877781                0.75441716
               9.01735617                4.99977764                1.99270058                1.00000000                0.13200921                0.13226599               -0.54858893               -0.20532131                0.17606005                0.09387673
              10.02053521                5.00040882                1.97477168                1.00000000                0.31790410                0.16524780               -1.25749084               -0.06535886               -0.02012065               -0.10057281
               0.01977046                6.00021234                2.02261439                1.00000000               -0.27643445               -0.10864182                1.12044728               -0.07265859                0.10687136                0.03584238
               1.01700612                5.99983145                2.00630348                0.92498970               -0.11315830               -0.04275605                0.35470385               -0.04811076                0.10643467               -0.12840306
               2.01750730                5.99886539                1.98846295                0.17433372                0.30451353                0.03302100               -0.68059112               -0.01808300                0.75172163               -0.32417251
               3.02309639                5.99802047                1.98382954                0.00010000                0.33275355                0.17064031               -0.97289819                0.21942293                2.30222826               -0.90147738
               4.02416237                5.99932045                1.99704752                0.00010000                0.06321000                0.06955156               -0.42745626                0.29162540                2.93153644               -0.01652755
               5.02436059                5.99974123                1.99818592                0.00010000                0.00210238                0.04106869               -0.21319652                0.22910943                2.52466290               -0.02991542
               6.02420441                6.00003530                1.99967442                0.00010000               -0.08339267                0.01592630               -0.03127500                0.21967014                2.57359864                0.02376682
               7.02269273                6.00060357                2.00186263                0.00010000               -0.38430408               -0.00157304                0.29801582                0.27279093                3.02994848                0.11448755
               8.01651833                6.00341298                2.01604308                0.32793092               -0.31145571               -0.00376579                0.86690575               -0.11042093                1.61910109                0.70729425
               9.01646362                6.00100342                1.99515434                1.00000000                0.13054405                0.11375488               -0.33971815               -0.15483021               -0.11434054                0.16440734
              10.01912921                6.00202041                1.97551385                1.00000000                0.26655932                0.12566003               -1.22095821               -0.05098940               -0.13873557               -0.10276920
               0.01916388                6.99923719                2.02027747                1.00000000               -0.22340612               -0.09784939                1.00737195               -0.04808440                0.06599402               -0.05363108
               1.01692982                6.99962556                2.00316119                0.90821436               -0.06208424               -0.00249449                0.17255668               -0.01189965                0.06477669               -0.10828585
               2.01792220                6.99960608                1.98460088                0.27725248                0.35971915                0.11878874               -0.92889915                0.08941195                0.53127351               -0.17877062
               3.02412420                7.00106835                1.97530225                0.00010000                0.39104106                0.26787089               -1.35256708                0.11460099                2.36664704               -0.26503688
               4.02574302                7.00018041                1.99639151                0.00010000                0.09410415                0.11584545               -0.58174332                0.05192068                3.39145928                0.00720307
               5.02600629                7.00021383                1.99797732                0.00010000                0.00189391                0.05003427               -0.23943884                0.13596769                2.72178894               -0.01192093
               6.02578090                7.00014891                2.00032199                0.00010000               -0.12117447                0.00482097                0.03809733                0.15126543                2.79123760                0.02663843
               7.02358280                7.00045345                2.00337923                0.00010000               -0.52470665               -0.02602121                0.50074498                0.22039629                3.43673524                0.08414994
               8.01528676                7.00291958                2.02323612                0.37084735               -0.39653292               -0.11928607                1.24559840               -0.01094806                1.75490583                0.55541508
               9.01565214                7.00205273                1.99835130                1.00000000                0.10973354                0.07360661               -0.11743166               -0.06470321               -0.37774434                0.27129544
              10.01748143                7.00292202                1.97649624                1.00000000                0.18292954                0.06108843               -1.18152312               -0.04342486               -0.29691465                0.11399816
               0.01803202                7.99825535                2.01772413                1.00000000               -0.16327907               -0.12140634                0.89285274               -0.01358411                0.05733185               -0.13333384
               1.01639923                7.99978156                2.00080448                0.97949790               -0.00896385                0.02697754                0.02101432                0.04035593                0.04626306               -0.05589932
               2.01785275                8.00124116                1.98232219                0.41373711                0.42074217                0.18216541               -1.05230908                0.12477618                0.67595283                0.07573205
               3.02481408                8.00337789                1.97651186                0.00010000                0.41012777                0.21657823               -1.33587551               -0.05432704                2.31244107                0.31989290
               4.02605530                8.00163736                1.99550127                0.00010000                0.11486832                0.15994676               -0.74377118               -0.15171694                3.36799623                0.04723694
               5.02711144                8.00074192                1.99760460                0.00010000                0.04673985                0.05427373               -0.28074861                0.02385171                2.90114239                0.01216105
               6.02699010                8.00013171                2.00082982                0.00010000               -0.13907275               -0.00422961                0.09348706                0.07599818                2.97400482                0.02314779
               7.02432999                8.00008315                2.00452253                0.01662585               -0.61450049               -0.06482669                0.66459531                0.09984360                3.72300884                0.03992568
               8.01470009                8.00102726                2.02829626                0.44909557               -0.45814345               -0.18200282                1.53315648                0.08760184                1.91278627                0.23291836
               9.01516712                8.00247555                2.00239694                1.00000000                0.09110287               -0.01336064                0.12314988                0.06221878               -0.45509063                0.23794995
              10.01652215                8.00324218                1.98033788                1.00000000                0.13550282                0.03775534               -0.99634970               -0.02238751               -0.31763723                0.40253239
               0.01583979                8.99680906                2.01504176                1.00000000               -0.10886624               -0.16424176                0.79154242                0.00168231                0.05484113               -0.14963928
               1.01475113                9.00016511                1.99901301                1.00000000                0.04907974                0.04761970               -0.10480229                0.04718142                0.09470719               -0.02502989
               2.01682138                9.00324939                1.98287134                0.63285126                0.39451710                0.23788949               -1.05195347                0.04117351                0.68821664                0.21489479
               3.02264147                9.00539991                1.97778860                0.00010000                0.42616360                0.25501340               -1.28815955               -0.23064450                2.12183213                0.31219924
               4.02534466                9.00337934                1.99466466                0.00010000                0.26737474                0.19776494               -0.91718407               -0.19949633                3.35044739                0.10411278
               5.02798896                9.00129930                1.99715124                0.00010000                0.13074866                0.07109015               -0.32319502               -0.03952902                3.06884760                0.02929819
               6.02795963                9.00006432                2.00117513                0.00010000               -0.16524211               -0.00316261                0.13411630                0.01298801                3.14779843                0.01731168
               7.02468412                8.99915692                2.00559055                0.04662916               -0.66566159               -0.11108436                0.80670324                0.00642501                3.80497739               -0.00745916
               8.01464640                8.99927952                2.02969441                0.61050623               -0.50012628               -0.17663659                1.61442985                0.03182430                1.91681529                0.00706322
               9.01468160                9.00178552                2.00502262                1.00000000                0.04270119               -0.11664953                0.31176169                0.05853002               -0.33854367                0.06759507
              10.01550042                9.00367712                1.98616950                1.00000000                0.08188254                0.09315500               -0.73412915               -0.04040382               -0.09558778                0.37876617
               0.01135357                9.99497051                2.01307207                1.00000000               -0.04510293               -0.18385460                0.62491015                0.12772111               -0.03134972               -0.11465839
               1.01090254               10.00073395                1.99734140                1.00000000                0.10439253                0.05688361               -0.25141607                0.16656284                0.03681010                0.00228127
               2.01344142               10.00599895                1.98219335                0.88939177                0.45843465                0.27495659               -1.06298365                0.04921377                0.46674619                0.18746260
               3.02007123               10.00847816                1.97495415                0.37658328                0.63622862                0.30782455               -1.34210327               -0.27733877                1.94301026                0.16705701
               4.02616599               10.00559266                1.99352805                0.35224940                0.47823313                0.22133115               -1.02022745               -0.23358881                3.54260666                0.08661107
               5.02963589               10.00216372                1.99639793                0.37210805                0.16131283                0.08644165               -0.35604156               -0.11151682                3.24222652                0.04875149
               6.02939224               10.00006846                2.00123354                0.42589866               -0.21963057                0.00041470                0.15357855               -0.07185136                3.31877207                0.02946366
               7.02524328                9.99786146                2.00622434                0.53329330               -0.83421359               -0.12954574                0.89193727               -0.07278065                3.95090603               -0.00397000
               8.01270797                9.99749453                2.03169144                0.86324705               -0.66515806               -0.17849927                1.69099217               -0.07978742                1.83449998                0.01475701
               9.01194012               10.00014256                2.00590609                1.00000000               -0.03885551               -0.16429605                0.49030715                0.10638991               -0.40803453               -0.03064969
              10.01193086               10.00510528                1.98890609                1.00000000               -0.00092563                0.14281578               -0.48690288                0.13931642               -0.01532950                0.20707557
               0.02094682                0.02385164                3.05290646                1.00000000               -0.44726941               -0.50736015                1.73164543               -0.10995570               -0.21581373                0.25298666
               1.01647413                0.01616012                3.03787314                1.00000000               -0.36463493               -0.36361414                1.25957035               -0.09725608               -0.26053615               -0.00659288
               2.01365412                0.00818198                3.02200483                0.92653409               -0.19772325               -0.22393432                0.77339544               -0.08736996               -0.23344335               -0.12525973
               3.01251966                0.00033746                3.00737639                0.50366723                0.12424507               -0.08387254                0.30255840                0.12401191                0.18214451               -0.12809062
               4.01613903               -0.00329366                2.99962579                0.43648455                0.37342466               -0.13816071                0.09093340                0.11766357                0.78018940               -0.00985396
               5.01998816               -0.00328971                2.99543923                0.44922515                0.20870527               -0.00638337               -0.17977171                0.00223775                0.96720266                0.00617936
               6.02031313               -0.00331923                2.98987926                0.51480011               -0.02676530                0.17063293               -0.50120134                0.04327939                0.87750513                0.04158448
               7.01945285               -0.00614122                2.98264321                0.70635337                0.03660409                0.21952434               -0.72230232                0.07609896                0.53937968                0.03380068
               8.02104521               -0.01179155                2.96972649                1.00000000                0.26669121                0.32115467               -1.13247858               -0.02784549                0.10261718                0.15776409
               9.02478667               -0.01842111                2.95387173                1.00000000                0.44602518                0.43035814               -1.53158454               -0.09541768               -0.08164573                0.00226964
              10.02996572               -0.02481651                2.93757008                1.00000000                0.51790415                0.56536584               -1.92826905               -0.11289064               -0.10612547               -0.13889708
               0.02753879                1.01877804                3.04800612                1.00000000               -0.42023930               -0.47514066                1.63277371               -0.05414899               -0.01224547                0.34431855
               1.02333640                1.01252397                3.03270252                1.00000000               -0.34235189               -0.33812279                1.15178773               -0.04530439                0.02289963                0.00203286
               2.02069175                1.00594264                3.01795247                0.58691635               -0.19193984               -0.20561345                0.66988744               -0.02410146                0.16519014               -0.28752824
               3.01949760                0.99949873                3.00545447                0.00010000               -0.07812557               -0.05317795                0.21547847                0.10190645                0.62820455               -0.32056155
               4.01912924                0.99532473                3.00037693                0.00010000                0.02628595                0.00240272                0.04948822                0.41766509                1.08327733               -0.16254728
               5.02002332                0.99664646                2.99716370                0.00010000                0.15212184                0.00729120               -0.16884678                0.56316794                1.12664308               -0.14473323
               6.02217168                0.99838710                2.99248551                0.00010000                0.22133395                0.03659401               -0.43341369                0.45454105                1.01418870               -0.09051042
               7.02445000                0.99605403                2.98586208                0.22242177                0.23675125                0.23135934               -0.66626835                0.21684954                0.78687203                0.12295458
               8.02690670                0.99141999                2.97532250                1.00000000                0.29474896                0.28300873               -0.94232431                0.02701485                0.38291217                0.17298132
               9.03034498                0.98588247                2.95952268                1.00000000                0.41627554                0.39391894               -1.37435839               -0.04093024                0.09138338                0.04802503
              10.03523221                0.98083714                2.94342781                1.00000000                0.48872360                0.53935098               -1.83592293               -0.04817906                0.06085258               -0.17132948
               0.03237197                2.01434883                3.04506119                1.00000000               -0.39685303               -0.40026319                1.52572591               -0.08049797                0.03773220                0.44558071
               1.02840344                2.00939766                3.02778848                1.00000000               -0.30873185               -0.28136633                1.00107510               -0.07232193                0.06420760                0.01415508
               2.02619734                2.00406971                3.01075156                0.21464963               -0.16138747               -0.16867899                0.48319851               -0.01149770                0.37917598               -0.44856998
               3.02517569                1.99927390                2.99973984                0.00010000                0.05736303               -0.02636421                0.00644306                0.19654189                1.06741343               -0.52072701
               4.02734460                1.99675440                2.99912002                0.00010000                0.15067288                0.10917267               -0.08939852                0.60423918                1.56575793               -0.25103237
               5.02818915                1.99685612                2.99663663                0.00010000                0.13258928                0.03730330               -0.20952250                0.77647492                1.46723645               -0.22358042
               6.02999638                1.99741265                2.99302175                0.00010000                0.12838954               -0.03692864               -0.37706580                0.74557939                1.52866972               -0.12108264
               7.03075694                1.99848597                2.99140573                0.00010000                0.08803404                0.06410160               -0.24611686                0.42322562                1.14084067                0.01565172
               8.03175706                1.99386862                2.98140881                0.42621221                0.18969886                0.21007856               -0.68926105               -0.08507397                0.57503380                0.26762738
               9.03455092                1.98945727                2.96604373                1.00000000                0.36678633                0.31531873               -1.22822909               -0.05978203                0.22779170                0.20492087
              10.03909279                1.98597050                2.94878760                1.00000000                0.45418710                0.47936417               -1.69075846               -0.04885871                0.11898107               -0.20314492
               0.03583117                3.01077278                3.04250882                1.00000000               -0.36620917               -0.31645099                1.40933138               -0.08799347                0.05464717                0.41633954
               1.03216908                3.00689665                3.02305237                1.00000000               -0.26228037               -0.21722379                0.82694295               -0.07641016                0.07427228                0.00500502
               2.03058556                3.00256906                3.00347024                0.07875063               -0.07126613               -0.12072412                0.24903848                0.00122352                0.49906092               -0.41975578
               3.03074376                2.99897145                2.99256719                0.00010000                0.15231220                0.00986839               -0.13969115                0.33432615                1.59553772               -0.09966045
               4.03363181                2.99750819                2.99713139                0.00010000                0.20754059                0.08956246               -0.21877578                0.50451171                2.15412461               -0.23697260
               5.03489457                2.99739253                2.99616293                0.00010000                0.09108038                0.06588555               -0.23431893                0.60762058                1.90175296               -0.17279455
               6.03545341                2.99764852                2.99468934                0.00010000                0.07819851                0.02854822               -0.28341290                0.52731590                1.79336876               -0.05893465
               7.03645854                2.99733606                2.99131063                0.00010000               -0.06097438               -0.02395971               -0.42472053                0.35276799                1.74935611               -0.05451087
               8.03423393                2.99562157                2.98935523                0.30636648                0.02944593                0.14698704               -0.15726653               -0.00933709                1.00228771                0.49793867
               9.03704746                2.99218885                2.97468953                1.00000000                0.34973219                0.26203157               -1.07573977               -0.07405675                0.31380167                0.26017948
              10.04122857                2.99042443                2.95403980                1.00000000                0.41811142                0.39215555               -1.50319033               -0.03814094               -0.00846334               -0.18371609
               0.03836436                4.00801981                3.03990088                1.00000000               -0.32854015               -0.24812048                1.30002292               -0.07938772                0.07176343                0.34176634
               1.03507896                4.00505318                3.01853903                1.00000000               -0.21086767               -0.15532523                0.64548644               -0.05897802                0.09555184               -0.01879108
               2.03414701                4.00165523                2.99702919                0.02890322                0.09220632               -0.05553207                0.00426744                0.04165361                1.05896222               -0.36406924
               3.03692309                3.99947127                2.99519536                0.00010000                0.24333722                0.11886068               -0.29656789                0.29391986                2.14854080                0.07848597
               4.03901375                3.99854564                2.99556516                0.00010000                0.16390702                0.11514082               -0.27496811                0.39256165                2.27054362               -0.15447239
               5.04020123                3.99817383                2.99599756                0.00010000                0.07927074                0.07706758               -0.24473330                0.45648235                2.26967202               -0.11745372
               6.04059917                3.99798361                2.99593920                0.00010000               -0.01809833                0.04422773               -0.22025326                0.45151135                2.26374610               -0.04231916
               7.03983926                3.99800678                2.99629868                0.00010000               -0.19408162                0.05979139               -0.16881886                0.24222596                2.38158891                0.21411251
               8.03671754                3.99680836                2.99984936                0.30556118               -0.07861687                0.12661805               -0.05618180                0.03954046                1.37218826                0.54976862
               9.03826692                3.99469790                2.98138005                1.00000000                0.25706378                0.23017951               -0.84155398               -0.05113140                0.22409923                0.15580106
              10.04185881                3.99381362                2.95894908                1.00000000                0.35918877                0.29959695               -1.33978080               -0.05431933                0.00993617               -0.17397580
               0.04017666                5.00581037                3.03701787                1.00000000               -0.28225666               -0.20484248                1.19316069               -0.05929702                0.07333154                0.24645679
               1.03735410                5.00379014                3.01393913                0.95002723               -0.15880559               -0.10503836                0.46909624               -0.02946822                0.10726411               -0.05874777
               2.03700055                5.00145842                2.99092256                0.01080310                0.11888191                0.00798362               -0.19349601                0.11843631                1.28230585               -0.31276294
               3.03973174                5.00134866                2.99178554                0.00010000                0.28899616                0.16407883               -0.35585691               -0.02506303                2.51930106               -0.47870235
               4.04278048                4.99981100                2.99404922                0.00010000                0.24272552                0.11070455               -0.35045531                0.15429733                2.60008250               -0.14158319
               5.04458625                4.99893388                2.99590562                0.00010000                0.09351082                0.07576112               -0.25475277                0.32540847                2.61910004               -0.07819986
               6.04465069                4.99853308                2.99770408                0.00010000               -0.10539708                0.05099427               -0.12196235                0.34575038                2.69057498                0.00494857
               7.04247831                4.99853189                3.00130122                0.00010000               -0.31585407                0.04642121                0.06311730                0.21219265                2.93120858                0.21534227
               8.03833361                4.99815393                3.00918210                0.31584211               -0.17293648                0.10269085                0.03814307                0.05792210                1.64072677                0.45031457
               9.03901958                4.99679244                2.98694780                1.00000000                0.17885712                0.17549667               -0.59741706               -0.01618443                0.11471316                0.11814889
              10.04191075                4.99641637                2.96286985                1.00000000                0.28911782                0.22266619               -1.16000424               -0.04666095                0.00321453               -0.16300735
               0.04121887                6.00392296                3.03371987                1.00000000               -0.23773212               -0.17809958                1.07848279               -0.04542919                0.05716237                0.14893363
               1.03884155                6.00295242                3.00913012                0.81443772               -0.11308254               -0.06711039                0.31424319               -0.00916164                0.11856345               -0.08292627
               2.03895722                6.00181490                2.98528179                0.01403560               -0.03861547                0.04462064               -0.34111566                0.13415578                1.09884288               -0.24493426
               3.03806924                6.00275284                2.98067958                0.00010000                0.27786325                0.03380985               -0.07755538               -0.23290243                2.76202228               -0.67085324
               4.04451448                6.00075974                2.99145860                0.00010000                0.49590422                0.09478356               -0.52354764               -0.02335082                3.24130506               -0.18877166
               5.04798732                5.99968905                2.99573998                0.00010000                0.17008414                0.07044838               -0.27342791                0.21338107                2.97434876               -0.06525962
               6.04791617                5.99900350                2.99937037                0.00010000               -0.17625283                0.04126182               -0.02907881                0.25573274                3.07608353                0.01422011
               7.04446227                5.99893520                3.00593834                0.00989896               -0.41503689                0.02280343                0.28189724                0.16890440                3.39760451                0.19386163
               8.03961543                5.99886218                3.01737816                0.33319124               -0.23907353                0.03546640                0.13040678                0.07152836                1.86755713                0.38156601
               9.03968080                5.99820783                2.99205103                0.93920713                0.10311528                0.10029273               -0.34630095                0.02111442                0.04137264                0.11476562
              10.04167773                5.99826694                2.96675064                1.00000000                0.19969383                0.14082684               -0.90530945               -0.02441029                0.02275755               -0.10900484
               0.04120917                7.00224837                3.03013299                1.00000000               -0.19302417               -0.16240184                0.96321343               -0.04425731                0.03723983                0.06786651
               1.03927892                7.00244794                3.00449890                0.74879492               -0.06629610               -0.03551006                0.15186506               -0.01289475                0.12774917               -0.05677169
               2.03988324                7.00235083                2.98025905                0.03766576               -0.15750353                0.07126567               -0.53163771               -0.00321420                1.04679753               -0.11417148
               3.03612885                7.00202486                2.97307958                0.00010000                0.27470038                0.06317232                0.01510052               -0.25158226                2.98238733               -0.26262972
               4.04537725                7.00170667                2.98837200                0.00010000                0.72406267                0.09796003               -0.72342296                0.01366769                3.69865401               -0.22034154
               5.05061011                7.00034284                2.99521524                0.00010000                0.25709732                0.06914172               -0.31189967                0.12228572                3.32148353               -0.07136148
               6.05051920                6.99935831                3.00075908                0.00010000               -0.23061981                0.02933757                0.05239526                0.16840269                3.42595865                0.01283739
               7.04599771                6.99898796                3.01000253                0.02347196               -0.50138263               -0.01913030                0.48644564                0.10906909                3.82046596                0.15091730
               8.04049154                6.99886325                3.02490861                0.35742540               -0.29803029               -0.02959461                0.22596144                0.04754873                2.08334509                0.29580488
               9.04003710                6.99879829                2.99720999                0.89817304                0.04063962                0.03488046               -0.14142821                0.01781754               -0.01415958                0.11205703
              10.04130434                6.99923290                2.97110366                1.00000000                0.12672328                0.07846622               -0.66115921               -0.01695478                0.06327973               -0.01872313
               0.03993460                8.00067492                3.02645187                1.00000000               -0.14534025               -0.16298296                0.85764572               -0.04993746                0.05018630                0.01360376
               1.03848120                8.00224222                3.00068559                0.75455982               -0.03092951                0.00433144               -0.02380334               -0.03639749                0.19188930               -0.00186224
               2.03931601                8.00324021                2.97743714                0.09015490               -0.23997266                0.14599756               -0.74208762               -0.07058269                1.29577157                0.05280697
               3.03368175                8.00401629                2.97339252                0.00010000                0.35769187                0.31404635               -0.52700250               -0.26566909                3.05290929                0.03790548
               4.04646985                8.00271894                2.98512524                0.00010000                0.95498255                0.12229663               -0.92626188               -0.02429226                3.78901660               -0.22951997
               5.05278140                8.00107189                2.99439030                0.00010000                0.30846297                0.07207008               -0.35585630                0.06119391                3.66095871               -0.06338591
               6.05263911                7.99959025                3.00186817                0.00010000               -0.28213447                0.02829029                0.12062101                0.07733166                3.73685771                0.01255624
               7.04713871                7.99855259                3.01328275                0.03871973               -0.59415209               -0.04475188                0.67520806                0.01814742                4.13552124                0.10644217
               8.04075607                7.99827029                3.03064851                0.39098431               -0.37356053               -0.10971417                0.36662059               -0.04395791                2.26149443                0.07369527
               9.03966750                7.99890544                3.00239089                0.89232814               -0.01433259               -0.00322227                0.01077632               -0.02645162               -0.00852619                0.08315307
              10.04046942                7.99983626                2.97606040                0.97898136                0.08019175                0.09025298               -0.55846762               -0.04972849                0.08124891                0.05193286
               0.03707583                8.99898872                3.02276094                1.00000000               -0.10901473               -0.17566006                0.75821229               -0.04774442                0.09191115               -0.00813670
               1.03598568                9.00253456                2.99754025                0.81264410               -0.01891563                0.06426417               -0.20214316               -0.03660219                0.29685238                0.02390641
               2.03669752                9.00527078                2.97611391                0.17665994               -0.23244664                0.26187925               -1.03394263               -0.04050390                1.48020762                0.11318308
               3.03133675                9.00830578                2.97399059                0.00010000                0.55691460                0.32971833               -1.46952338               -0.29929105                2.97129342                0.02813570
               4.04783581                9.00415261                2.98169152                0.00010000                1.18129613                0.07484752               -1.07488450               -0.15315119                3.87312887               -0.16360051
               5.05496267                9.00178425                2.99353903                0.00010000                0.33746562                0.07176842               -0.39450431                0.01533091                3.99938318               -0.04069250
               6.05458512                8.99992412                3.00268179                0.00010000               -0.36410266                0.04326888                0.17955031                0.01562227                4.03035884                0.02041339
               7.04768062                8.99809292                3.01613029                0.04252192               -0.76627914                0.00104864                0.82171534               -0.08587582                4.23670508                0.07111940
               8.03925954                8.99666897                3.03224784                0.41759744               -0.48692614               -0.11291147                0.58380008               -0.14771380                2.34838408               -0.12263050
               9.03794210                8.99873385                3.00704254                0.95185256               -0.04057058               -0.05479493                0.21889046               -0.02803547                0.13069971                0.03840571
              10.03844813                9.00103796                2.98076059                0.96881237                0.05060304                0.13488770               -0.56638072               -0.06964860                0.06465937                0.03932271
               0.03188802                9.99716172                3.01901921                1.00000000               -0.04209249               -0.18269947                0.58171013                0.11779658                0.11386156               -0.00640540
               1.03146709               10.00352750                2.99419798                0.92876448                0.04233482                0.09929350               -0.39494422                0.11394491                0.34403091                0.05011816
               2.03273471               10.00847780                2.97367358                0.62090637               -0.13264975                0.32070196               -1.25016982               -0.04212252                1.52763290                0.15715972
               3.02881410               10.01061065                2.97177386                0.36502668                0.85968249                0.23048707               -1.61367738               -0.46536084                3.09000718                0.13386778
               4.04992836               10.00421589                2.97959462                0.35077291                1.42512027                0.00632789               -1.17354129               -0.19591459                4.07702179               -0.17295074
               5.05731650               10.00250725                2.99286979                0.37082725                0.33572595                0.07230073               -0.38974512                0.04737007                4.21440772               -0.02655367
               6.05664288               10.00045563                3.00307983                0.41822940               -0.43200808                0.05315056                0.23106362                0.00909184                4.23654061                0.03674853
               7.04867634                9.99857357                3.01786489                0.51057130               -0.97410096                0.04806496                0.92691382               -0.12260614                4.40689145                0.15241417
               8.03716086                9.99601206                3.03395356                0.70060540               -0.69692722               -0.06569125                0.73756956               -0.24806864                2.46436300               -0.20796671
               9.03473780                9.99780954                3.01085977                1.00000000               -0.13463266               -0.09243012                0.48809214                0.00566804                0.23750673                0.02491797
              10.03446821               10.00253402                2.98452410                0.99049429               -0.02695868                0.14960553               -0.41090709                0.07445566                0.06764372               -0.01065197
               0.03617528                0.03185577                4.07025732                1.00000000               -0.43628199               -0.50252826                1.72014437               -0.10489338               -0.23491078                0.27516766
               1.03181246                0.02175100                4.05048233                1.00000000               -0.35761013               -0.36413109                1.26281938               -0.08518542               -0.26273971               -0.01372464
               2.02902307                0.01143368                4.02998619                0.92101189               -0.19744185               -0.23959015                0.81372268               -0.06630881               -0.23471383               -0.15389357
               3.02786362                0.00141364                4.01073265                0.51661399                0.17641733               -0.12732836                0.37254716                0.17401188                0.30297832               -0.13861444
               4.03255142               -0.00374009                4.00098068                0.47437072                0.45081032               -0.19420988                0.16286375                0.09694366                1.00651138               -0.00822525
               5.03687983               -0.00497254                3.99382406                0.49659894                0.25635633               -0.02877501               -0.14884803               -0.01044515                1.06938623                0.00471098
               6.03767855               -0.00589355                3.98484855                0.55025974                0.01019800                0.15939800               -0.50652350                0.02278979                0.95940284                0.03292179
               7.03708379               -0.00975387                3.97472591                0.72745981                0.04428882                0.27322429               -0.80719536                0.08022007                0.61677071                0.01118922
               8.03856432               -0.01663733                3.95839856                1.00000000                0.25593213                0.32788525               -1.13700644               -0.00977836                0.13128004                0.20191791
               9.04220243               -0.02470838                3.93869866                1.00000000                0.43254686                0.42961120               -1.51054903               -0.06917175               -0.07635999                0.02095990
              10.04721526               -0.03260762                3.91835215                1.00000000                0.50128320                0.55415429               -1.90090956               -0.09139341               -0.12084475               -0.14965233
               0.04523111                1.02683048                4.06421661                1.00000000               -0.40594599               -0.47651368                1.59856491               -0.04743738               -0.00604174                0.38214604
               1.04117165                1.01810969                4.04411208                1.00000000               -0.33512198               -0.34062711                1.13575617               -0.03636322                0.04355239               -0.01240952
               2.03852867                1.00903777                4.02475491                0.57480927               -0.19905118               -0.21514628                0.69415266               -0.01707448                0.21456400               -0.35798397
               3.03719062                1.00014035                4.00808384                0.00010000               -0.09073605               -0.10362101                0.29741338                0.16286763                0.82701904               -0.41221804
               4.03671395                0.99431781                4.00122191                0.00010000                0.03307392               -0.01384437                0.12203589                0.45986962                1.35231942               -0.22726096
               5.03785210                0.99473971                3.99554436                0.00010000                0.17915811                0.00052621               -0.14728593                0.62235427                1.32543411               -0.16048668
               6.04029711                0.99570043                3.98795593                0.00010000                0.27028879                0.03174413               -0.46251044                0.50453489                1.16966487               -0.05356619
               7.04325788                0.99297838                3.97873618                0.23857386                0.28233426                0.25496539               -0.72635436                0.24744161                0.95651390                0.27267839
               8.04594379                0.98664152                3.96575319                1.00000000                0.31189882                0.30139958               -0.98217355                0.02807393                0.45353071                0.23895368
               9.04949585                0.97958774                3.94583588                1.00000000                0.41283870                0.40293278               -1.36831459               -0.01897590                0.09024661                0.06209456
              10.05420057                0.97293393                3.92542535                1.00000000                0.47047136                0.53193027               -1.77246648               -0.03383860                0.05205935               -0.17954037
               0.05266811                2.02232549                4.06017017                1.00000000               -0.37902136               -0.41787967                1.48842369               -0.06454893                0.04034200                0.49448921
               1.04887790                2.01493846                4.03777669                1.00000000               -0.30085970               -0.29000946                0.99369190               -0.05585319                0.07099450               -0.01683004
               2.04665092                2.00713075                4.01567658                0.23382793               -0.15184803               -0.16779090                0.50654977               -0.02649529                0.43802875               -0.57214591
               3.04584094                1.99934122                4.00066049                0.00010000                0.02492690               -0.08624071                0.13156238                0.31207643                1.42423220               -0.78018965
               4.04714946                1.99598302                3.99792458                0.00010000                0.10516738                0.15280039               -0.08187982                0.74486282                1.91737434               -0.38087209
               5.04794429                1.99503798                3.99428815                0.00010000                0.11905605                0.05703409               -0.22138454                0.89232250                1.78055274               -0.27651256
               6.04953058                1.99474133                3.98959673                0.00010000                0.15736201               -0.02781081               -0.36329131                0.87752920                1.85260665               -0.10915183
               7.05109153                1.99534544                3.98757111                0.00010000                0.14929308                0.05876384               -0.44346825                0.46136188                1.45835903                0.13478860
               8.05251644                1.98939066                3.97366871                0.43589017                0.22194893                0.24913703               -0.80884241               -0.00911341                0.59579231                0.43415833
               9.05553051                1.98335028                3.95378543                1.00000000                0.36648345                0.34334299               -1.22574827               -0.04193871                0.22096156                0.22952428
              10.05984611                1.97803099                3.93211692                1.00000000                0.43156033                0.48436528               -1.64161754               -0.04432059                0.11541257               -0.19389876
               0.05871419                3.01847289                4.05642754                1.00000000               -0.34648695               -0.35334572                1.37108173               -0.06862730                0.04793409                0.48695251
               1.05524933                3.01230950                4.03136449                1.00000000               -0.25590957               -0.23421829                0.83101409               -0.05694624                0.06194966               -0.02304875
               2.05359600                3.00568196                4.00622562                0.09531473               -0.03347203               -0.11816535                0.29426772               -0.05448210                0.58271762               -0.55103060
               3.05457988                2.99841554                3.99171111                0.00010000                0.11592172                0.06653816               -0.08263014                0.38476620                2.02084058               -0.39996837
               4.05591444                2.99737382                3.99483814                0.00010000                0.11801764                0.13082722               -0.19401669                0.68767813                2.57834908               -0.28401948
               5.05694024                2.99588039                3.99366138                0.00010000                0.08128996                0.09767285               -0.25028706                0.71826152                2.27290620               -0.20552832
               6.05754024                2.99514421                3.99155929                0.00010000                0.04477757                0.05014598               -0.31168062                0.67363587                2.16205882               -0.06815228
               7.05783579                2.99415365                3.98845978                0.00010000                0.01082244               -0.04680119               -0.34811215                0.45917002                2.05600060               -0.00987203
               8.05775669                2.99162426                3.98452013                0.30552951                0.10904820                0.19358587               -0.52083501                0.07255546                1.30370384                0.74349653
               9.06001675                2.98645460                3.96401650                1.00000000                0.30980271                0.29327811               -1.05924611               -0.05836500                0.23351792                0.29924120
              10.06395274                2.98262123                3.93899659                1.00000000                0.39359870                0.41874494               -1.48789952               -0.03767079               -0.01215376               -0.19003240
               0.06362235                4.01525858                4.05263514                1.00000000               -0.30924365               -0.29763615                1.25358180               -0.06218910                0.05686193                0.43526709
               1.06052991                4.01025409                4.02508750                1.00000000               -0.20835532               -0.17974308                0.66182033               -0.04773920                0.07204587               -0.02854972
               2.05945524                4.00476744                3.99748387                0.03644645                0.06572485               -0.06220791                0.07475870                0.05472405                1.18563964               -0.48485142
               3.06184441                4.00067198                3.99244538                0.00010000                0.19914656                0.20908651               -0.25940179                0.33512018                2.50840366               -0.01814465
               4.06343817                3.99859956                3.99267303                0.00010000                0.13473562                0.13452304               -0.26798101                0.49589269                2.74831932               -0.21846487
               5.06453912                3.99699144                3.99337945                0.00010000                0.06459330                0.11028224               -0.26176438                0.55352697                2.72191876               -0.15539188
               6.06473004                3.99574425                3.99367763                0.00010000               -0.03721188                0.06769856               -0.23821811                0.52717375                2.70948584               -0.01018060
               7.06379488                3.99440942                3.99461723                0.00010000               -0.15317154                0.04992233               -0.21245240                0.41665753                2.87178846                0.26448564
               8.06166661                3.99326238                3.99812171                0.30703345               -0.02143217                0.14240609               -0.24358285                0.10563586                1.63037805                0.77202199
               9.06336624                3.98921584                3.97278271                1.00000000                0.25464090                0.25075160               -0.85853586               -0.04552790                0.10813892                0.20484783
              10.06675942                3.98640589                3.94564376                1.00000000                0.33931861                0.33629352               -1.31503073               -0.04086224                0.00177057               -0.21242665
               0.06747938                5.01252017                4.04859445                1.00000000               -0.26937062               -0.25913432                1.14048417               -0.05700909                0.07021772                0.35946712
               1.06478568                5.00871464                4.01889967                0.94483297               -0.16033926               -0.13204705                0.50271128               -0.03984066                0.09133828               -0.05185387
               2.06427260                5.00443780                3.98931444                0.01501454                0.13322469               -0.00686157               -0.12955457                0.11810398                1.54603554               -0.43601833
               3.06745017                5.00259727                3.98897401                0.00010000                0.26201179                0.13186920               -0.24196463                0.29710486                3.09253399               -0.36866376
               4.06951283                5.00006428                3.99046630                0.00010000                0.17079588                0.13113373               -0.31983043                0.29893304                3.16353202               -0.28201848
               5.07086609                4.99808604                3.99317528                0.00010000                0.05764522                0.10674895               -0.26647178                0.39152918                3.18960474               -0.13483732
               6.07066574                4.99649819                3.99643535                0.00010000               -0.11076360                0.07602234               -0.15159061                0.39318769                3.26778392                0.03677730
               7.06865081                4.99515210                4.00134579                0.00693600               -0.28013799                0.06850377               -0.05411280                0.34081743                3.49184615                0.27830890
               8.06506298                4.99447238                4.00880969                0.31915089               -0.13440643                0.10277103               -0.07068490                0.12038531                1.88668081                0.58947927
               9.06596269                4.99146963                3.98075224                1.00000000                0.18462143                0.19103492               -0.63033716               -0.02864628                0.07197830                0.15250779
              10.06875541                4.98934710                3.95157160                1.00000000                0.27927194                0.26003089               -1.12321937               -0.04096657                0.00712220               -0.22280860
               0.07009322                6.01007589                4.04418405                1.00000000               -0.22777542               -0.23288216                1.03179433               -0.06139977                0.07019442                0.28278387
               1.06781546                6.00761315                4.01258834                0.80386445               -0.10792654               -0.08899907                0.34340376               -0.04363071                0.11829260               -0.08088608
               2.06793469                6.00463021                3.98164064                0.01744748                0.21722809                0.03647535               -0.34031297                0.08505402                1.72571804               -0.41512105
               3.07216003                6.00330937                3.98227844                0.00010000                0.29966891                0.02527725               -0.02706077                0.24004310                3.71523853               -0.53547044
               4.07392807                6.00122224                3.98657657                0.00010000                0.18878831                0.10213319               -0.37373464                0.19423314                3.77013610               -0.36960323
               5.07593579                5.99912642                3.99271736                0.00010000                0.07998311                0.10251248               -0.28262413                0.26126268                3.72054197               -0.14105315
               6.07552773                5.99726470                3.99909285                0.00010000               -0.16493804                0.07048332               -0.06478692                0.27500567                3.78671108                0.04122608
               7.07263703                5.99577949                4.00750057                0.01734004               -0.38854731                0.04876467                0.09500192                0.26224341                4.05384162                0.24273612
               8.06775678                5.99531780                4.01865122                0.33665679               -0.23592186                0.05464722                0.11262364                0.09701365                2.11979393                0.51792227
               9.06791859                5.99303654                3.98822832                0.94067071                0.12141816                0.12421948               -0.40430679               -0.02500437                0.03598790                0.13282796
              10.07018515                5.99160651                3.95740766                1.00000000                0.22665507                0.19453466               -0.94092520               -0.03278948                0.02439812               -0.18765426
               0.07117686                7.00786252                4.03954174                1.00000000               -0.18181239               -0.20882068                0.92448718               -0.06903211                0.04989660                0.22849900
               1.06935874                7.00693466                4.00619849                0.72855988               -0.04497000               -0.04550972                0.15879215               -0.06294669                0.12282322               -0.07006752
               2.07027746                7.00516731                3.97396812                0.04298162                0.31501328                0.09061194               -0.61200291               -0.03526431                1.88185626               -0.34427743
               3.07565901                7.00310282                3.97560426                0.00010000                0.36514884               -0.00421876               -0.04771212                0.14818839                4.24321506               -0.57662127
               4.07758044                7.00210694                3.98192305                0.00010000                0.21949361                0.12526015               -0.47809271                0.19716321                4.31924495               -0.38439470
               5.08004888                7.00013629                3.99173933                0.00010000                0.09661688                0.10119946               -0.31121718                0.17264013                4.24666857               -0.13937489
               6.07951278                6.99790785                4.00136990                0.00010000               -0.21031469                0.05977121                0.01578461                0.16490910                4.28139732                0.03377500
               7.07584258                6.99612739                4.01310814                0.02774011               -0.48832887                0.01523697                0.24724053                0.16402594                4.57014385                0.20529362
               8.06974620                6.99556533                4.02775535                0.35807596               -0.33343458               -0.00779285                0.29790148                0.04458397                2.34536883                0.43023836
               9.06917389                6.99395402                3.99552274                0.90039336                0.06067431                0.06347630               -0.19358166               -0.03307108                0.00693688                0.13853479
              10.07095969                6.99323780                3.96327305                1.00000000                0.17857947                0.15087029               -0.79239748               -0.04047462                0.02395010               -0.13049244
               0.07056831                8.00589948                4.03487705                1.00000000               -0.13165584               -0.18917722                0.81816660               -0.07252579                0.05411796                0.19965933
               1.06925175                8.00670296                4.00032841                0.72056892                0.02464685                0.00980941               -0.05668728               -0.07402801                0.15951924               -0.01911411
               2.07106124                8.00644245                3.96748044                0.09926324                0.44662056                0.20546486               -0.97767959               -0.18901192                1.85121076               -0.19127069
               3.07818416                8.00322499                3.96597181                0.00010000                0.48883082                0.22392356               -0.76376428               -0.09421448                4.58407986               -1.08282322
               4.08083786                8.00372744                3.97697603                0.00010000                0.27017612                0.17655053               -0.65043835                0.18018884                4.89075332               -0.28776921
               5.08358768                8.00115041                3.99048748                0.00010000                0.09984720                0.09348348               -0.34185439                0.08350775                4.73585323               -0.11485169
               6.08283480                7.99846012                4.00324224                0.00010000               -0.26638041                0.06765357                0.08818165                0.06982939                4.73403406                0.03048342
               7.07826007                7.99608423                4.01802669                0.03500640               -0.60064845               -0.00651136                0.40853725                0.03557067                5.01619743                0.15560229
               8.07082184                7.99516194                4.03562867                0.38162960               -0.43376840               -0.10217314                0.53378751               -0.04112679                2.57321413                0.26048182
               9.06958471                7.99430607                4.00261246                0.89442776               -0.00068686                0.00653693                0.00339147               -0.04645452                0.02554526                0.13387184
              10.07080810                7.99462391                3.96916853                0.97200637                0.12233919                0.13810441               -0.67995621               -0.04832495                0.01779704               -0.08773589
               0.06811939                9.00407898                4.03020600                1.00000000               -0.07841809               -0.17868120                0.70985423               -0.05956568                0.09232277                0.15193169
               1.06733521                9.00713085                3.99497015                0.76595722                0.09279030                0.08589440               -0.29370744               -0.04626696                0.24631188                0.00710860
               2.06997519                9.00927660                3.96219249                0.17702780                0.45772600                0.37901703               -1.37682407               -0.20963052                1.40184594               -0.07026323
               3.07648973                9.00758129                3.94839814                0.00010000                0.66418026                0.61819913               -1.96262404               -0.29362405                4.67045221               -0.89186264
               4.08325880                9.00563795                3.97316697                0.00010000                0.52483114                0.12999917               -0.79277398                0.00986511                5.76029672               -0.18356874
               5.08698635                9.00200596                3.98926115                0.00010000                0.13583727                0.09103515               -0.36482717                0.02370634                5.12804142               -0.06560155
               6.08597554                8.99926092                4.00476613                0.00010000               -0.35670848                0.07736128                0.15433242                0.01421845                5.13342142                0.03148142
               7.07985218                8.99599716                4.02202486                0.02937740               -0.76368574                0.06781581                0.53932888               -0.07458747                5.35754016                0.07688629
               8.07070183                8.99352187                4.04137041                0.39494136               -0.55346732               -0.26190982                0.93359432               -0.18669450                2.85391480                0.10440947
               9.06878283                8.99408476                4.00940043                0.94250762               -0.06721645               -0.06498023                0.22274687               -0.04934853                0.14175147                0.09438497
              10.06935750                8.99599988                3.97484189                0.95762264                0.05746669                0.13706608               -0.56450510               -0.05113842                0.01227192               -0.07743248
               0.06327326               10.00232585                4.02470627                1.00000000               -0.01444730               -0.17531254                0.53352241                0.12488637                0.19363419                0.12206211
               1.06312879               10.00842085                3.98944251                0.91263835                0.15724671                0.12899995               -0.51691207                0.16420482                0.37567918                0.01451422
               2.06641819               10.01402279                3.95718995                0.61905873                0.64107728                0.47461889               -1.60339310                0.00270630                1.50259030               -0.01179687
               3.07595033               10.01558897                3.94268060                0.35941694                1.00961507                0.80076857               -2.23296681               -0.43870789                4.90748036               -0.28558548
               4.08661049               10.00632742                3.97005722                0.35132752                0.72442520                0.06894738               -0.89199469               -0.29572346                6.11977853               -0.14335349
               5.09043884               10.00297111                3.98860303                0.37266682                0.12587349                0.09651567               -0.36208127                0.02924490                5.45184672               -0.03024458
               6.08912796               10.00000735                4.00585482                0.41960201               -0.39657264                0.07464261                0.21728909                0.03871378                5.43623259                0.03758697
               7.08250738                9.99744055                4.02476261                0.50793621               -1.00638054                0.14433827                0.65357406               -0.23865992                5.72388110                0.07278058
               8.06900035                9.98992375                4.04644283                0.69662441               -0.81938323               -0.35981201                1.22755868               -0.39185185                3.11756917               -0.04051939
               9.06611972                9.99300646                4.01566793                1.00000000               -0.15226388               -0.10782944                0.46232287                0.10576279                0.28381627                0.06734399
              10.06595508                9.99736523                3.98068795                0.98450020               -0.01646422                0.13653488               -0.36530490                0.09563457                0.07895174               -0.08008690
               0.05579859                0.04143641                5.08730935                1.00000000               -0.43081293               -0.49283036                1.68641667               -0.09818716               -0.26302240                0.31310309
               1.05149046                0.02862612                5.06312952                1.00000000               -0.35445326               -0.36446911                1.26370807               -0.07561895               -0.29056701               -0.01417013
               2.04870953                0.01556667                5.03827928                0.92680686               -0.19528583               -0.24740979                0.83960815               -0.05799078               -0.25331936               -0.18039027
               3.04758474                0.00286279                5.01482733                0.53125185                0.22341596               -0.15362670                0.43759494                0.22325991                0.39500365               -0.16619134
               4.05317784               -0.00394062                5.00288307                0.51196671                0.49616321               -0.22237637                0.20861690                0.07878132                1.12724952               -0.01696788
               5.05750801               -0.00663610                4.99246227                0.54391657                0.27107456               -0.03912664               -0.12916914               -0.01775071                1.07837233                0.00446085
               6.05859934               -0.00887557                4.97974879                0.58584855                0.03651227                0.14431622               -0.50628336                0.01228900                0.95619774                0.02957669
               7.05823825               -0.01393797                4.96649930                0.75116565                0.05493618                0.26003593               -0.82389542                0.07513153                0.63761369                0.02670443
               8.05969806               -0.02246246                4.94698636                1.00000000                0.25338128                0.33913833               -1.14855570                0.00103594                0.13117056                0.23842718
               9.06330588               -0.03227635                4.92366075                1.00000000                0.42718894                0.43139485               -1.50133760               -0.05748721               -0.10130828                0.02712153
              10.06824184               -0.04195596                4.89955189                1.00000000                0.49359583                0.54375266               -1.86161870               -0.08269718               -0.14729250               -0.17467468
               0.06762702                1.03650811                5.07997742                1.00000000               -0.39578713               -0.47043646                1.55304443               -0.04430872               -0.00509009                0.43276168
               1.06366914                1.02498143                5.05541765                1.00000000               -0.33078686               -0.34087360                1.12592875               -0.02945373                0.05341312               -0.01535054
               2.06101128                1.01309257                5.03183552                0.58910454               -0.20490779               -0.22052922                0.71852363               -0.01451583                0.25802570               -0.41189657
               3.05957099                1.00132653                5.01140274                0.00010000               -0.11480873               -0.14099843                0.34886501                0.22853202                0.99750195               -0.46815923
               4.05871510                0.99383561                5.00281765                0.00010000                0.01134930               -0.02693304                0.17996946                0.52663467                1.54140369               -0.29711642
               5.05979797                0.99297264                4.99421798                0.02545237                0.18290289               -0.00775282               -0.12402915                0.66760143                1.40646685               -0.18791634
               6.06237316                0.99256759                4.98323530                0.00959839                0.29925216                0.02509112               -0.46961214                0.54279845                1.24470706               -0.03299944
               7.06578302                0.98866239                4.97133499                0.25829875                0.32522250                0.26980551               -0.74445030                0.29876068                1.04973869                0.33428670
               8.06887761                0.98092892                4.95567903                1.00000000                0.33473680                0.31236601               -1.01824285                0.05678684                0.50827105                0.28917833
               9.07247775                0.97203759                4.93215638                1.00000000                0.41084280                0.40717485               -1.36463788               -0.01156446                0.08691127                0.07110462
              10.07709447                0.96348157                4.90797848                1.00000000                0.46167137                0.52386240               -1.72524298               -0.03079083                0.04669049               -0.20728528
               0.07796578                2.03202768                5.07482967                1.00000000               -0.36488584               -0.42306263                1.44281533               -0.05745781                0.04196398                0.55834392
               1.07431693                2.02180864                5.04766232                1.00000000               -0.29458390               -0.29282821                0.98354689               -0.04653780                0.07443188               -0.02855307
               2.07207411                2.01115608                5.02088256                0.25123329               -0.14522928               -0.16757085                0.53607639               -0.04419012                0.50496058               -0.66822063
               3.07141234                2.00004283                5.00237108                0.00010000               -0.00048386               -0.10696693                0.19108176                0.36708455                1.60657462               -0.90466285
               4.07206443                1.99552072                4.99748242                0.00010000                0.03578583                0.16218659               -0.00258856                0.88497177                2.20392891               -0.50443902
               5.07212806                1.99320885                4.99220894                0.00010000                0.08505606                0.06090095               -0.15983608                0.99695527                2.04818952               -0.33215022
               6.07376555                1.99162626                4.98575592                0.00010000                0.18620429               -0.01815080               -0.43217562                0.98861635                2.14476854               -0.07562754
               7.07585214                1.99145814                4.98253636                0.00010000                0.18465211                0.07150533               -0.52824307                0.54966482                1.64145355                0.21589142
               8.07745859                1.98378486                4.96523197                0.42719604                0.23348983                0.25547886               -0.85946593                0.01413374                0.63234759                0.54797211
               9.08052194                1.97586714                4.94152877                1.00000000                0.36397375                0.35694006               -1.22212627               -0.02499831                0.22244867                0.24937648
              10.08473807                1.96852129                4.91595524                1.00000000                0.42161281                0.48076841               -1.59731782               -0.03804284                0.12025944               -0.21995537
               0.08691594                3.02804686                5.06993046                1.00000000               -0.33059497               -0.37347225                1.32935635               -0.06064447                0.04150663                0.55912028
               1.08360999                3.01912486                5.03967265                1.00000000               -0.25113218               -0.24308167                0.82879348               -0.04757410                0.05299642               -0.03931908
               2.08189330                3.00974115                5.00935559                0.10166247               -0.05309716               -0.11433498                0.32918012               -0.07549311                0.63807985               -0.65965622
               3.08254805                2.99918719                4.99091459                0.00010000                0.06776121                0.09013242               -0.05449818                0.39139275                2.24155448               -0.49572013
               4.08324852                2.99707935                4.99325105                0.00010000                0.05417485                0.15137331               -0.13498287                0.79925535                2.97958228               -0.38124306
               5.08363154                2.99419066                4.99115719                0.00010000                0.03238372                0.11716245               -0.23720849                0.83160902                2.66033215               -0.25011864
               6.08389619                2.99220458                4.98845573                0.00010000                0.04930850                0.06388422               -0.32182843                0.78436961                2.52511423               -0.04372135
               7.08461771                2.99009250                4.98434838                0.00010000                0.04275459               -0.05238335               -0.43976068                0.54063623                2.41143500                0.02437698
               8.08475129                2.98603850                4.97893853                0.29584829                0.13118196                0.20871912               -0.60743353                0.13924649                1.36856762                0.88157092
               9.08724135                2.97917639                4.95350460                1.00000000                0.31370130                0.30959845               -1.04603371               -0.02779243                0.19011837                0.33222838
              10.09102531                2.97309694                4.92428181                1.00000000                0.37839594                0.42343892               -1.45374614               -0.03624304               -0.01249993               -0.20509125
               0.09459689                4.02455824                5.06497251                1.00000000               -0.29257390               -0.32980296                1.21513220               -0.05839112                0.04593767                0.52584015
               1.09167115                4.01694701                5.03177544                1.00000000               -0.20474851               -0.19363195                0.66960374               -0.04189835                0.05839955               -0.03755947
               2.09050192                4.00886938                4.99852437                0.03277426                0.01154272               -0.05799367                0.12401713                0.04260464                1.28422939               -0.58839817
               3.09190200                4.00184547                4.99000732                0.00010000                0.12720769                0.24775704               -0.21320376                0.37806509                2.86951812               -0.04139338
               4.09304607                3.99854818                4.99020554                0.00010000                0.08665014                0.15938715               -0.23257942                0.61539760                3.25657800               -0.27423730
               5.09363501                3.99555210                4.99076228                0.00010000                0.02525154                0.13542832               -0.25633839                0.65667545                3.20823668               -0.18177051
               6.09355110                3.99290394                4.99117484                0.00010000               -0.04020278                0.08244114               -0.26453156                0.63990201                3.19072180                0.00255540
               7.09283095                3.99041047                4.99204963                0.00010000               -0.11957383                0.05611160               -0.28970673                0.51892372                3.32445007                0.34713310
               8.09115962                3.98795924                4.99497770                0.29858556                0.00383497                0.16877514               -0.35441670                0.17790655                1.77287910                0.86154454
               9.09290765                3.98205911                4.96420933                1.00000000                0.25062471                0.26102911               -0.85436485               -0.02566447                0.05092103                0.24962283
              10.09617212                3.97699007                4.93264846                1.00000000                0.32644698                0.35496765               -1.28682920               -0.03744557                0.00009908               -0.22650434
               0.10097057                5.02145080                5.05982755                1.00000000               -0.25096950               -0.29634478                1.10457951               -0.05899298                0.06129276                0.47172792
               1.09846088                5.01525222                5.02399336                0.93220247               -0.15618238               -0.14555671                0.51067550               -0.03949273                0.08610454               -0.05339127
               2.09784692                5.00858128                4.98833147                0.00660646                0.09848353               -0.00052961               -0.07555518                0.10848362                1.79925985               -0.53514360
               3.10043055                5.00414233                4.98694624                0.00010000                0.20014629                0.17838526               -0.19806987                0.36109414                3.54110433               -0.29061371
               4.10184985                5.00026709                4.98765261                0.00010000                0.09893742                0.16813691               -0.26953304                0.45945515                3.67966974               -0.27743609
               5.10240930                4.99689922                4.99057618                0.00010000               -0.00069979                0.13759226               -0.25484963                0.49165968                3.77305133               -0.16033907
               6.10183585                4.99385340                4.99467227                0.00010000               -0.12342042                0.09947655               -0.19509322                0.48157915                3.86057309                0.05577165
               7.09994089                4.99121473                5.00021896                0.00261210               -0.25875379                0.08085515               -0.14536166                0.43551882                4.03082613                0.35304034
               8.09666078                4.98941400                5.00776841                0.31134224               -0.11218285                0.11578621               -0.13487439                0.16530893                2.10059673                0.66752664
               9.09769723                4.98439698                4.97434106                1.00000000                0.18768514                0.20173917               -0.64527576               -0.02406232                0.03555524                0.20256283
              10.10041448                4.98019629                4.94040547                1.00000000                0.27172509                0.29111652               -1.11133376               -0.03832352                0.00281561               -0.24872648
               0.10581418                6.01863134                5.05435576                1.00000000               -0.20633671               -0.26627211                0.99503782               -0.06339527                0.06611144                0.41442332
               1.10375081                6.01403588                5.01599819                0.79018505               -0.10163485               -0.09728531                0.33935435               -0.04622112                0.12551288               -0.08848675
               2.10378148                6.00885879                4.97847553                0.00746895                0.18436319                0.05220982               -0.29708543                0.08224861                2.11741052               -0.54061590
               3.10743808                6.00541318                4.98013837                0.00010000                0.28484000                0.13283635               -0.25912721                0.28299038                4.11001204               -0.47973468
               4.10947828                6.00191092                4.98398391                0.00010000                0.12219056                0.16761150               -0.27380286                0.33339999                4.29557125               -0.35816991
               5.10988189                5.99830394                4.99008750                0.00010000               -0.03055525                0.14430037               -0.24852844                0.33349425                4.38464302               -0.16924428
               6.10886718                5.99489347                4.99807463                0.00010000               -0.19505793                0.10155109               -0.12174066                0.33330555                4.50253761                0.05821762
               7.10598073                5.99202758                5.00783838                0.01218544               -0.37918108                0.06764893                0.00032700                0.32278687                4.67989876                0.31712323
               8.10128356                5.99027496                5.01963064                0.32847010               -0.21683088                0.05382830                0.08008469                0.11949299                2.41689093                0.59035085
               9.10164411                5.98609390                4.98396490                0.94355198                0.12617318                0.13939350               -0.43558830               -0.02508261                0.03931507                0.17469834
              10.10380702                5.98281240                4.94793214                1.00000000                0.21629084                0.23329486               -0.94458236               -0.03473779                0.01344698               -0.24333913
               0.10889360                7.01612536                5.04862273                1.00000000               -0.15845932               -0.23137471                0.87981725               -0.06688072                0.04729125                0.37728349
               1.10730901                7.01330652                5.00767474                0.71276553               -0.03895028               -0.04738012                0.14436046               -0.05912496                0.13046066               -0.09791258
               2.10811459                7.00962548                4.96801900                0.03240416                0.28646092                0.11658210               -0.57302975                0.02039414                2.37091465               -0.53464055
               3.11303823                7.00679906                4.97212534                0.00010000                0.37562477                0.20763857               -0.41735491                0.12117600                4.61097112               -0.71721566
               4.11562709                7.00361932                4.97881014                0.00010000                0.15292038                0.19043563               -0.33280553                0.16385698                4.89199251               -0.43517426
               5.11609663                6.99978523                4.98899089                0.00010000               -0.04243803                0.14745429               -0.25267218                0.18077373                5.02303775               -0.17074471
               6.11477833                6.99588442                5.00107477                0.00010000               -0.25407500                0.09551055               -0.04927295                0.18479394                5.12819061                0.05005469
               7.11101513                6.99256771                5.01494734                0.02017183               -0.48970041                0.03601738                0.15054864                0.18508177                5.29947862                0.27957658
               8.10498432                6.99049057                5.03086664                0.34818631               -0.31784959               -0.02050500                0.30536731                0.04840815                2.72959349                0.51434714
               9.10465814                6.98718485                4.99333836                0.90003918                0.06491965                0.08056476               -0.23001104               -0.03169682                0.04652230                0.16250341
              10.10628271                6.98486219                4.95525571                1.00000000                0.16245730                0.18501536               -0.79471205               -0.03695532                0.00903269               -0.22788296
               0.11011424                8.01400385                5.04281520                1.00000000               -0.10460514               -0.19636150                0.75650948               -0.06653806                0.04507884                0.36147619
               1.10906819                8.01308827                4.99955184                0.70038573                0.02912901                0.01280567               -0.07822022               -0.05984956                0.14453525               -0.07429047
               2.11069682                8.01119043                4.95788355                0.08411169                0.33997800                0.22652644               -0.92069275               -0.01652353                2.30133729               -0.45481383
               3.11586775                8.00956595                4.95811724                0.00010000                0.45362127                0.34803413               -0.67818626               -0.23688551                4.94470715               -1.33773614
               4.11976925                8.00571963                4.97211647                0.00010000                0.26822524                0.18903622               -0.48243641               -0.08806422                5.66971208               -0.44086199
               5.12123226                8.00125303                4.98755321                0.00010000                0.00056638                0.12857172               -0.27197092                0.04558754                5.66878232               -0.13895344
               6.11978058                7.99680368                5.00363181                0.00010000               -0.30780177                0.10283731                0.01955548                0.06032069                5.71709041                0.04281049
               7.11507622                7.99274792                5.02145349                0.02412063               -0.60729991                0.01635062                0.30699555                0.01365954                5.88640425                0.21793035
               8.10763458                7.98986486                5.04132426                0.36914372               -0.42188355               -0.12737832                0.57190447               -0.05323979                3.04774905                0.41510229
               9.10663855                7.98770519                5.00245872                0.89689417                0.00393249                0.01906155               -0.02700048               -0.03523238                0.07215834                0.15770888
              10.10771323                7.98651271                4.96246128                0.96966497                0.10746780                0.15538519               -0.65684630               -0.04285166                0.00697578               -0.22242657
               0.10939399                9.01219813                5.03695802                1.00000000               -0.04685574               -0.17007152                0.62763249               -0.05485095                0.06593364                0.29292448
               1.10892543                9.01356263                4.99166610                0.74026397                0.09562293                0.08923887               -0.32319122               -0.03066577                0.19658732               -0.05631179
               2.11130645                9.01415601                4.94857742                0.14323452                0.24229414                0.35282520               -1.28626307               -0.04756414                1.74462037               -0.29697815
               3.11377131                9.01375974                4.93473811                0.00010000                0.54361415                0.33840311               -0.99304495               -0.42636397                5.19996123               -1.08880106
               4.12217873                9.00740004                4.96583604                0.00010000                0.60765114                0.09243381               -0.67220499               -0.23854090                6.85674036               -0.32371797
               5.12592434                9.00235666                4.98624248                0.00010000                0.11555570                0.09827883               -0.29116614               -0.00676446                6.24057244               -0.07277350
               6.12448984                8.99794117                5.00576844                0.00010000               -0.38485975                0.11131574                0.08090409               -0.00172853                6.23254752                0.03103489
               7.11822714                8.99289472                5.02691687                0.02052491               -0.77637924                0.09028679                0.45808618               -0.12542232                6.43667754                0.11646998
               8.10896226                8.98794300                5.05091972                0.38423442               -0.54607469               -0.24040179                0.90835319               -0.21781442                3.40373307                0.26413402
               9.10730565                8.98756608                5.01149748                0.94537149               -0.05758076               -0.05418820                0.19215783               -0.02213231                0.12472002                0.13941065
              10.10781064                8.98796989                4.96947049                0.95653242                0.05049964                0.13637303               -0.51507228               -0.04491939               -0.00945119               -0.18941557
               0.10628822               10.01060242                5.02968966                1.00000000                0.02087803               -0.15957067                0.45051712                0.11648616                0.24228628                0.24058896
               1.10649700               10.01487305                4.98385974                0.89897624                0.16301068                0.13104226               -0.54628840                0.13938257                0.44061346               -0.05478827
               2.10954843               10.01824694                4.94160572                0.59198545                0.37997181                0.40909328               -1.48061150               -0.10275356                1.98256821               -0.22772270
               3.11409643               10.01633401                4.92711453                0.35660902                0.84265382                0.25742739               -1.20418769               -0.50141934                5.49327751               -0.61085768
               4.12640151               10.00756831                4.96175473                0.35154021                0.82297040                0.01682671               -0.74806426               -0.23349283                7.32289435               -0.26203893
               5.13055584               10.00321860                4.98562817                0.37388081                0.14032210                0.08619395               -0.29472167                0.03623478                6.66816981               -0.03636294
               6.12920795                9.99903000                5.00742562                0.42041460               -0.39949481                0.10888265                0.13463408                0.03856339                6.63869568                0.03665681
               7.12256595                9.99455366                5.03093637                0.50723004               -1.03005086                0.16589403                0.58100907               -0.26477806                6.91997273                0.07222701
               8.10860693                9.98505683                5.05850473                0.69485070               -0.81984675               -0.28861721                1.13214231               -0.43214443                3.80698125                0.21098364
               9.10616901                9.98662143                5.02010622                1.00000000               -0.12998603               -0.09446520                0.41509964                0.09550338                0.32127404                0.13096761
              10.10600721                9.98924017                4.97721800                0.98455492               -0.01617993                0.12702761               -0.32880159                0.08153099                0.09927366               -0.16073159
               0.07927447                0.05278169                6.10398565                1.00000000               -0.42432925               -0.48162901                1.64820124               -0.09159606               -0.30201094                0.35597213
               1.07503118                0.03689136                6.07575649                1.00000000               -0.35077976               -0.36214677                1.25825302               -0.06835315               -0.33274821               -0.01328103
               2.07225888                0.02071339                6.04677835                0.93993944               -0.19356374               -0.25168162                0.85454562               -0.05309646               -0.28415098               -0.19636721
               3.07115991                0.00493900                6.01948455                0.54709627                0.26012966               -0.17055842                0.48218481                0.26676275                0.45114156               -0.19751079
               4.07746147               -0.00394862                6.00515301                0.54779262                0.52108225               -0.22752586                0.23406473                0.05984310                1.17729333               -0.02056160
               5.08158155               -0.00839474                5.99124067                0.58861876                0.26520000               -0.03705408               -0.11762615               -0.01809757                1.04244375                0.00268972
               6.08276547               -0.01227504                5.97472288                0.61929210                0.05084693                0.13083517               -0.49549382                0.00605676                0.91885417                0.02332061
               7.08259849               -0.01889115                5.95824800                0.77282882                0.06304093                0.25182035               -0.82505127                0.07208931                0.62062048                0.02780610
               8.08402629               -0.02925413                5.93542745                1.00000000                0.25061227                0.34336099               -1.15788832                0.01284961                0.10227058                0.26445115
               9.08761074               -0.04115722                5.90867191                1.00000000                0.42304199                0.42990259               -1.49529398               -0.05261797               -0.13783554                0.03000087
              10.09248713               -0.05295428                5.88111978                1.00000000                0.48763946                0.53391495               -1.82993091               -0.07940006               -0.18307588               -0.20576253
               0.09424885                1.04796540                6.09527750                1.00000000               -0.38670449               -0.46211784                1.50880185               -0.04117014               -0.01023916                0.49002796
               1.09038180                1.03326989                6.06663066                1.00000000               -0.32723778               -0.33894824                1.11560502               -0.02431814                0.05528504               -0.01304411
               2.08770409                1.01819657                6.03912538                0.61431209               -0.21116327               -0.22335567                0.73547264               -0.01269920                0.28256894               -0.45288184
               3.08615854                1.00323342                6.01506114                0.00010000               -0.14886574               -0.16014467                0.37659794                0.28961060                1.13456484               -0.51817741
               4.08472678                0.99377612                6.00482129                0.03511585               -0.02973740               -0.02952730                0.20701870                0.59650041                1.68309305               -0.34784960
               5.08556379                0.99123472                5.99306378                0.07814112                0.16737340               -0.00747420               -0.11116532                0.71551075                1.43908542               -0.18233339
               6.08807424                0.98903331                5.97856369                0.04806297                0.31225688                0.01417006               -0.46104662                0.58626968                1.27978515               -0.06083049
               7.09180893                0.98362705                5.96384717                0.27928817                0.36067881                0.27705135               -0.74817032                0.34961198                1.10924244                0.39662139
               8.09528782                0.97417948                5.94538834                1.00000000                0.35628547                0.31723673               -1.03194302                0.08297246                0.53905297                0.32356959
               9.09893464                0.96314181                5.91854313                1.00000000                0.41011881                0.40734038               -1.35649723               -0.00745759                0.08478264                0.07425786
              10.10349020                0.95238487                5.89092049                1.00000000                0.45555612                0.51414163               -1.69121518               -0.03013334                0.04075135               -0.24240109
               0.10784209                2.04353933                6.08902648                1.00000000               -0.35284446               -0.42264763                1.39835548               -0.05213983                0.04028295                0.63120587
               1.10431365                2.03011239                6.05744762                1.00000000               -0.29003641               -0.29299436                0.97348594               -0.03953713                0.07761464               -0.02984518
               2.10204136                2.01624627                6.02639811                0.26653013               -0.14705413               -0.16747737                0.56432032               -0.04823539                0.55826962               -0.75098563
               3.10137256                2.00173611                6.00448213                0.00010000               -0.03255908               -0.11842585                0.22472615                0.42857691                1.77530357               -1.00650414
               4.10139018                1.99546084                5.99787281                0.00010000               -0.03689924                0.16248564                0.10534235                1.01281859                2.46463616               -0.62139135
               5.10063458                1.99145577                5.99109143                0.00010000                0.03541736                0.05449829               -0.00710079                1.09629713                2.17838573               -0.34796318
               6.10209853                1.98800836                5.98095321                0.00010000                0.19049881               -0.00912204               -0.56109937                1.09855937                2.29672805               -0.08244804
               7.10444456                1.98664988                5.97700625                0.00010000                0.20362272                0.07504329               -0.56097667                0.64275071                1.81124309                0.26602568
               8.10617098                1.97709061                5.95647939                0.41816987                0.24058229                0.26652294               -0.88063369                0.05118548                0.66632636                0.62364826
               9.10925620                1.96698959                5.92934291                1.00000000                0.36136826                0.36383969               -1.21304296               -0.01104287                0.23479640                0.26890128
              10.11339835                1.95732855                5.90017056                1.00000000                0.41421471                0.47206626               -1.56367809               -0.03319727                0.12686034               -0.25507583
               0.12005993                3.03951245                6.08301467                1.00000000               -0.31758134               -0.38305252                1.28834143               -0.05558620                0.03662265                0.63798796
               1.11688412                3.02741000                6.04794036                1.00000000               -0.24721336               -0.24650946                0.82352321               -0.04165115                0.04561590               -0.04450767
               2.11511566                3.01484702                6.01280922                0.10704052               -0.06843037               -0.11113366                0.35873335               -0.08392607                0.68550394               -0.75619718
               3.11551551                3.00086490                5.99062115                0.00010000                0.00739098                0.10381750               -0.00313520                0.41799211                2.50004164               -0.60888567
               4.11526348                2.99702584                5.99213848                0.00010000               -0.02866516                0.16262117               -0.08501907                0.89421869                3.33834349               -0.47989737
               5.11494221                2.99232468                5.98891721                0.00010000               -0.02060777                0.12406310               -0.21618354                0.94625028                2.99669447               -0.32391479
               6.11485133                2.98885087                5.98512272                0.00010000                0.03197418                0.07852312               -0.32711393                0.89809107                2.84217539                0.00340845
               7.11558169                2.98512792                5.97966457                0.00010000                0.05602436               -0.05841881               -0.48850689                0.63477685                2.65981791                0.04470409
               8.11597182                2.97950994                5.97237146                0.28678041                0.14470732                0.22863904               -0.67714598                0.20420949                1.48536954                1.01650643
               9.11847584                2.97041860                5.94309582                1.00000000                0.30882590                0.31911268               -1.03493749               -0.01130258                0.19190889                0.36902282
              10.12214833                2.96182619                5.90992167                1.00000000                0.36724962                0.42117979               -1.42208149               -0.03500123               -0.01280093               -0.22732848
               0.13093526                4.03587828                6.07693778                1.00000000               -0.27892101               -0.34704823                1.17738198               -0.05392278                0.03923920                0.61616848
               1.12814605                4.02518220                6.03847957                1.00000000               -0.20136583               -0.19929720                0.66870819               -0.03674759                0.04874330               -0.04069162
               2.12690794                4.01402360                5.99996421                0.03240977               -0.02962276               -0.05316316                0.15972925                0.04097492                1.37635420               -0.68109323
               3.12755359                4.00381246                5.98818131                0.00010000                0.04534170                0.28945243               -0.17736443                0.40626326                3.22488812               -0.04960611
               4.12781478                3.99871326                5.98802144                0.00010000                0.00904798                0.18556761               -0.20605521                0.71686890                3.73201241               -0.31597451
               5.12773455                3.99393703                5.98825268                0.00010000               -0.02788305                0.16146734               -0.24609533                0.76154063                3.67106626               -0.20684970
               6.12725711                3.98957882                5.98838699                0.00010000               -0.06267664                0.09314795               -0.28696053                0.74637789                3.63334432                0.01041315
               7.12648102                3.98548150                5.98882310                0.00010000               -0.11463124                0.06481209               -0.34135555                0.63370377                3.71907271                0.39948716
               8.12496449                3.98166339                5.99103337                0.29057395                0.01164412                0.18300211               -0.41114645                0.24356702                1.93114543                0.99612292
               9.12671390                3.97337184                5.95569541                1.00000000                0.24593287                0.26733585               -0.84757792               -0.01751753                0.02997610                0.29466512
              10.12988315                3.96575214                5.91990718                1.00000000                0.31692451                0.36313519               -1.26296077               -0.03524118               -0.00095555               -0.24216794
               0.14037364                5.03257148                6.07068604                1.00000000               -0.23697865               -0.31545515                1.06545493               -0.05497638                0.05952253                0.57612974
               1.13800385                5.02342406                6.02911318                0.91724323               -0.15343650               -0.15100846                0.51141976               -0.03639121                0.08534457               -0.05871856
               2.13730491                5.01378376                5.98780333                0.00256677                0.04736335                0.00533857               -0.03323426                0.12323378                2.01657829               -0.64070119
               3.13895112                5.00665395                5.98501261                0.00010000                0.10856906                0.23615590               -0.18553742                0.41258647                3.98414811               -0.26631746
               4.13947629                5.00073719                5.98507564                0.00010000                0.01781712                0.20940242               -0.25317766                0.54878297                4.17959116               -0.28171542
               5.13930746                4.99555403                5.98807829                0.00010000               -0.06209321                0.16948945               -0.24957701                0.58900075                4.32210184               -0.16608214
               6.13823442                4.99071383                5.99253348                0.00010000               -0.15681293                0.12238646               -0.22417682                0.57203098                4.40984932                0.07304603
               7.13617120                4.98642416                5.99843856                0.00010000               -0.26408050                0.09560392               -0.19763751                0.53270694                4.54098507                0.40991098
               8.13295281                4.98316998                6.00611220                0.30336842               -0.10672338                0.11815970               -0.18159871                0.21723754                2.32369839                0.77537613
               9.13403673                4.97576532                5.96784673                1.00000000                0.18650482                0.20806825               -0.64948978               -0.01957991                0.01809792                0.25206822
              10.13668291                4.96908889                5.92934493                1.00000000                0.26461768                0.30686648               -1.09807203               -0.03581973               -0.00031762               -0.27412980
               0.14813058                6.02956918                6.06408481                1.00000000               -0.19246334               -0.28113639                0.94920380               -0.05846254                0.06695676                0.52927822
               1.14620595                6.02216203                6.01937543                0.77500046               -0.09939280               -0.10006499                0.33664117               -0.04354824                0.13122276               -0.10766966
               2.14614272                6.01413037                5.97569893                0.00168862                0.13229734                0.06413622               -0.25785981                0.11568993                2.42719297               -0.68735876
               3.14885189                6.00853558                5.97709589                0.00010000                0.18738165                0.20628414               -0.30194419                0.34535507                4.70119555               -0.54978313
               4.14989036                6.00290131                5.98110051                0.00010000                0.03430174                0.22668508               -0.28959811                0.39348476                4.85759184               -0.38380710
               5.14953793                5.99732682                5.98774679                0.00010000               -0.10313767                0.18508278               -0.23693266                0.40313962                5.01690399               -0.17826006
               6.14782760                5.99202655                5.99665803                0.00010000               -0.24294627                0.13189718               -0.15199474                0.39762385                5.15503034                0.07827885
               7.14467900                5.98739358                6.00750711                0.00538491               -0.39297608                0.08398257               -0.05223251                0.39345601                5.30691017                0.37592823
               8.13996808                5.98402658                6.02025291                0.32017703               -0.21378041                0.04943304                0.04771387                0.15669346                2.71243064                0.70044945
               9.14040339                5.97753321                5.97951656                0.94515993                0.12757602                0.14724734               -0.44913854               -0.02292888                0.03153438                0.21930034
              10.14251960                5.97188947                5.93851601                1.00000000                0.21162079                0.25310514               -0.93563540               -0.03323728                0.01360827               -0.29001432
               0.15401868                7.02694875                6.05713809                1.00000000               -0.14469845               -0.23877327                0.82334348               -0.05929885                0.04723909                0.49637819
               1.15257169                7.02142276                6.00908570                0.69722919               -0.03867586               -0.04681224                0.14083062               -0.05070548                0.13334171               -0.13693828
               2.15324516                7.01506648                5.96250753                0.02439224                0.22577941                0.13286879               -0.52663041                0.08683738                2.76011895               -0.74179628
               3.15708728                7.01077963                5.96725717                0.00010000                0.26547879                0.26609583               -0.46616265                0.20989442                5.36565356               -0.84217003
               4.15855473                7.00527089                5.97526694                0.00010000                0.05788638                0.24915007               -0.34906921                0.16909125                5.58035312               -0.53307012
               5.15824501                6.99925568                5.98668588                0.00010000               -0.12172946                0.18964636               -0.23051729                0.19954737                5.76885115               -0.20499973
               6.15612015                6.99335177                6.00038444                0.00010000               -0.31023601                0.12980560               -0.07862495                0.21484270                5.89966757                0.06618568
               7.15204029                6.98810381                6.01611911                0.01258170               -0.50865474                0.05398670                0.09770803                0.22117871                6.05452035                0.34237093
               8.14594705                6.98415865                6.03386270                0.33982048               -0.31625118               -0.03078390                0.28616389                0.07049807                3.10146843                0.64626439
               9.14571526                6.97871027                5.99092252                0.89940936                0.06792909                0.08839604               -0.24926510               -0.02600919                0.04669499                0.19858840
              10.14730563                6.97415100                5.94737881                1.00000000                0.15903689                0.20355652               -0.78056244               -0.03478230                0.01286298               -0.30060968
               0.15799660                8.02479371                6.05000724                1.00000000               -0.09224893               -0.19428744                0.68667975               -0.05663121                0.04032333                0.48132057
               1.15707411                8.02122579                5.99876400                0.68124020                0.02629996                0.01369772               -0.07479627               -0.04650534                0.12864345               -0.13351252
               2.15852260                8.01678775                5.94906659                0.06717589                0.28856343                0.22741904               -0.84138094                0.05910687                2.83992330               -0.70292743
               3.16284538                8.01385749                5.95240809                0.00010000                0.31367674                0.30141709               -0.50581974               -0.13801888                5.96641433               -1.52977623
               4.16479613                8.00788431                5.96732730                0.00010000                0.13013092                0.21272218               -0.42499565               -0.12016215                6.51310991               -0.59101799
               5.16544799                8.00111975                5.98504806                0.00010000               -0.07598998                0.16099206               -0.24228213                0.01793695                6.57583474               -0.19470054
               6.16327633                7.99462266                6.00363335                0.00010000               -0.35761453                0.13680207               -0.00955255                0.05927635                6.62596570                0.05293376
               7.15829570                7.98847331                6.02416660                0.01662042               -0.62523708                0.03699380                0.25052435                0.00912025                6.79333053                0.28356887
               8.15077159                7.98341090                6.04706676                0.36108187               -0.42024223               -0.12672849                0.54767998               -0.04616759                3.49715911                0.58282675
               9.14989086                7.97930113                6.00207245                0.89829296                0.00854525                0.02575993               -0.04907003               -0.02195491                0.06300700                0.19158427
              10.15094249                7.97596060                5.95603160                0.96976332                0.10516353                0.16519273               -0.63201086               -0.03821175                0.00841441               -0.30671223
               0.16002190                9.02306300                6.04275865                1.00000000               -0.03743509               -0.15596803                0.54388481               -0.04751785                0.05294899                0.39437297
               1.15964755                9.02169671                5.98850632                0.71326041                0.08868438                0.08560058               -0.30543528               -0.02486254                0.17210906               -0.11780228
               2.16179559                9.01961486                5.93646723                0.10648089                0.17913938                0.33119986               -1.15813422               -0.02982804                2.46660080               -0.48924952
               3.16323034                9.01680797                5.92853724                0.00010000                0.35468220                0.23807465               -0.35482486               -0.36340169                6.60284845               -1.37557933
               4.16888923                9.00952533                5.95972287                0.00010000                0.43175269                0.06824737               -0.51656245               -0.22869192                7.87884106               -0.42317644
               5.17186539                9.00247553                5.98343783                0.00010000                0.05314389                0.11763661               -0.26088426               -0.03770844                7.31050216               -0.11434017
               6.16995211                8.99608781                6.00638421                0.00010000               -0.42154716                0.14017367                0.05070248               -0.01572452                7.28132077                0.03473523
               7.16343445                8.98884369                6.03118658                0.01634980               -0.78781152                0.11863862                0.39924365               -0.14658611                7.50585454                0.16778462
               8.15419588                8.98162408                6.05953748                0.37708829               -0.53539918               -0.22187559                0.81467850               -0.22098448                3.94069635                0.41346666
               9.15272647                8.97922546                6.01324359                0.94652231               -0.04867169               -0.04464056                0.15826417               -0.01140738                0.10626399                0.17601788
              10.15322245                8.97745485                5.96454044                0.95747860                0.04959815                0.13474894               -0.47967657               -0.03833603               -0.01416113               -0.25818078
               0.15977883               10.02167435                6.03371662                1.00000000                0.02461707               -0.13886524                0.36978961                0.10203705                0.28484934                0.32291352
               1.16002500               10.02293780                5.97851675                0.88453769                0.15179725                0.12410880               -0.51873253                0.12461407                0.50175423               -0.11123645
               2.16281477               10.02341174                5.92757772                0.56747742                0.28209378                0.37968792               -1.35072992               -0.11402254                2.78853048               -0.33286728
               3.16566687               10.01861899                5.91859685                0.35544336                0.58699850                0.18110119               -0.53581736               -0.46447102                7.10565319               -0.81256571
               4.17455474               10.00924926                5.95509594                0.35179559                0.62322366               -0.02760770               -0.55530894               -0.19077446                8.51709977               -0.25687847
               5.17813135               10.00347248                5.98270860                0.37457159                0.10194687                0.09969578               -0.27185744                0.03543924                7.84440473               -0.04631203
               6.17659368                9.99742614                6.00854750                0.42077205               -0.41518133                0.13383229                0.09788203                0.03283669                7.79359184                0.03831784
               7.16982772                9.99084608                6.03638280                0.50748992               -1.03117780                0.20023967                0.50871097               -0.28331022                8.10552579                0.11261544
               8.15597012                9.97897339                6.06908568                0.69323410               -0.79978920               -0.26506820                1.00258631               -0.44446421                4.45807085                0.29308028
               9.15383193                9.97840832                6.02396992                1.00000000               -0.11265619               -0.08171464                0.36138755                0.09465634                0.35623216                0.16574484
              10.15371700                9.97865558                5.97411191                0.98551523               -0.01149360                0.12007312               -0.30180555                0.07418160                0.12412790               -0.21021561
               0.10621670                0.06597216                7.12027337                1.00000000               -0.41739047               -0.47043198                1.61029354               -0.08607823               -0.34453479                0.40004786
               1.10204279                0.04661216                7.08829458                1.00000000               -0.34591264               -0.35827538                1.24694027               -0.06292852               -0.38469053               -0.01041993
               2.09929845                0.02694527                7.05537019                0.95562052               -0.19049394               -0.25300828                0.85962285               -0.04926493               -0.32706681               -0.20338611
               3.09823292                0.00775940                7.02447103                0.56288144                0.28345691               -0.17940027                0.50779229                0.30166202                0.47710290               -0.23256394
               4.10496758               -0.00368841                7.00756436                0.57992994                0.52770505               -0.21527547                0.24182006                0.04127778                1.18169210               -0.01768011
               5.10878702               -0.01022851                6.99010975                0.62779005                0.25007542               -0.02962693               -0.11036290               -0.01509103                0.98298222                0.00336947
               6.10996909               -0.01609077                6.96983891                0.64797067                0.05795419                0.12114262               -0.48205927                0.00405416                0.86168120                0.01525526
               7.10994610               -0.02458019                6.94999828                0.79051812                0.06752338                0.24167556               -0.82293854                0.06948951                0.57830568                0.02932199
               8.11131956               -0.03709522                6.92382859                1.00000000                0.24553669                0.34435920               -1.15780405                0.02238650                0.05987688                0.28209779
               9.11485683               -0.05141877                6.89375487                1.00000000                0.41825104                0.42705244               -1.48656592               -0.05042853               -0.17738236                0.03009670
              10.11968458               -0.06567263                6.86295327                1.00000000                0.48277474                0.52553959               -1.80646289               -0.07836779               -0.21873985               -0.23899237
               0.12471592                1.06126784                7.11015345                1.00000000               -0.37889594               -0.45287648                1.46877229               -0.03822097               -0.01813224                0.54920438
               1.12092696                1.04302941                7.07772975                1.00000000               -0.32418709               -0.33550652                1.10327582               -0.01989338                0.05104653               -0.00769727
               2.11823218                1.02441518                7.04654498                0.64256871               -0.21802920               -0.22463660                0.74463451               -0.00787297                0.29021191               -0.48134348
               3.11656638                1.00596540                7.01893470                0.00010000               -0.19289279               -0.17033374                0.39467970                0.34772235                1.23860037               -0.56565779
               4.11437432                0.99415883                7.00695803                0.07523790               -0.08645443               -0.02679425                0.21397196                0.66450427                1.78854296               -0.33931972
               5.11483729                0.98947522                6.99199468                0.12613987                0.14055758                0.03123315               -0.10496562                0.73950835                1.44843531               -0.07901257
               6.11718547                0.98512065                6.97401437                0.08313685                0.31529671               -0.02454809               -0.44897201                0.60887704                1.29637039               -0.17533601
               7.12114322                0.97783657                6.95637158                0.29868545                0.38886215                0.27707251               -0.74476126                0.39162226                1.14626321                0.44865778
               8.12496272                0.96634837                6.93504017                1.00000000                0.37490156                0.31849636               -1.03274368                0.10720468                0.55811385                0.35047201
               9.12864125                0.95285176                6.90502644                1.00000000                0.40960243                0.40556206               -1.34577714               -0.00478715                0.08343952                0.07533875
              10.13315476                0.93958277                6.87415417                1.00000000                0.45135124                0.50456157               -1.66558307               -0.03012992                0.03662528               -0.28048522
               0.14192915                2.05691463                7.10279677                1.00000000               -0.34315616               -0.41862674                1.35815019               -0.04720648                0.03763895                0.70817952
               1.13849759                2.03990203                7.06713204                1.00000000               -0.28620778               -0.29133246                0.96295046               -0.03306557                0.08144039               -0.02536523
               2.13620500                2.02245253                7.03216896                0.28268781               -0.15269383               -0.16820392                0.58611533               -0.04294464                0.59798043               -0.82314489
               3.13544371                2.00435273                7.00686561                0.00010000               -0.07285708               -0.13275525                0.24932173                0.49882055                1.97198262               -1.09848126
               4.13474785                1.99577570                6.99958927                0.00010000               -0.14141749                0.15869665                0.30791352                1.16942132                2.73505341               -0.69593058
               5.13261536                1.99039615                6.99206692                0.00010000               -0.04812844                0.05379422                0.14270726                1.16932356                2.03935029               -0.35192681
               6.13378529                1.98341826                6.97453394                0.00010000                0.19677336               -0.01408424               -0.63092425                1.16859937                2.23265058               -0.07995854
               7.13655083                1.98096126                6.97131683                0.00010000                0.23315903                0.06665820               -0.57757637                0.76392771                2.03490143                0.29763254
               8.13844847                1.96927470                6.94761929                0.41037762                0.24879315                0.27331370               -0.88518260                0.08979571                0.69748336                0.67911714
               9.14152669                1.95669247                6.91726791                1.00000000                0.35857479                0.36762960               -1.20105750                0.00159829                0.25168115                0.28742984
              10.14561996                1.94441860                6.88468168                1.00000000                0.40932681                0.46154954               -1.53745280               -0.02924495                0.13566783               -0.29329201
               0.15779699                3.05289531                7.09569728                1.00000000               -0.30692443               -0.38522000                1.24969179               -0.05080776                0.03259575                0.71982060
               1.15472775                3.03720276                7.05614312                1.00000000               -0.24372030               -0.24708360                0.81634632               -0.03611051                0.03933591               -0.04419210
               2.15292259                3.02105110                7.01653026                0.11471881               -0.07540660               -0.10995615                0.38278098               -0.08850969                0.73025468               -0.84609035
               3.15321962                3.00331030                6.99085189                0.00010000               -0.06016304                0.10545799                0.04249506                0.45902431                2.73568329               -0.73162735
               4.15171933                2.99733277                6.99155067                0.00010000               -0.13192112                0.17579163               -0.04230825                1.00539468                3.65061162               -0.61146119
               5.15058120                2.99055110                6.98683352                0.00010000               -0.08634891                0.09289394               -0.18432417                1.07908075                3.28598244               -0.47259190
               6.14999235                2.98483897                6.98191345                0.00010000               -0.00079293                0.11415869               -0.32477145                1.02404569                3.10229249                0.10569287
               7.15056534                2.97916973                6.97457824                0.00010000                0.05175351               -0.06675195               -0.51627837                0.74954349                2.85963150                0.04753432
               8.15102742                2.97181464                6.96539561                0.27752220                0.14819916                0.24331237               -0.71082428                0.27481874                1.60496119                1.13189465
               9.15352932                2.96020435                6.93280586                1.00000000                0.30450937                0.32545186               -1.02282213                0.00528946                0.21316238                0.40530963
              10.15711761                2.94881376                6.89584018                1.00000000                0.35882869                0.41524254               -1.39704309               -0.03358323               -0.01320266               -0.25293964
               0.17229810                4.04921023                7.08852015                1.00000000               -0.26785104               -0.35344701                1.13951185               -0.04950030                0.03423293                0.70353368
               1.16961959                4.03496036                7.04514960                1.00000000               -0.19854150               -0.20103821                0.66433747               -0.03170491                0.04127887               -0.04174826
               2.16832727                4.02025341                7.00171895                0.03581888               -0.06385238               -0.05092828                0.18870179                0.04289996                1.44215213               -0.76548159
               3.16834254                4.00646189                6.98646003                0.00010000               -0.03561619                0.32955493               -0.18214565                0.43298529                3.53726519               -0.08236965
               4.16761494                3.99929153                6.98608444                0.00010000               -0.08258811                0.21104702               -0.18302467                0.82244078                4.18549347               -0.36499777
               5.16669078                3.99225403                6.98584037                0.00010000               -0.09836857                0.17661845               -0.23477053                0.86111001                4.09514090               -0.23124750
               6.16564757                3.98570144                6.98543563                0.00010000               -0.10623747                0.11021571               -0.29713059                0.85262053                4.03144156                0.00003652
               7.16456603                3.97962622                6.98522252                0.00010000               -0.13686733                0.07796039               -0.37004189                0.75280241                4.08633820                0.45079317
               8.16291022                3.97414095                6.98675478                0.28236817                0.00336709                0.19436703               -0.43819938                0.31372244                2.09700450                1.12809270
               9.16463337                3.96320151                6.94725777                1.00000000                0.24096271                0.27064239               -0.83921569               -0.00601759                0.02376143                0.33673247
              10.16772948                3.95272345                6.90738925                1.00000000                0.30961099                0.36455502               -1.24194188               -0.03309935               -0.00145437               -0.26110413
               0.18530674                5.04582637                7.08113665                1.00000000               -0.22562604               -0.32226870                1.02486727               -0.05073844                0.05990649                0.66852592
               1.18305048                5.03318200                7.03422175                0.90272437               -0.15138387               -0.15251967                0.50920766               -0.03261364                0.08816396               -0.06758046
               2.18227906                5.02003254                6.98766679                0.00319403               -0.01046385                0.00770053                0.00371484                0.14985042                2.20578339               -0.74175960
               3.18284120                5.00990139                6.98323550                0.00010000                0.00484719                0.28555381               -0.16927663                0.46195156                4.39061995               -0.26140627
               4.18237600                5.00155371                6.98258906                0.00010000               -0.07238539                0.23759736               -0.24288955                0.62731772                4.66130255               -0.29730931
               5.18139349                4.99408347                6.98558464                0.00010000               -0.13517185                0.19385574               -0.24665510                0.67306238                4.83824934               -0.17616594
               6.17967257                4.98704328                6.99018873                0.00010000               -0.21058094                0.14533279               -0.23900624                0.66026806                4.91904729                0.08665715
               7.17718187                4.98072894                6.99626621                0.00010000               -0.29729927                0.11196839               -0.22714811                0.63083644                5.02728528                0.46397822
               8.17372658                4.97570198                7.00413643                0.29550375               -0.11777031                0.11962527               -0.20740525                0.27503779                2.54832319                0.88653639
               9.17482647                4.96561720                6.96135127                1.00000000                0.18425764                0.21013000               -0.64748845               -0.01093987                0.01007271                0.29711022
              10.17741173                4.95610486                6.91844402                1.00000000                0.25852673                0.31273876               -1.08114916               -0.03369422               -0.00164858               -0.29725378
               0.19657207                6.04276486                7.07333983                1.00000000               -0.18109306               -0.28479410                0.90270881               -0.05366836                0.06722949                0.62287773
               1.19476114                6.03190997                7.02273102                0.76112195               -0.09835995               -0.10014112                0.33424295               -0.04007582                0.13718889               -0.13333214
               2.19460488                6.02040742                6.97331834                0.00051044                0.06496289                0.06946779               -0.21844269                0.15647226                2.69793683               -0.82929100
               3.19606040                6.01217296                6.97409948                0.00010000                0.06871723                0.23710340               -0.28305936                0.41933724                5.24431632               -0.63395598
               4.19597922                6.00404348                6.97819195                0.00010000               -0.06989774                0.25887107               -0.28166149                0.46938064                5.44565771               -0.41759753
               5.19466245                5.99613114                6.98534885                0.00010000               -0.18858779                0.21502477               -0.23725599                0.47636404                5.62333036               -0.18972979
               6.19220746                5.98860809                6.99503474                0.00010000               -0.30691963                0.15947709               -0.16721137                0.47001652                5.76868649                0.09640352
               7.18852405                5.98186559                7.00679373                0.00010000               -0.43423708                0.10133484               -0.08168885                0.46853847                5.90832490                0.43443642
               8.18352272                5.97653346                7.02058491                0.31223412               -0.22561791                0.04500097                0.02140359                0.20111106                2.99912113                0.81442292
               9.18401170                5.96740411                6.97498213                0.94748275                0.12787735                0.14917619               -0.45338391               -0.01528841                0.02584043                0.26139850
              10.18608027                5.95897823                6.92921943                1.00000000                0.20685733                0.26147760               -0.92028643               -0.03180544                0.01262949               -0.32446286
               0.20594316                7.04013049                7.06508960                1.00000000               -0.13367567               -0.23775816                0.76947874               -0.05337612                0.04493956                0.58708213
               1.20460640                7.03117917                7.01049135                0.68334305               -0.03988249               -0.04562838                0.14140199               -0.04440119                0.13427039               -0.17945393
               2.20514551                7.02142189                6.95748639                0.01986353                0.14927417                0.13823824               -0.47570386                0.13553106                3.11725402               -0.92856264
               3.20759188                7.01464346                6.96280209                0.00010000                0.13299654                0.27586951               -0.41737355                0.30920760                6.07499963               -0.90502342
               4.20780544                7.00673113                6.97182876                0.00010000               -0.06178619                0.26999331               -0.32526731                0.25763789                6.30571846               -0.58680244
               5.20635616                6.99838397                6.98438055                0.00010000               -0.22334938                0.22379632               -0.22288693                0.26410794                6.48834734               -0.23390394
               6.20333845                6.99023282                6.99950227                0.00010000               -0.38644396                0.16272432               -0.09194293                0.26727767                6.62735903                0.07989173
               7.19862728                6.98275564                7.01690150                0.00691823               -0.55640836                0.07431228                0.06684935                0.26772707                6.77834373                0.40471725
               8.19221028                6.97660200                7.03658992                0.33199794               -0.32756768               -0.03434184                0.25583788                0.09971360                3.45138747                0.77089919
               9.19207593                6.96860072                6.98835306                0.89953443                0.07085529                0.09058496               -0.26029091               -0.01727177                0.04010341                0.23554222
              10.19362739                6.96133441                6.93964447                1.00000000                0.15514617                0.21193018               -0.76348474               -0.03248334                0.01235151               -0.34899668
               0.21340718                8.03800970                7.05654879                1.00000000               -0.08254669               -0.18771393                0.62642468               -0.05050657                0.03446095                0.56906295
               1.21258171                8.03099740                6.99805592                0.66446104                0.02220135                0.01373339               -0.06563640               -0.03924381                0.11736547               -0.19116460
               2.21385121                8.02317219                6.94105593                0.05398373                0.21768035                0.22189931               -0.76325020                0.10774993                3.37241768               -0.91886189
               3.21693532                8.01769035                6.94800084                0.00010000                0.17701334                0.27079637               -0.41975206                0.06259605                6.87154781               -1.37117068
               4.21739147                8.00944335                6.96361656                0.00010000               -0.02462059                0.22183782               -0.33246706               -0.00168801                7.32957938               -0.66486404
               5.21644291                8.00060707                6.98270757                0.00010000               -0.21050628                0.20126786               -0.21461687                0.07680544                7.41685967               -0.23462212
               6.21318135                7.99186258                7.00344076                0.00010000               -0.44667458                0.17444498               -0.02083545                0.08869122                7.48356675                0.06071535
               7.20750942                7.98335184                7.02646398                0.01199553               -0.67547191                0.06392917                0.21511799                0.02738644                7.65003977                0.34587410
               8.19967191                7.97584662                7.05227786                0.35349779               -0.42877818               -0.12042937                0.49497158               -0.03135651                3.91213514                0.71753338
               9.19893385                7.96921581                7.00147732                0.89848960                0.01456558                0.02941239               -0.06799202               -0.01388775                0.05122895                0.22693181
              10.19996322                7.96321683                6.94982106                0.97155309                0.10293685                0.16957770               -0.61191254               -0.03458188                0.00691995               -0.36252174
               0.21895762                9.03637621                7.04783572                1.00000000               -0.02985856               -0.14324682                0.47888024               -0.04334873                0.04059054                0.46848151
               1.21865904                9.03145384                6.98555740                0.69192909                0.08249643                0.08150399               -0.28364468               -0.02135330                0.15358698               -0.17490877
               2.22060755                9.02585988                6.92541474                0.08065913                0.19568033                0.30982103               -1.05489582               -0.00033605                3.35948515               -0.65358986
               3.22257264                9.02005939                6.92764161                0.00010000                0.21237065                0.11365611               -0.06936815               -0.14680173                7.77255740               -1.22944663
               4.22485496                9.01116788                6.95550479                0.00010000                0.14501966                0.11206298               -0.34823896               -0.12048925                8.64172674               -0.47207980
               5.22547303                9.00240932                6.98102480                0.00010000               -0.12437272                0.15718773               -0.21127732                0.00516527                8.28711002               -0.14310584
               6.22236751                8.99372172                7.00678249                0.00010000               -0.51410323                0.18036018                0.03940003               -0.00754334                8.26897142                0.03873110
               7.21519097                8.98403422                7.03490174                0.01486106               -0.83241646                0.15308498                0.35093857               -0.14497231                8.50664211                0.21302828
               8.20571918                8.97419341                7.06721329                0.37161007               -0.53815053               -0.20122972                0.72976658               -0.21679693                4.43140206                0.51304698
               9.20442796                8.96918897                7.01466276                0.94602847               -0.03927369               -0.03660779                0.12718278               -0.00669422                0.09262144                0.20878459
              10.20493371                8.96472596                6.95987696                0.95891568                0.05057457                0.13380437               -0.45866942               -0.03417217               -0.01762393               -0.30480656
               0.22238494               10.03514476                7.03708545                1.00000000                0.02860351               -0.12314482                0.31090156                0.09100387                0.30789681                0.38124946
               1.22267098               10.03262748                6.97348509                0.87390273                0.14269982                0.11736379               -0.48606552                0.11238637                0.54613404               -0.16101620
               2.22523894               10.02936861                6.91459112                0.55170195                0.30101531                0.35087259               -1.24376433               -0.17006128                3.79481086               -0.44185865
               3.22869128               10.01996348                6.91639818                0.35526316                0.36964091               -0.00959128               -0.11959115               -0.27233587                8.44959116               -0.83361024
               4.23263176               10.01168461                6.95064855                0.35212722                0.26505459                0.05167235               -0.37039108               -0.03295331                9.41346456               -0.22542378
               5.23399237               10.00375082                6.98019102                0.37503869               -0.06130847                0.13415010               -0.21791474                0.04119280                8.91393094               -0.05029485
               6.23140559                9.99546978                7.00938326                0.42116521               -0.49270473                0.17480609                0.08172575                0.03694338                8.88436059                0.04940514
               7.22413828                9.98641354                7.04111059                0.50842565               -1.06121814                0.23793166                0.44802122               -0.28765703                9.22147485                0.14495112
               8.21018122                9.97182202                7.07855646                0.69268535               -0.79354294               -0.23713900                0.90224541               -0.45028967                5.04365002                0.35826774
               9.20826742                9.96848365                7.02733397                1.00000000               -0.09877191               -0.07053141                0.31486232                0.08749079                0.38305713                0.19364552
              10.20820579                9.96589292                6.97118189                0.98646409               -0.00616354                0.11669551               -0.28994464                0.06813459                0.14215471               -0.24465242
               0.13634135                0.08102248                8.13619152                1.00000000               -0.41008042               -0.45963997                1.57490037               -0.08175862               -0.38788279                0.44303564
               1.13224055                0.05781263                8.10069529                1.00000000               -0.34001271               -0.35341415                1.23178620               -0.05925332               -0.44200548               -0.00595272
               2.12954110                0.03429610                8.06397081                0.97094628               -0.18663759               -0.25251656                0.85811878               -0.04638406               -0.37875166               -0.20358439
               3.12850780                0.01136039                8.02964039                0.57728383                0.29577479               -0.18347056                0.52195968                0.33168778                0.47803313               -0.26886096
               4.13545659               -0.00308955                8.00998942                0.60718830                0.52294247               -0.19456336                0.24120684                0.02522633                1.16213460               -0.00960796
               5.13896665               -0.01209721                7.98903342                0.66035261                0.23269872               -0.02055025               -0.10571833               -0.01061500                0.91769597                0.00615806
               6.14011057               -0.02032085                7.96508170                0.67133405                0.06041390                0.11524200               -0.47021455                0.00371191                0.79612007                0.00705440
               7.14017492               -0.03105132                7.94178923                0.80405289                0.06783347                0.23329805               -0.81752422                0.06762326                0.52396047                0.02925435
               8.14146724               -0.04603532                7.91227136                1.00000000                0.23817444                0.34335479               -1.15116291                0.03044498                0.01291815                0.29565040
               9.14493841               -0.06309843                7.87894059                1.00000000                0.41241460                0.42339685               -1.47488874               -0.04992951               -0.21602934                0.02893625
              10.14971553               -0.08013593                7.84499052                1.00000000                0.47771171                0.51826836               -1.78723795               -0.07857994               -0.25234662               -0.27174760
               0.15873361                1.07642608                8.12465294                1.00000000               -0.37224075               -0.44316954                1.43353105               -0.03560915               -0.02727539                0.60725264
               1.15501121                1.05427849                8.08869617                1.00000000               -0.32151180               -0.33104591                1.08941774               -0.01627159                0.04279807               -0.00037595
               2.15230338                1.03177093                8.05401807                0.67059580               -0.22468560               -0.22490014                0.74698148               -0.00132525                0.28640548               -0.49974829
               3.15051750                1.00952568                8.02295473                0.01762344               -0.24328619               -0.17555474                0.40640379                0.40390009                1.31623491               -0.61142566
               4.14743766                0.99496482                8.00910073                0.11118077               -0.15206733                0.00195615                0.21235472                0.68024739                1.87184479               -0.19685460
               5.14747615                0.98769729                7.99096447                0.16803451                0.10935448                0.08378006               -0.10184744                0.66885118                1.45312695                0.06751926
               6.14962474                0.98083157                7.96958425                0.11357944                0.31161212               -0.05845186               -0.43779203                0.54877188                1.30784040               -0.28511540
               7.15370839                0.97128166                7.94895195                0.31567616                0.40852475                0.27235933               -0.73829752                0.42244813                1.17389159                0.48887253
               8.15779524                0.95739823                7.92473346                1.00000000                0.38905161                0.31764185               -1.02595906                0.12781068                0.57269955                0.37320958
               9.16148942                0.94113554                7.89162758                1.00000000                0.40859990                0.40285992               -1.33324973               -0.00312271                0.08340657                0.07542236
              10.16596724                0.92504675                7.85760883                1.00000000                0.44778144                0.49563181               -1.64533680               -0.03044770                0.03416913               -0.31903049
               0.17992435                2.07215909                8.11618948                1.00000000               -0.33540834               -0.41203024                1.32278953               -0.04240942                0.03480404                0.78419976
               1.17657027                2.05119172                8.07670663                1.00000000               -0.28284751               -0.28849485                0.95164318               -0.02671713                0.08652162               -0.01800208
               2.17426740                2.02979809                8.03812041                0.29983930               -0.15891793               -0.16978527                0.60052554               -0.03169044                0.62742456               -0.88573482
               3.17339191                2.00784930                8.00946856                0.00010000               -0.16887329               -0.14438772                0.26800121                0.59213744                2.27344364               -1.18142261
               4.17088993                1.99694958                8.00403108                0.00010000               -0.34574934                0.16683124                0.55887922                1.32927639                2.92398927               -0.72674638
               5.16647692                1.98957839                7.99394557                0.00010000               -0.16941484                0.07010536                0.13578063                1.21917325                1.75556995               -0.40525881
               6.16750164                1.97851011                7.96833473                0.00010000                0.27901532               -0.03842686               -0.55144113                1.21725888                2.11326131               -0.02222057
               7.17205723                1.97439586                7.96545472                0.00010000                0.33339651                0.04456249               -0.59460328                0.86955884                2.24048703                0.31998129
               8.17416957                1.96031751                7.93877574                0.40712271                0.25851033                0.28070630               -0.88015976                0.13055478                0.73477947                0.71774394
               9.17722743                1.94495877                7.90532176                1.00000000                0.35572964                0.36996948               -1.18783366                0.01321376                0.27138138                0.30492548
              10.18128416                1.92977670                7.86942151                1.00000000                0.40567260                0.45065431               -1.51673846               -0.02578728                0.14571428               -0.33229623
               0.19982018                3.06818548                8.10800850                1.00000000               -0.29823173               -0.38247531                1.21446284               -0.04585443                0.02952409                0.79921117
               1.19683786                3.04850859                8.06426729                1.00000000               -0.24040946               -0.24615561                0.80810375               -0.03038453                0.03432625               -0.04154736
               2.19501199                3.02837523                8.02046484                0.12459913               -0.08145504               -0.11103280                0.40160684               -0.08487570                0.77036430               -0.93014098
               3.19520876                3.00663793                7.99147105                0.00010000               -0.13589533                0.09660805                0.07589630                0.52338606                2.94026564               -0.86830563
               4.19229408                2.99830145                7.99129232                0.00010000               -0.24548404                0.17126702               -0.01159560                1.18579210                3.95168295               -0.84718888
               5.19029908                2.98909940                7.98523073                0.00010000               -0.15708156                0.04912820               -0.13270942                1.27854206                3.52745307               -0.66766228
               6.18915245                2.98006303                7.97862729                0.00010000               -0.05034582                0.13970794               -0.33348537                1.20378326                3.30954424                0.20959616
               7.18929216                2.97217291                7.96933900                0.00010000                0.03454883               -0.07932344               -0.52512299                0.88903661                3.03927059                0.05726139
               8.18984343                2.96301235                7.95815497                0.26980001                0.15011741                0.25834511               -0.72650395                0.35308920                1.73018931                1.23616725
               9.19229451                2.94853493                7.92263938                1.00000000                0.29861019                0.33011557               -1.01051773                0.01873550                0.25025507                0.43951628
              10.19581563                2.93405984                7.88198080                1.00000000                0.35211204                0.40747571               -1.37683724               -0.03216186               -0.01298754               -0.27967323
               0.21836103                4.06450959                8.09972802                1.00000000               -0.25881997               -0.35315794                1.10349002               -0.04502873                0.03052177                0.78381927
               1.21577283                4.04626860                8.05176632                1.00000000               -0.19602384               -0.20087822                0.65855671               -0.02665076                0.03540417               -0.04238155
               2.21444055                4.02757744                8.00373825                0.04236070               -0.09197089               -0.05130228                0.21288477                0.04538457                1.47018453               -0.84148377
               3.21393341                4.00978146                7.98453839                0.00010000               -0.11481215                0.35742218               -0.20407557                0.47149802                3.81847974               -0.12671456
               4.21214431                4.00037492                7.98436095                0.00010000               -0.18236164                0.21910243               -0.16153881                0.94193038                4.62630092               -0.42084634
               5.21028618                3.99056096                7.98355727                0.00010000               -0.18202578                0.17114161               -0.22011368                0.95515219                4.48465608               -0.27179321
               6.20850379                3.98130427                7.98244438                0.00010000               -0.16987691                0.13924167               -0.29755279                0.95148933                4.39206694               -0.00760961
               7.20688864                3.97280940                7.98142226                0.00010000               -0.18172316                0.09798048               -0.38462637                0.88285939                4.42835653                0.50247532
               8.20486933                3.96548442                7.98226938                0.27487970               -0.01669890                0.20291106               -0.45475123                0.38712398                2.26682875                1.26543245
               9.20655466                3.95156108                7.93891110                1.00000000                0.23608933                0.27241191               -0.82984127                0.00389396                0.02804068                0.37530719
              10.20959112                3.93792622                7.89506834                1.00000000                0.30364545                0.36268988               -1.22337097               -0.03104748               -0.00156390               -0.27992881
               0.23540157                5.06112232                8.09118338                1.00000000               -0.21645756               -0.32179016                0.98590769               -0.04653991                0.06187790                0.74742919
               1.23323699                5.04449103                8.03929734                0.88839377               -0.14973707               -0.15214078                0.50554351               -0.02873731                0.09346362               -0.07865440
               2.23240683                5.02734918                7.98787763                0.00723325               -0.06978759                0.00737557                0.03618336                0.17938925                2.37004168               -0.83431451
               3.23184124                5.01378637                7.98162708                0.00010000               -0.10268199                0.32542057               -0.15617628                0.51327573                4.75839066               -0.23538430
               4.23035319                5.00268349                7.98021785                0.00010000               -0.16842349                0.24673693               -0.22999058                0.70728473                5.11494401               -0.31509873
               5.22847277                4.99252223                7.98314518                0.00010000               -0.22096935                0.20876824               -0.23805774                0.75199677                5.32219247               -0.18692283
               6.22593380                4.98284786                7.98775336                0.00010000               -0.28517841                0.16684060               -0.24301949                0.74314741                5.39399690                0.09999843
               7.22276920                4.97413252                7.99389560                0.00010000               -0.35497898                0.13188102               -0.24143572                0.73146966                5.48960664                0.51941320
               8.21883422                4.96707057                8.00196410                0.28839488               -0.14193056                0.11885695               -0.22306974                0.33717140                2.77116511                0.99778221
               9.21993059                4.95398317                7.95489696                1.00000000                0.18150979                0.20991512               -0.64256147               -0.00129574                0.00821615                0.33909913
              10.22246442                4.94131363                7.90772194                1.00000000                0.25338245                0.31367799               -1.06425428               -0.03163028               -0.00186652               -0.31547957
               0.25069281                6.05807378                8.08213898                1.00000000               -0.17215865               -0.28204409                0.85925199               -0.04917953                0.06748100                0.69739238
               1.24897122                6.04322579                8.02606029                0.74822548               -0.09799071               -0.09911266                0.33174414               -0.03627555                0.14288169               -0.16156195
               2.24873299                6.02772495                7.97133008                0.00247312               -0.00533046                0.07042308               -0.18097399                0.19683794                2.94451345               -0.95912241
               3.24886461                6.01628987                7.97143471                0.00010000               -0.05894236                0.24957161               -0.24937355                0.49941821                5.74898112               -0.69450912
               4.24755415                6.00530966                7.97546729                0.00010000               -0.18514343                0.27133666               -0.26020129                0.55919540                5.99567964               -0.43517229
               5.24516174                5.99473632                7.98300167                0.00010000               -0.28988464                0.23483286               -0.22794287                0.55985482                6.19716629               -0.19177302
               6.24175645                5.98464108                7.99331381                0.00010000               -0.39332096                0.18478617               -0.17148452                0.54616331                6.34506347                0.11802150
               7.23729532                5.97544702                8.00587333                0.00010000               -0.49971734                0.11976944               -0.09712834                0.54853929                6.48131170                0.49314329
               8.23176211                5.96786156                8.02068098                0.30517329               -0.25048186                0.04065538                0.00001237                0.25006946                3.27711578                0.92420467
               9.23228569                5.95575939                7.97044888                0.95052285                0.12677388                0.14713749               -0.45099588               -0.00647954                0.02267746                0.30120423
              10.23429758                5.94419978                7.92011029                1.00000000                0.20118971                0.26279003               -0.89831031               -0.03068947                0.01256746               -0.34739156
               0.26411397                7.05548144                8.07252766                1.00000000               -0.12536533               -0.23224627                0.72143662               -0.04832798                0.04274577                0.65568418
               1.26286032                7.04250878                8.01191374                0.67090975               -0.04172310               -0.04446673                0.14364925               -0.03903664                0.13472775               -0.22149100
               2.26327951                7.02875764                7.95299345                0.01807318                0.06922922                0.13786034               -0.42479604                0.17810297                3.45012399               -1.09132607
               3.26424490                7.01877781                7.95890970                0.00010000               -0.00944332                0.26523416               -0.36578862                0.41018358                6.73795260               -0.93001950
               4.26309064                7.00811023                7.96876160                0.00010000               -0.19532282                0.28006725               -0.28923470                0.37839650                6.97520789               -0.59255979
               5.26033844                6.99721889                7.98222814                0.00010000               -0.34721328                0.25233679               -0.20479467                0.36163036                7.16148081               -0.23657949
               6.25614637                6.98654359                7.99854558                0.00010000               -0.49094639                0.19578339               -0.09376160                0.33719100                7.30674567                0.10116004
               7.25051952                6.97652791                8.01745610                0.00282438               -0.63115662                0.09717691                0.04869617                0.32520807                7.46328309                0.46458851
               8.24352324                6.96788368                8.03897946                0.32497883               -0.35283663               -0.03616794                0.22357009                0.13184289                3.78412870                0.88371773
               9.24346278                6.95692592                7.98571670                0.90042341                0.07233026                0.08853396               -0.26340866               -0.01138470                0.03371386                0.27037054
              10.24496985                6.94656943                7.93210912                1.00000000                0.15070646                0.21389504               -0.74137839               -0.03085746                0.01259714               -0.38215896
               0.27567157                8.05342886                8.06253573                1.00000000               -0.07572848               -0.17927318                0.57548881               -0.04542089                0.03013058                0.63382435
               1.27491428                8.04233645                7.99745128                0.65044216                0.01772279                0.01302923               -0.05467525               -0.03333728                0.10772919               -0.24445962
               2.27602602                8.03048216                7.93380158                0.04505176                0.14007075                0.21251145               -0.69082577                0.14398328                3.85767150               -1.10050831
               3.27771570                8.02159455                7.94401305                0.00010000                0.03274849                0.25219488               -0.39036178                0.23876925                7.72350095               -1.16615751
               4.27668099                8.01091100                7.96067796                0.00010000               -0.18773540                0.24707593               -0.27689826                0.17192268                8.06352317               -0.63996291
               5.27396099                7.99978306                7.98075572                0.00010000               -0.37448699                0.24555338               -0.17840533                0.18185970                8.17328183               -0.23885272
               6.26919125                7.98855675                8.00321664                0.00010000               -0.57507989                0.21881738               -0.01855037                0.14578602                8.27167643                0.07721383
               7.26245939                7.97739055                8.02846896                0.00913034               -0.75951511                0.09648683                0.19097451                0.05992116                8.45278975                0.40032443
               8.25400095                7.96713820                8.05696619                0.34700297               -0.45435761               -0.11386318                0.44678980               -0.01604147                4.30086606                0.82833940
               9.25337224                7.95753006                8.00071261                0.89825489                0.01962274                0.03092899               -0.08324036               -0.01040377                0.03978731                0.25947760
              10.25439341                7.94847768                7.94379335                0.97438259                0.10211666                0.17142301               -0.59592053               -0.03165271                0.00579132               -0.40252093
               0.28539036                9.05189597                8.05233626                1.00000000               -0.02500888               -0.13144939                0.42663448               -0.03936511                0.03103307                0.52317649
               1.28514027                9.04276936                7.98283343                0.67542366                0.07553576                0.07628157               -0.26046317               -0.01801880                0.13693725               -0.22594239
               2.28690107                9.03300787                7.91536931                0.06292060                0.17255848                0.28698239               -0.95734601                0.04121081                4.18310484               -0.79091879
               3.28859144                9.02382170                7.92714988                0.00010000                0.07197555                0.14195494               -0.13814026                0.04647214                8.75981072               -0.96205722
               4.28834059                9.01305175                7.95275809                0.00010000               -0.11307753                0.17711250               -0.25100732                0.03292259                9.25883706               -0.43768378
               5.28632989                9.00212996                7.97921228                0.00010000               -0.34429928                0.21755424               -0.15823672                0.07912289                9.12446978               -0.14955617
               6.28145460                8.99091993                8.00717221                0.00010000               -0.65966992                0.23279787                0.04423127                0.02488785                9.16564516                0.04884035
               7.27313649                8.97845764                8.03820535                0.01461573               -0.91958482                0.19684279                0.31737602               -0.13444492                9.43148509                0.24782505
               8.26306290                8.96560642                8.07413281                0.36779940               -0.56106310               -0.18428936                0.66076595               -0.21471804                4.88498134                0.58989290
               9.26191523                8.95754450                8.01578724                0.94465280               -0.03106666               -0.02956340                0.09944449               -0.00565565                0.08070099                0.23721793
              10.26244157                8.94999789                7.95536706                0.96045534                0.05263411                0.13374997               -0.44686556               -0.03111756               -0.02064837               -0.33851852
               0.29313749               10.05079987                8.03993465                1.00000000                0.03045203               -0.10961046                0.26404189                0.08093458                0.32484854                0.42548113
               1.29344201               10.04386208                7.96879544                0.86595532                0.13302045                0.10927224               -0.45153429                0.10127074                0.57835717               -0.20503558
               2.29579790               10.03622180                7.90270243                0.54110446                0.25796283                0.32139333               -1.13688295               -0.08173930                4.78999208               -0.53106061
               3.29860127               10.02443365                7.91620503                0.35563708                0.16166476                0.06119461               -0.10529875               -0.08744498                9.52879744               -0.56070742
               4.29903119               10.01445325                7.94768811                0.35248157               -0.04630037                0.14015055               -0.27102769                0.05408557               10.08182007               -0.19932803
               5.29767526               10.00413414                7.97835030                0.37536588               -0.28349354                0.20041888               -0.15905174                0.07250976                9.83436998               -0.04209484
               6.29336132                9.99321271                8.01018201                0.42152758               -0.62956236                0.22927719                0.08502562                0.05033564                9.87386424                0.06190015
               7.28508401                9.98132741                8.04534322                0.50952942               -1.13707937                0.28697670                0.40819636               -0.29326271               10.25155781                0.17248830
               8.27061974                9.96345241                8.08713059                0.69271081               -0.81081806               -0.21540067                0.82024393               -0.46374746                5.57700710                0.40150142
               9.26886765                9.95693880                8.03026717                1.00000000               -0.08777343               -0.06057026                0.27421350                0.08025547                0.40453531                0.21684542
              10.26886427                9.95115268                7.96831302                0.98711796               -0.00033839                0.11547823               -0.28735334                0.06365762                0.15586434               -0.27030730
               0.16945150                0.09791004                9.15177138                1.00000000               -0.40281052               -0.44950955                1.54292028               -0.07862280               -0.43023581                0.48362559
               1.16542340                0.07049135                9.11293031                1.00000000               -0.33365940               -0.34808016                1.21478186               -0.05710983               -0.50109852               -0.00024251
               2.16277831                0.04277905                9.07253257                0.98464066               -0.18242112               -0.25084365                0.85275502               -0.04455060               -0.43462233               -0.19970272
               3.16177497                0.01575351                9.03491022                0.58955569                0.30194702               -0.18447920                0.52897455                0.35923100                0.46219282               -0.30503644
               4.16881725               -0.00210321                9.01238850                0.62939800                0.51368408               -0.17167117                0.23855280                0.01237420                1.13059143                0.00168031
               5.17204866               -0.01396745                8.98799538                0.68682127                0.21592136               -0.01190980               -0.10175880               -0.00581401                0.85276577                0.01042052
               6.17313568               -0.02495479                8.96043462                0.69023903                0.05934932                0.11201061               -0.45914118                0.00425796                0.72687696               -0.00036915
               7.17323564               -0.03832054                8.93364779                0.81437431                0.06454398                0.22690574               -0.80919217                0.06603884                0.46447532                0.02906414
               8.17442656               -0.05610641                8.90080534                1.00000000                0.22907237                0.34146010               -1.14034602                0.03677621               -0.03410375                0.30747888
               9.17781709               -0.07621403                8.86425709                1.00000000                0.40556141                0.41930656               -1.46060310               -0.05019653               -0.25286736                0.02706949
              10.18253779               -0.09634420                8.82720851                1.00000000                0.47206997                0.51153695               -1.76908211               -0.07923056               -0.28384696               -0.30354996
               0.19608396                1.09341494                9.13882407                1.00000000               -0.36661657               -0.43334813                1.40295101               -0.03346745               -0.03668674                0.66219310
               1.19241779                1.06701055                9.09951810                1.00000000               -0.31911137               -0.32602409                1.07481620               -0.01353157                0.03204242                0.00803290
               2.18970173                1.04027062                9.06148461                0.69664344               -0.23046879               -0.22439916                0.74414741                0.00557062                0.27563188               -0.51038066
               3.18780841                1.01390872                9.02706277                0.03813684               -0.29501245               -0.17727789                0.41257658                0.45682067                1.37481430               -0.65429374
               4.18380148                0.99618008                9.01120512                0.14257606               -0.21960527                0.05761986                0.20825349                0.59690516                1.94226469                0.06115593
               5.18341631                0.98591345                8.98995773                0.20410901                0.07766612                0.09960828               -0.09939185                0.56798423                1.45907047                0.16160623
               6.18535480                0.97616531                8.96525853                0.13981670                0.30277658               -0.05571968               -0.42757125                0.47203749                1.31788168               -0.33173260
               7.18947184                0.96394852                8.94160563                0.33076104                0.41931337                0.26471852               -0.73001927                0.44133984                1.19809147                0.51646895
               8.19374107                0.94730819                8.91452099                1.00000000                0.39810881                0.31572446               -1.01528622                0.14404892                0.58693336                0.39424426
               9.19743402                0.92797904                8.87836145                1.00000000                0.40672925                0.39966065               -1.31942519               -0.00227771                0.08461341                0.07506656
              10.20187565                0.90877117                8.84124744                1.00000000                0.44416378                0.48724506               -1.62755701               -0.03093882                0.03309311               -0.35719986
               0.22159093                2.08924307                9.12925257                1.00000000               -0.32938391               -0.40369734                1.29202859               -0.03792310                0.03238732                0.85598985
               1.21829709                2.06397087                9.08616490                1.00000000               -0.27996855               -0.28492138                0.93989431               -0.02059307                0.09282343               -0.00947778
               2.21599156                2.03829107                9.04417947                0.31741333               -0.16475835               -0.17200833                0.60830813               -0.01692664                0.64947717               -0.93939403
               3.21500192                2.01220795                9.01222563                0.00010000               -0.36204641               -0.15171847                0.28080032                0.70735801                2.66496954               -1.25601896
               4.20875063                1.99904919                9.01076686                0.00010000               -0.57894069                0.19395186                0.66222092                1.45042929                3.04535331               -0.78371473
               5.20342311                1.98802471                8.99478254                0.00010000               -0.21046361                0.08363530                0.04114830                1.26302988                1.52881068               -0.46048149
               6.20454136                1.97393081                8.96350511                0.00010000                0.37482274               -0.06220370               -0.44808209                1.28346431                2.13468262                0.03386848
               7.21091956                1.96697384                8.95942476                0.00010000                0.43678329                0.01994490               -0.60830167                0.93142466                2.37898878                0.33964756
               8.21327702                1.95020808                8.93001610                0.40853982                0.26944937                0.28680760               -0.87046138                0.16975524                0.78297268                0.74869108
               9.21630855                1.93177919                8.89351124                1.00000000                0.35288615                0.37131472               -1.17428331                0.02335991                0.29253606                0.32152736
              10.22033475                1.91340070                8.85434691                1.00000000                0.40261952                0.44011449               -1.49935983               -0.02288056                0.15661154               -0.37102664
               0.24586990                3.08534099                9.11998654                1.00000000               -0.29119633               -0.37656684                1.18313647               -0.04083678                0.02753172                0.87271067
               1.24295793                3.06131212                9.07230519                1.00000000               -0.23718917               -0.24440939                0.79927311               -0.02450964                0.03080453               -0.03832095
               2.24112611                3.03683045                9.02456239                0.13605370               -0.08802395               -0.11400603                0.41561990               -0.07352240                0.80524839               -1.00783553
               3.24119745                3.01087435                8.99236981                0.00010000               -0.20664022                0.07818062                0.09993658                0.61580902                3.12702360               -1.02458351
               4.23699331                3.00005912                8.99131876                0.00010000               -0.37010853                0.14499425                0.01821179                1.45416272                4.25831235               -1.19507781
               5.23379528                2.98758615                8.98417933                0.00010000               -0.24591719                0.04394991               -0.09879165                1.48697362                3.73375036               -0.83219008
               6.23207496                2.97492124                8.97524374                0.00010000               -0.09861065                0.12461827               -0.33453635                1.39219136                3.47591512                0.27387125
               7.23182307                2.96434742                8.96407578                0.00010000                0.01279294               -0.09273536               -0.52363317                1.02558462                3.22413195                0.08639092
               8.23233082                2.95304434                8.95086553                0.26426523                0.14427583                0.27161986               -0.72314270                0.42694272                1.85478004                1.32543641
               9.23470859                2.93540533                8.91259550                1.00000000                0.29220921                0.33354445               -0.99863813                0.03078997                0.29392466                0.47152489
              10.23817501                2.91757346                8.86830343                1.00000000                0.34664207                0.39915173               -1.36013359               -0.03073857               -0.01215200               -0.30570460
               0.26883193                4.08171174                9.11058995                1.00000000               -0.25144897               -0.34885012                1.07074239               -0.04058043                0.02796196                0.85507396
               1.26631744                4.05908268                9.05832073                1.00000000               -0.19365238               -0.19985908                0.65212603               -0.02166084                0.03091989               -0.04347809
               2.26495888                4.03601095                9.00597665                0.05109115               -0.11140034               -0.05380145                0.23259487                0.04564585                1.46245599               -0.90920710
               3.26408943                4.01377157                8.98237852                0.00010000               -0.19184012                0.37115227               -0.22272478                0.52047306                4.07612248               -0.17896709
               4.26112208                4.00194907                8.98285366                0.00010000               -0.28944869                0.20431373               -0.14190495                1.06478078                5.06278230               -0.48918710
               5.25830046                3.98890371                8.98143810                0.00010000               -0.27490811                0.16572305               -0.20326614                1.04903263                4.84293820               -0.33421784
               6.25562392                3.97642318                8.97948458                0.00010000               -0.24961530                0.16262941               -0.29271350                1.04712710                4.72118854               -0.00469577
               7.25330815                3.96511913                8.97753000                0.00010000               -0.24329770                0.11593555               -0.38921243                1.00787466                4.75027012                0.55958593
               8.25075796                3.95564047                8.97765975                0.26836225               -0.04564631                0.21008442               -0.46364821                0.45743234                2.43850486                1.39483157
               9.25239523                3.93845007                8.93066095                1.00000000                0.23128762                0.27280315               -0.82040835                0.01338111                0.04011023                0.41071708
              10.25538372                3.92138374                8.88292183                1.00000000                0.29884890                0.35899283               -1.20727618               -0.02916230               -0.00108741               -0.29718851
               0.29031639                5.07836399                9.10085481                1.00000000               -0.20908878               -0.31716525                0.95040712               -0.04254688                0.06512518                0.81358534
               1.28822550                5.05731494                9.04433262                0.87452952               -0.14831226               -0.15101798                0.50134619               -0.02496638                0.10077144               -0.09141883
               2.28735015                5.03575442                8.98839045                0.01354987               -0.12783576                0.00491011                0.06389136                0.20721473                2.50910802               -0.91796177
               3.28566879                5.01829740                8.98011197                0.00010000               -0.20966828                0.36143007               -0.15513171                0.56021763                5.09219052               -0.18023793
               4.28315678                5.00414539                8.97798925                0.00010000               -0.26834783                0.24236090               -0.21636498                0.79034921                5.54532312               -0.32968713
               5.28030183                4.99090062                8.98082349                0.00010000               -0.31773463                0.21545067               -0.22511005                0.82436120                5.77562156               -0.19627373
               6.27680209                4.97817383                8.98532834                0.00010000               -0.37692820                0.18765634               -0.23903032                0.81893339                5.83780331                0.11698499
               7.27276327                4.96666613                8.99143750                0.00010000               -0.43267827                0.15244135               -0.24664597                0.82735793                5.92972533                0.57803690
               8.26814852                4.95724603                8.99967504                0.28196108               -0.17651622                0.11808590               -0.23329571                0.39633967                2.99008511                1.10290086
               9.26923294                4.94086140                8.94850004                1.00000000                0.17879560                0.20791879               -0.63596886                0.00740027                0.00979618                0.37879833
              10.27172444                4.92475332                8.89715894                1.00000000                0.24914912                0.31297414               -1.04832931               -0.02955340               -0.00259319               -0.32596993
               0.31007909                6.07536843                9.09052487                1.00000000               -0.16514049               -0.27582845                0.82049837               -0.04513446                0.06769317                0.75635668
               1.30842768                6.05606232                9.02936590                0.73623884               -0.09791825               -0.09782899                0.32948542               -0.03248100                0.14856860               -0.19077307
               2.30812072                6.03610915                8.96969886                0.00647071               -0.07624347                0.06847230               -0.14753373                0.23698636                3.17101457               -1.07690111
               3.30690282                6.02100017                8.96911201                0.00010000               -0.18974389                0.25836682               -0.21950416                0.58005716                6.21355863               -0.72606595
               4.30432585                6.00679629                8.97298792                0.00010000               -0.30717822                0.27619304               -0.23793241                0.65234605                6.50544219               -0.43240200
               5.30075925                5.99321272                8.98078999                0.00010000               -0.40443878                0.24988551               -0.21336188                0.64399856                6.73161992               -0.18171162
               6.29623707                5.98017630                8.99160505                0.00010000               -0.49880695                0.20896832               -0.16736026                0.61992745                6.88581948                0.14654468
               7.29078311                5.96816795                9.00485116                0.00010000               -0.58737887                0.13928232               -0.10404602                0.62608418                7.02434384                0.55271067
               8.28448949                5.95800219                9.02058516                0.29881465               -0.28735841                0.03725590               -0.01640433                0.29621135                3.54557553                1.02334557
               9.28503594                5.94260845                8.96596221                0.94222908                0.12596556                0.14415000               -0.44903855                0.00143139                0.02518376                0.33993279
              10.28700880                5.92764322                8.91125322                1.00000000                0.19728613                0.26274240               -0.88014078               -0.02801980                0.01810245               -0.35996379
               0.32802592                7.07284742                9.07951834                1.00000000               -0.11907511               -0.22454203                0.68003197               -0.04392507                0.04069064                0.70763862
               1.32683517                7.05535836                9.01336434                0.65987377               -0.04369431               -0.04369045                0.14667514               -0.03403966                0.13523795               -0.26139109
               2.32715203                7.03712387                8.94899047                0.01847603               -0.01261874                0.13385042               -0.37863234                0.22142569                3.75840693               -1.23285280
               3.32658279                7.02346473                8.95548631                0.00010000               -0.15804412                0.25634281               -0.32513232                0.50857652                7.34997984               -0.94054338
               4.32399115                7.00966925                8.96604407                0.00010000               -0.33904996                0.29256514               -0.25924452                0.50135031                7.59002392               -0.57132730
               5.31980179                6.99589833                8.98028466                0.00010000               -0.48728707                0.28165769               -0.18518266                0.46472797                7.78119867               -0.21606660
               6.31424541                6.98235319                8.99762704                0.00010000               -0.61713626                0.23019588               -0.08795301                0.41090092                7.93875969                0.13295813
               7.30745907                6.96945178                9.01787542                0.00010000               -0.73065759                0.12205591                0.03849401                0.38352489                8.10619967                0.52341789
               8.29963225                6.95799115                9.04106132                0.31876877               -0.39192622               -0.03710681                0.19607633                0.16243530                4.10100646                0.98332774
               9.29962054                6.94374440                8.98308488                0.90198296                0.07311222                0.08631845               -0.26480899               -0.00582390                0.03248213                0.30144872
              10.30109450                6.93000817                8.92481690                1.00000000                0.14739570                0.21326263               -0.72371844               -0.02818446                0.01624794               -0.40920420
               0.34417871                8.07087759                9.06805857                1.00000000               -0.07082582               -0.17032984                0.53309964               -0.04100678                0.02653937                0.68187490
               1.34347045                8.05518852                8.99696241                0.63885015                0.01320815                0.01162351               -0.04306833               -0.02809367                0.09941394               -0.29206593
               2.34444287                8.03878616                8.92723941                0.03970077                0.05292558                0.20083932               -0.62537352                0.18698404                4.28905268               -1.25320160
               3.34452896                8.02612702                8.94019361                0.00010000               -0.12618041                0.25807656               -0.38082898                0.38293618                8.50157044               -1.03191904
               4.34191926                8.01264759                8.95807859                0.00010000               -0.35795442                0.28674019               -0.25446124                0.33485014                8.74238210               -0.58078721
               5.33736987                7.99884588                8.97913946                0.00010000               -0.55088114                0.29626476               -0.15160628                0.29395708                8.85982526               -0.21355858
               6.33090164                7.98478022                9.00306975                0.00010000               -0.72771069                0.26899815               -0.01028894                0.21025657                8.99276218                0.10487843
               7.32281566                7.97060907                9.03028347                0.00738249               -0.87280282                0.13323418                0.17572418                0.09404224                9.19801622                0.45102529
               8.31344558                7.95726005                9.06121366                0.34160104               -0.49566056               -0.10821336                0.40644746               -0.00347969                4.66465007                0.92215733
               9.31290245                7.94433482                8.99981251                0.89807102                0.02359969                0.03171869               -0.09504332               -0.00821959                0.03018886                0.28693094
              10.31391757                7.93190847                8.93790265                0.97820027                0.10151296                0.17138775               -0.58277144               -0.02930408                0.00452134               -0.43515652
               0.35858393                9.06944082                9.05636841                1.00000000               -0.02192072               -0.12099946                0.38441600               -0.03591779                0.02343658                0.56388521
               1.35836472                9.05559083                8.98034813                0.66241635                0.06846353                0.07071209               -0.23718629               -0.01501439                0.12295087               -0.26980825
               2.35995320                9.04114065                8.90626782                0.05082878                0.10076770                0.26474946               -0.86821013                0.11108759                4.83843436               -0.90323615
               3.36038008                9.02862626                8.92487881                0.00010000               -0.09919518                0.22560010               -0.29317336                0.20079983                9.66607106               -0.76410422
               4.35796930                9.01540406                8.95048464                0.00010000               -0.34158861                0.25952009               -0.23284686                0.17004891                9.88667653               -0.37914193
               5.35354831                9.00182362                8.97786006                0.00010000               -0.56409782                0.28935046               -0.12444590                0.15725520                9.86459209               -0.13246476
               6.34668734                8.98773316                9.00766712                0.00010000               -0.83441135                0.29539838                0.05428263                0.06405777                9.97419026                0.06569070
               7.33686008                8.97211646                9.04124926                0.01496485               -1.04252139                0.24892440                0.29617789               -0.12505364               10.28086069                0.27771020
               8.32583691                8.95582688                9.08042861                0.36497276               -0.60261737               -0.17017810                0.60416396               -0.21929273                5.30462477                0.65022308
               9.32480773                8.94437877                9.01665165                0.94281111               -0.02379023               -0.02370552                0.07514513               -0.00588540                0.07071286                0.26176677
              10.32536111                8.93343592                8.95093965                0.96204607                0.05533783                0.13431850               -0.44169313               -0.02859526               -0.02312039               -0.36437275
               0.37116033               10.06845760                9.04236629                1.00000000                0.03099989               -0.09832233                0.22663313                0.07215574                0.33708308                0.45853936
               1.37147033               10.05660276                8.96445441                0.85987879                0.12344281                0.10119242               -0.41804625                0.09173808                0.60282037               -0.24151190
               2.37362919               10.04408115                8.89185346                0.53385652                0.14056096                0.29404954               -1.03891001                0.06941218                5.60187147               -0.60105242
               3.37428155               10.03063903                8.91429221                0.35631052               -0.07531535                0.20127625               -0.28227457                0.07798975               10.51615470               -0.38961229
               4.37212288               10.01783800                8.94522800                0.35283220               -0.30478378                0.24339400               -0.25376588                0.11505136               10.73381639               -0.15886835
               5.36818588               10.00463289                8.97700998                0.37557490               -0.51164648                0.28092656               -0.12267921                0.10626662               10.64588203               -0.02743607
               6.36188995                9.99068819                9.01108377                0.42178438               -0.79825073                0.29550341                0.09489629                0.06799480               10.76687374                0.07659812
               7.35222086                9.97558756                9.04927451                0.51060536               -1.25462672                0.34711001                0.38363576               -0.30550665               11.19697764                0.19556823
               8.33679742                9.95385649                9.09496134                0.69284857               -0.85225830               -0.19703861                0.75322276               -0.49029220                6.06451341                0.43267134
               9.33517569                9.94386071                9.03281824                1.00000000               -0.07830257               -0.05180604                0.23855379                0.07371389                0.42260857                0.23612842
              10.33523137                9.93459484                8.96543482                0.98745429                0.00556719                0.11589222               -0.29077872                0.06043913                0.16648403               -0.29038414
               0.20541878                0.11658960               10.16704993                1.00000000               -0.39613903               -0.44008459                1.51443038               -0.07643574               -0.47050130                0.52117208
               1.20145739                0.08463220               10.12499093                1.00000000               -0.32750198               -0.34276381                1.19782754               -0.05616818               -0.55922160                0.00610724
               2.19886874                0.05239797               10.08102591                0.99620148               -0.17808318               -0.24815536                0.84507408               -0.04362087               -0.49097251               -0.19339716
               3.19789572                0.02095456               10.04021988                0.59946895                0.30572624               -0.18301620                0.53050050                0.38539713                0.43734935               -0.33868726
               4.20498326               -0.00068918               10.01476047                0.64705559                0.50400578               -0.15012363                0.23673539                0.00207082                1.09245487                0.01471037
               5.20797584               -0.01581348                9.98699824                0.70824507                0.20062175               -0.00442529               -0.09727030               -0.00151261                0.78888188                0.01568925
               6.20899570               -0.02997605                9.95589887                0.70575401                0.05589393                0.11024770               -0.44751026                0.00526600                0.65553104               -0.00694542
               7.20909372               -0.04638572                9.92560539                0.82263137                0.05900826                0.22197869               -0.79759468                0.06435463                0.40227931                0.02925986
               8.21017586               -0.06731705                9.88946444                1.00000000                0.21920864                0.33894003               -1.12643513                0.04122202               -0.08039666                0.31895728
               9.21347789               -0.09076574                9.84972853                1.00000000                0.39799464                0.41484701               -1.44403230               -0.05065117               -0.28827796                0.02490730
              10.21813575               -0.11428478                9.80960888                1.00000000                0.46578653                0.50491330               -1.75011310               -0.07976789               -0.31400570               -0.33464674
               0.23661183                1.11218876               10.15271196                1.00000000               -0.36203031               -0.42365910                1.37641752               -0.03198716               -0.04577136                0.71297538
               1.23299152                1.08120456               10.11019250                1.00000000               -0.31702398               -0.32085646                1.06049521               -0.01149511                0.01991108                0.01678647
               2.23027135                1.04991641               10.06890102                0.71985450               -0.23491270               -0.22327709                0.73773145                0.01236575                0.26066450               -0.51554934
               3.22829327                1.01912440               10.03120626                0.05622881               -0.34416760               -0.17663428                0.41444148                0.50506817                1.42003767               -0.69331306
               4.22338799                0.99780958               10.01326580                0.16969658               -0.28445603                0.09254110                0.20467127                0.46373482                2.00449178                0.31014073
               5.22260415                0.98414226                9.98897663                0.23521290                0.04732397                0.09803234               -0.09660833                0.48279413                1.46645826                0.21315737
               6.22433447                0.97112643                9.96103283                0.16264652                0.29018075               -0.04108396               -0.41755072                0.41245877                1.32662563               -0.34806113
               7.22840776                0.95583407                9.93435156                0.34462084                0.42218104                0.25521905               -0.71981859                0.44891138                1.22046810                0.53429107
               8.23277809                0.93607235                9.90442774                1.00000000                0.40237409                0.31319242               -1.00278591                0.15576719                0.60170423                0.41488858
               9.23645524                0.91338273                9.86523908                1.00000000                0.40395124                0.39605021               -1.30463945               -0.00192751                0.08668526                0.07457893
              10.24085712                0.89076435                9.82505769                1.00000000                0.44018744                0.47924768               -1.61033898               -0.03137378                0.03287586               -0.39493131
               0.26674743                2.10811642               10.14203005                1.00000000               -0.32476029               -0.39432284                1.26533917               -0.03405114                0.03071868                0.92189357
               1.26349983                2.07821507               10.09550452                1.00000000               -0.27756098               -0.28091093                0.92806082               -0.01487098                0.10020310               -0.00083122
               2.26119621                2.04793243               10.05028658                0.33484388               -0.16979551               -0.17475364                0.61114619               -0.00060991                0.66670302               -0.98509104
               3.26010392                2.01742188               10.01508457                0.00010000               -0.59780572               -0.15655150                0.28974872                0.79644068                3.02808365               -1.32399317
               4.24924010                2.00116164               10.01727549                0.00010000               -0.78945195                0.22517500                0.58054250                1.54940516                3.21667648               -0.87419688
               5.24431488                1.98614716                9.99476854                0.00010000               -0.18435157                0.08288872               -0.02205377                1.32427936                1.39335156               -0.47359150
               6.24555306                1.96920227                9.95937309                0.00010000                0.44055708               -0.07827164               -0.40049587                1.35056641                2.22371459                0.05375289
               7.25312602                1.95871866                9.95328869                0.00010000                0.50947406               -0.00192884               -0.61558941                0.97448918                2.48772236                0.36045946
               8.25574255                1.93894680                9.92136651                0.41299765                0.28106599                0.29025378               -0.85946319                0.20389097                0.84090897                0.78031412
               9.25874734                1.91715526                9.88183609                1.00000000                0.35012465                0.37164943               -1.16097961                0.03166131                0.31438050                0.33757279
              10.26274504                1.89530017                9.83943431                1.00000000                0.39976992                0.43032404               -1.48371592               -0.02052901                0.16798410               -0.40919070
               0.29573351                3.10430230               10.13167123                1.00000000               -0.28554116               -0.36868122                1.15561931               -0.03603202                0.02665750                0.93882546
               1.29287810                3.07558634               10.08025275                1.00000000               -0.23405855               -0.24217281                0.79014974               -0.01881266                0.02891939               -0.03541494
               2.29105234                3.04642134               10.02877724                0.14842087               -0.09426159               -0.11835949                0.42535473               -0.05786488                0.83548925               -1.07889922
               3.29099287                3.01599337                9.99346978                0.00010000               -0.27007637                0.05190394                0.11674016                0.71833348                3.30602854               -1.19530896
               4.28565081                3.00231308                9.99165655                0.00010000               -0.49718798                0.13795237                0.03728299                1.74534748                4.54252491               -1.55261066
               5.28104911                2.98580004                9.98325490                0.00010000               -0.34382559                0.05426399               -0.09672842                1.67235298                3.92808531               -0.94969919
               6.27877430                2.96956099                9.97193656                0.00010000               -0.14480447                0.09617424               -0.32698475                1.56390274                3.63872261                0.31017167
               7.27815302                2.95579549                9.95886633                0.00010000               -0.01774931               -0.10396305               -0.51658412                1.14546396                3.40709281                0.12625042
               8.27841931                2.94187743                9.94369212                0.26041728                0.12910404                0.28123702               -0.70919142                0.48930766                1.97699653                1.40567948
               9.28073510                2.92081572                9.90266662                1.00000000                0.28687058                0.33578127               -0.98769659                0.04204282                0.33633503                0.50197585
              10.28415673                2.89937083                9.85477813                1.00000000                0.34216268                0.39133849               -1.34602250               -0.02936013               -0.01081016               -0.33046034
               0.32345871                4.10074280               10.12114287                1.00000000               -0.24541770               -0.34215978                1.04171281               -0.03637178                0.02651519                0.91685660
               1.32100453                4.07337161               10.06480884                1.00000000               -0.19134136               -0.19844266                0.64537001               -0.01694419                0.02778025               -0.04541466
               2.31963188                4.04556524               10.00839015                0.06111953               -0.12128441               -0.05768041                0.24802079                0.04228220                1.42826912               -0.96918967
               3.31857885                4.01845996                9.98008390                0.00010000               -0.26457520                0.37273762               -0.22844316                0.57244223                4.31049600               -0.24026759
               4.31434038                4.00392069                9.98152285                0.00010000               -0.40324088                0.18212047               -0.12787851                1.18349029                5.49517371               -0.57566944
               5.31051403                3.98723244                9.97949195                0.00010000               -0.37523579                0.17224116               -0.18928657                1.14010337                5.17570374               -0.40074913
               6.30683566                3.97112575                9.97659011                0.00010000               -0.33975808                0.17530492               -0.28516314                1.13542608                5.02711215                0.00346514
               7.30371887                3.95663940                9.97363801                0.00010000               -0.31635948                0.12882982               -0.38636618                1.11548912                5.05656808                0.61935743
               8.30050847                3.94457154                9.97299642                0.26278258               -0.08120376                0.21628765               -0.46703402                0.51927785                2.60880862                1.51319288
               9.30209479                3.92387089                9.92250293                1.00000000                0.22695688                0.27210780               -0.81205217                0.02314588                0.05710079                0.44460548
              10.30504761                3.90312694                9.87092281                1.00000000                0.29528204                0.35460023               -1.19448756               -0.02749382               -0.00017986               -0.31117022
               0.34974845                5.09745911               10.11019153                1.00000000               -0.20316695               -0.31027057                0.91907502               -0.03886622                0.06940915                0.86823610
               1.34771678                5.07161749               10.04932426                0.86139502               -0.14694027               -0.14965019                0.49682617               -0.02136484                0.10968939               -0.10546735
               2.34680964                5.04526773                9.98915546                0.02123739               -0.18152584                0.00108388                0.08653622                0.23029613                2.61893722               -0.99300363
               3.34408626                5.02344812                9.97852445                0.00010000               -0.31307544                0.39671246               -0.17364721                0.59778178                5.39878047               -0.10377047
               4.34054813                5.00595549                9.97589055                0.00010000               -0.37200746                0.23430542               -0.20602096                0.87206842                5.96459354               -0.34191401
               5.33664611                4.98924486                9.97864298                0.00010000               -0.42361351                0.22042415               -0.21188494                0.88872923                6.20443566               -0.20447114
               6.33207586                4.97306709                9.98297275                0.00010000               -0.48145470                0.20737619               -0.23107863                0.88516188                6.25519809                0.13846644
               7.32701702                4.95837209                9.98896268                0.00010000               -0.52512381                0.17119498               -0.24625295                0.91096536                6.34879147                0.63912358
               8.32157338                4.94620318                9.99729818                0.27611069               -0.21872006                0.11853236               -0.24160962                0.44699400                3.20464730                1.20332056
               9.32264261                4.92625787                9.94217758                1.00000000                0.17606810                0.20511514               -0.62873618                0.01430823                0.01541873                0.41474900
              10.32509475                4.90646284                9.88675536                1.00000000                0.24521321                0.31078004               -1.03255927               -0.02800438               -0.00272305               -0.33349418
               0.37436462                6.09453739               10.09854895                1.00000000               -0.15960133               -0.26792958                0.78688696               -0.04151116                0.06789812                0.80264930
               1.37276861                6.07037861               10.03264999                0.72513311               -0.09787257               -0.09665230                0.32733314               -0.02871520                0.15429595               -0.22002400
               2.37240717                6.04558691                9.96837940                0.01170450               -0.14609434                0.06461497               -0.11883347                0.27658134                3.37776134               -1.18318613
               3.36984672                6.02639421                9.96704462                0.00010000               -0.32110801                0.27186103               -0.20024029                0.65622610                6.64229672               -0.72961355
               4.36598501                6.00860680                9.97070864                0.00010000               -0.43348541                0.28187571               -0.22237754                0.73956828                6.98210156               -0.41516808
               5.36117701                5.99164093                9.97873443                0.00010000               -0.52866694                0.26516134               -0.19902413                0.71999073                7.23397644               -0.16264569
               6.35541167                5.97527328                9.98996660                0.00010000               -0.61874638                0.23354784               -0.15953149                0.68386583                7.39527386                0.18100320
               7.34880209                5.96006330               10.00379241                0.00010000               -0.69245513                0.15959345               -0.10584068                0.69305607                7.54043539                0.61334487
               8.34156257                5.94694219               10.02035290                0.29302561               -0.33403935                0.03592797               -0.02968626                0.33352076                3.80394011                1.11475411
               9.34212130                5.92797319                9.96146811                0.92968659                0.12575164                0.14233590               -0.44939884                0.00572936                0.02867132                0.37600201
              10.34407760                5.90934254                9.90250747                1.00000000                0.19563027                0.26365442               -0.87053214               -0.02626342                0.02363690               -0.36954812
               0.39723578                7.09210051               10.08612830                1.00000000               -0.11428341               -0.21605521                0.64505178               -0.04010481                0.03881571                0.74683257
               1.39609294                7.06968444               10.01484724                0.65001706               -0.04550538               -0.04336346                0.14982566               -0.02936848                0.13579771               -0.29836094
               2.39632567                7.04656003                9.94542080                0.02038945               -0.09510231                0.12769286               -0.33843347                0.26848068                4.04164420               -1.35557831
               3.39419090                7.02888534                9.95240705                0.00010000               -0.31164468                0.25847341               -0.29676304                0.60470876                7.91509605               -0.94978551
               4.39009278                7.01159301                9.96357671                0.00010000               -0.49057268                0.31239424               -0.23902209                0.61302577                8.16036460               -0.54097299
               5.38437944                6.99454809                9.97852449                0.00010000               -0.63809881                0.31477770               -0.16943776                0.55671838                8.35965598               -0.18315246
               6.37733080                6.97773805                9.99678652                0.00010000               -0.75851074                0.26704812               -0.08017725                0.47533442                8.53092465                0.17238175
               7.36920923                6.96156396               10.01822598                0.00010000               -0.84984448                0.14869611                0.03340160                0.43287053                8.71214916                0.58199187
               8.36033391                6.94692174               10.04290098                0.31326682               -0.44261913               -0.03640671                0.17449087                0.18714875                4.40356254                1.07178110
               9.36035685                6.92910459                9.98042052                0.89486875                0.07484349                0.08643637               -0.27177280               -0.00100439                0.03364449                0.33182433
              10.36183078                6.91173592                9.91763475                1.00000000                0.14739338                0.21546277               -0.71964585               -0.02556926                0.01957861               -0.42861513
               0.41839467                8.09021628               10.07319773                1.00000000               -0.06729503               -0.16172797                0.49827956               -0.03730106                0.02358121                0.71759099
               1.41772172                8.06951134                9.99658991                0.62910740                0.00906059                0.00983807               -0.03194085               -0.02342889                0.09224781               -0.33372419
               2.41857588                8.04814077                9.92129411                0.03691618               -0.04068985                0.18845313               -0.56812264                0.24328739                4.66702163               -1.38061888
               3.41690792                8.03156367                9.93639647                0.00010000               -0.29965500                0.27778380               -0.37745013                0.51095266                9.21278081               -0.96647485
               4.41258278                8.01485468                9.95558874                0.00010000               -0.53707916                0.33632486               -0.24733337                0.46864455                9.38736898               -0.52619648
               5.40616634                7.99793648                9.97772360                0.00010000               -0.73401468                0.35310239               -0.13646351                0.39096845                9.50320527               -0.17601893
               6.39790249                7.98061424               10.00301086                0.00010000               -0.89452667                0.32408403               -0.00278737                0.26595775                9.66261026                0.14018007
               7.38827581                7.96303722               10.03198345                0.00633513               -1.00687893                0.17284213                0.16618599                0.11913960                9.89402276                0.49990460
               8.37776491                7.94621405               10.06509514                0.33703026               -0.54943904               -0.10292700                0.37348735                0.00418968                5.00857864                1.00328624
               9.37728703                7.92970192                9.99881175                0.89797596                0.02693218                0.03347540               -0.10605543               -0.00503260                0.02503483                0.31034930
              10.37830355                7.91365180                9.93213792                1.00000000                0.10165278                0.17211720               -0.57589192               -0.02639308                0.00702055               -0.46117380
               0.43789964                9.08886595               10.06002458                1.00000000               -0.01997659               -0.11206977                0.35072690               -0.03306243                0.01743059                0.59433899
               1.43769988                9.06988120                9.97808971                0.65187847                0.06197208                0.06539801               -0.21584528               -0.01236669                0.11153836               -0.30677752
               2.43913908                9.05032910                9.89800511                0.04256969               -0.00019183                0.24443478               -0.79070852                0.19907305                5.35869085               -0.99417894
               3.43769604                9.03444102                9.92128641                0.00010000               -0.30231113                0.31254690               -0.38938702                0.33161554               10.50372482               -0.66278170
               4.43309286                9.01831950                9.94810115                0.00010000               -0.56283924                0.34672435               -0.24753779                0.27880374               10.54569342               -0.32882805
               5.42643925                9.00161013                9.97672336                0.00010000               -0.77718261                0.36745510               -0.11083294                0.22355062               10.56075717               -0.10575340
               6.41754921                8.98421973               10.00825787                0.00010000               -1.02235226                0.36485614                0.06141473                0.09712224               10.71977174                0.08744402
               7.40599221                8.96502080               10.04412891                0.01555400               -1.18980999                0.30755202                0.28197093               -0.12431717               11.06778796                0.30497414
               8.39375301                8.94486320               10.08621609                0.36258392               -0.65868800               -0.15868357                0.55883862               -0.23226690                5.69673628                0.70007801
               9.39281845                8.92977410               10.01729014                0.94067499               -0.01749224               -0.01868734                0.05402373               -0.00628080                0.06287891                0.28164114
              10.39340316                8.91517827                9.94653319                0.96383799                0.05847150                0.13514246               -0.44171603               -0.02672123               -0.02516288               -0.38656936
               0.45570293               10.08797489               10.04446731                1.00000000                0.03083207               -0.08910678                0.19721816                0.06476960                0.34598343                0.48343450
               1.45601125               10.07081930                9.96043451                0.85508902                0.11473010                0.09380964               -0.38808388                0.08386600                0.62177210               -0.27139454
               2.45799753               10.05302947                9.88192423                0.52877968               -0.02307100                0.27003717               -0.95398323                0.23560993                6.23926849               -0.65587906
               3.45554983               10.03781461                9.91055954                0.35712565               -0.35038925                0.33735914               -0.42138167                0.22336376               11.43785746               -0.31389505
               4.45098974               10.02178917                9.94261280                0.35316905               -0.54063491                0.34696656               -0.27483987                0.16323661               11.42716506               -0.12767661
               5.44473713               10.00528558                9.97589672                0.37568364               -0.72777373                0.36754463               -0.10899414                0.13589699               11.40837006               -0.00971335
               6.43643427                9.98791136               10.01207994                0.42191088               -0.97955668                0.36916344                0.10177720                0.08364006               11.59162983                0.09200764
               7.42514599                9.96918827               10.05301594                0.51156826               -1.40339972                0.41674642                0.36721388               -0.32817069               12.07258915                0.21535193
               8.40836627                9.94304038               10.10219504                0.69284885               -0.91498268               -0.18228181                0.70057741               -0.53167824                6.51540238                0.45603708
               9.40684634                9.92932817               10.03503824                1.00000000               -0.07027392               -0.04459278                0.20811619                0.06850238                0.43817616                0.25201782
              10.40696080                9.91635465                9.96249745                1.00000000                0.01144542                0.11763778               -0.29910317                0.05841033                0.17479690               -0.30616426
               0.24415947                0.13700941               11.18205999                1.00000000               -0.38964896               -0.43150823                1.48909664               -0.07510414               -0.50774896                0.55581534
               1.24026298                0.10021037               11.13688686                1.00000000               -0.32147802               -0.33776754                1.18170788               -0.05602872               -0.61538175                0.01265639
               2.23772991                0.06316089               11.08943405                1.00000000               -0.17377899               -0.24619222                0.84022137               -0.04303353               -0.54755062               -0.18659617
               3.23678740                0.02700701               11.04552023                0.60713190                0.30790429               -0.18292379                0.53332649                0.40667094                0.40791321               -0.37017382
               4.24388800                0.00118034               11.01712321                0.66090541                0.49502457               -0.13124634                0.23633021               -0.00757814                1.05131821                0.02831431
               5.24668789               -0.01761045               10.98604998                0.72563082                0.18755803                0.00167475               -0.09196187                0.00195867                0.72559430                0.02174656
               6.24763916               -0.03536161               10.95148442                0.71869762                0.05138823                0.10914834               -0.43497732                0.00646077                0.58321996               -0.01286705
               7.24771566               -0.05522769               10.91769590                0.82972216                0.05281636                0.21787260               -0.78288045                0.06245073                0.33822567                0.03002653
               8.24869548               -0.07965386               10.87827663                1.00000000                0.20957184                0.33577519               -1.10996161                0.04375043               -0.12670009                0.33053777
               9.25190709               -0.10673698               10.83537645                1.00000000                0.39007461                0.41000378               -1.42547740               -0.05097711               -0.32313315                0.02276536
              10.25649698               -0.13393475               10.79220625                1.00000000                0.45898817                0.49818679               -1.72951283               -0.07987967               -0.34359041               -0.36530178
               0.28020747                1.13269432               11.16635242                1.00000000               -0.35805126               -0.41438639                1.35309841               -0.03131795               -0.05379632                0.75965406
               1.27662695                1.09683269               11.12072801                1.00000000               -0.31531065               -0.31581899                1.04696644               -0.01068553                0.00692732                0.02522900
               2.27390125                1.06069897               11.07623924                0.73994971               -0.23912833               -0.22239287                0.73133041                0.01803703                0.24350838               -0.51727810
               3.27184439                1.02517778               11.03535160                0.07201231               -0.38901534               -0.17712225                0.41689167                0.54780911                1.45761901               -0.72931844
               4.26612095                0.99986787               11.01529855                0.19308180               -0.34329674                0.09970824                0.20228703                0.33703583                2.06054713                0.49086598
               5.26497845                0.98240630               10.98802556                0.26222385                0.01957189                0.09425321               -0.09357862                0.41833282                1.47403416                0.24422175
               6.26651238                0.96572987               10.95690752                0.18279502                0.27539188               -0.02681301               -0.40764170                0.37005388                1.33404657               -0.35561084
               7.27048629                0.94695104               10.92720926                0.35772628                0.41876254                0.24479690               -0.70792656                0.44694754                1.24104885                0.54566567
               8.27488763                0.92370389               10.89446527                1.00000000                0.40257405                0.31019196               -0.98942682                0.16321693                0.61645759                0.43570168
               9.27853777                0.89736306               10.85226866                1.00000000                0.40041583                0.39200425               -1.28917055               -0.00177564                0.08915891                0.07428757
              10.28289595                0.87104712               10.80904066                1.00000000                0.43581808                0.47156000               -1.59278346               -0.03154359                0.03306475               -0.43220922
               0.31525637                2.12872168               11.15455935                1.00000000               -0.32117419               -0.38448187                1.24198482               -0.03114207                0.02978052                0.98176994
               1.31204463                2.09389399               11.10472612                1.00000000               -0.27554009               -0.27665958                0.91648187               -0.01026453                0.10852900                0.00719225
               2.30974557                2.05871303               11.05640240                0.35170451               -0.17349761               -0.17750356                0.61037319                0.01440968                0.68160691               -1.02398635
               3.30857468                2.02346457               11.01802061                0.00010000               -0.81726894               -0.16044674                0.29541887                0.85278973                3.30895744               -1.38729300
               4.29340019                2.00317450               11.02237771                0.00010000               -0.96910648                0.24458395                0.44834987                1.63738971                3.42897906               -0.94822363
               5.28919255                1.98427462               10.99434146                0.00010000               -0.14523476                0.07312291               -0.05283915                1.40130788                1.33485938               -0.47147840
               6.29049549                1.96410213               10.95549520                0.00010000                0.47440211               -0.09111142               -0.38217886                1.40596145                2.32153913                0.06104357
               7.29868059                1.94966825               10.94711297                0.00010000                0.55261544               -0.02139667               -0.61708501                1.00854679                2.58962397                0.38454428
               8.30154780                1.92654998               10.91282683                0.41873747                0.29238854                0.29120620               -0.84906240                0.23088452                0.90558785                0.81611758
               9.30452836                1.90110310               10.87029164                1.00000000                0.34750921                0.37074766               -1.14823926                0.03789836                0.33666648                0.35369028
              10.30849799                1.87549645               10.82467259                1.00000000                0.39696280                0.42143178               -1.46887512               -0.01867451                0.17964688               -0.44665797
               0.34924000                3.12500469               11.14309893                1.00000000               -0.28096904               -0.35965536                1.13147887               -0.03182244                0.02683325                0.99751180
               1.34643031                3.09129950               11.08810819                1.00000000               -0.23105669               -0.23955531                0.78088684               -0.01373260                0.02860209               -0.03313917
               2.34461887                3.05714889               11.03306949                0.16119556               -0.09958000               -0.12320457                0.43146929               -0.04135106                0.86157258               -1.14365598
               3.34443871                3.02196884               10.99470461                0.00010000               -0.32800867                0.02234909                0.12756684                0.81013169                3.47025020               -1.37040542
               4.33805869                3.00475955               10.99206442                0.00010000               -0.61808658                0.15135932                0.03579093                2.00586143                4.79796685               -1.84969077
               5.33207698                2.98386876               10.98224476                0.00010000               -0.44103578                0.06130125               -0.10700763                1.83514088                4.12067430               -1.02873587
               6.32923798                2.96390765               10.96870405                0.00010000               -0.19338018                0.06770802               -0.32067533                1.70894752                3.80608849                0.33363123
               7.32820938                2.94652311               10.95374410                0.00010000               -0.05837534               -0.11291594               -0.50759962                1.24864952                3.58710730                0.17211508
               8.32807047                2.92952802               10.93668170                0.25779747                0.10699479                0.28741412               -0.69470222                0.53881616                2.09771065                1.48329931
               9.33034927                2.90477801               10.89284157                1.00000000                0.28326518                0.33640582               -0.97788205                0.05151119                0.37489558                0.53182872
              10.33373577                2.87947575               10.84138298                1.00000000                0.33865036                0.38433311               -1.33384785               -0.02810778               -0.00907439               -0.35429660
               0.38203029                4.12152857               11.13142421                1.00000000               -0.24045202               -0.33410281                1.01625103               -0.03261328                0.02610289                0.96979510
               1.37962577                4.08910288               11.07122813                1.00000000               -0.18905401               -0.19675301                0.63837796               -0.01272900                0.02590757               -0.04822041
               2.37824921                4.05624894               11.01093706                0.07178342               -0.12295580               -0.06219016                0.25945893                0.03592517                1.37935107               -1.02223111
               3.37716665                4.02391155               10.97780966                0.00010000               -0.33158530                0.36462105               -0.21976071                0.62116699                4.52037794               -0.31589831
               4.37161750                4.00620169               10.98029609                0.00010000               -0.52096916                0.16808851               -0.12204343                1.29302565                5.91485583               -0.66759059
               5.36674727                3.98550064               10.97765236                0.00010000               -0.47987028                0.18499755               -0.18152412                1.22429847                5.49177013               -0.45815942
               6.36202010                3.96545629               10.97378131                0.00010000               -0.43570308                0.18295096               -0.27711677                1.21288332                5.31978021                0.01596708
               7.35803321                3.94740993               10.96980267                0.00010000               -0.39754377                0.13855491               -0.37991114                1.20231326                5.35004517                0.67954214
               8.35406922                3.93229826               10.96831907                0.25812473               -0.12111789                0.22139723               -0.46734144                0.56886925                2.77571311                1.62253397
               9.35561085                3.90783122               10.91441990                1.00000000                0.22355646                0.27065938               -0.80547811                0.03098600                0.07664889                0.47854996
              10.35854035                3.88318311               10.85903207                1.00000000                0.29295006                0.35115139               -1.18540230               -0.02587864                0.00048813               -0.32081568
               0.41343911                5.11832263               11.11923631                1.00000000               -0.19837472               -0.30219640                0.89185727               -0.03558502                0.07450575                0.91295455
               1.41145536                5.08736444               11.05426914                0.84915257               -0.14552033               -0.14820110                0.49196144               -0.01800782                0.11983207               -0.12039944
               2.41052870                5.05590509               10.99012118                0.02968244               -0.22730305               -0.00344297                0.10415572                0.24644668                2.69265917               -1.06018155
               3.40690930                5.02926126               10.97663903                0.00010000               -0.40992931                0.43068724               -0.21479489                0.62345458                5.68274511               -0.01922858
               4.40233012                5.00812132               10.97386883                0.00010000               -0.48004789                0.23025453               -0.20158012                0.94840044                6.38697404               -0.35278833
               5.39730834                4.98756871               10.97658579                0.00010000               -0.53718818                0.22888306               -0.20169771                0.94394442                6.61628862               -0.20990247
               6.39158635                4.96756667               10.98070677                0.00010000               -0.59473377                0.22631555               -0.22231694                0.93949830                6.65298618                0.16372894
               7.38541367                4.94929420               10.98651244                0.00010000               -0.62798930                0.18808098               -0.24294693                0.97808061                6.74949097                0.70170718
               8.37902657                4.93395596               10.99484284                0.27088641               -0.26647618                0.11981049               -0.24828464                0.48601872                3.41482018                1.30036021
               9.38008415                4.91019120               10.93592531                0.99324705                0.17439285                0.20271647               -0.62572093                0.01933815                0.02641958                0.44977283
              10.38251442                4.88649878               10.87650775                1.00000000                0.24302790                0.30948780               -1.02266853               -0.02611857                0.00103212               -0.33765953
               0.44323496                6.11548464               11.10626261                1.00000000               -0.15518124               -0.25936662                0.75818272               -0.03831620                0.06810830                0.83874059
               1.44168315                6.08613886               11.03591256                0.71490849               -0.09768208               -0.09566070                0.32504408               -0.02506551                0.16009855               -0.24872979
               2.44128132                6.05618008               10.96732219                0.01767926               -0.21318191                0.05962489               -0.09514989                0.31414189                3.56347873               -1.27901186
               3.43741951                6.03252530               10.96510721                0.00010000               -0.45016284                0.29279585               -0.19484955                0.72231034                7.03873227               -0.70342822
               4.43227807                6.01080678               10.96854037                0.00010000               -0.56193498                0.29241846               -0.21614771                0.81519438                7.43643348               -0.38906639
               5.42618081                5.99007830               10.97680951                0.00010000               -0.65967489                0.28387025               -0.18811953                0.78262883                7.71457564               -0.13852119
               6.41908457                5.96998260               10.98841442                0.00010000               -0.74876453                0.25949520               -0.15132628                0.73346525                7.88127122                0.21937822
               7.41120552                5.95117155               11.00273435                0.00010000               -0.80959833                0.18031897               -0.10508868                0.74428943                8.03363050                0.67501506
               8.40289260                5.93469447               11.01999144                0.28778654               -0.38753634                0.03642794               -0.04188411                0.35981972                4.05482707                1.20280628
               9.40345480                5.91188555               10.95697423                0.91626203                0.12551082                0.14230230               -0.45130953                0.00769559                0.03534623                0.40784484
              10.40540282                5.88937287               10.89384258                1.00000000                0.19480209                0.26533171               -0.86792599               -0.02410885                0.03045517               -0.38123064
               0.47136435                7.11313530               11.09241937                1.00000000               -0.11057323               -0.20757535                0.61588026               -0.03685710                0.03712524                0.77634888
               1.47025862                7.08545123               11.01636085                0.64114692               -0.04696207               -0.04336467                0.15257582               -0.02509227                0.13642701               -0.33222406
               2.47042511                7.05709759               10.94222180                0.02329719               -0.17649029                0.12046983               -0.30458195                0.31806862                4.30004311               -1.46220550
               3.46672881                7.03511718               10.94955105                0.00010000               -0.46720542                0.26964361               -0.27940378                0.69712683                8.43887056               -0.95867876
               4.46108100                7.01396969               10.96126362                0.00010000               -0.64718571                0.33962198               -0.22744789                0.70951878                8.69877896               -0.50871076
               5.45378510                6.99324611               10.97689590                0.00010000               -0.79592948                0.35241614               -0.15873834                0.63089591                8.90988944               -0.14585553
               6.44516241                6.97275657               10.99602349                0.00010000               -0.90987547                0.30649365               -0.07322289                0.52319474                9.09456845                0.21542832
               7.43558759                6.95290058               11.01854346                0.00010000               -0.98267229                0.17663424                0.03081899                0.46671277                9.28985963                0.64020282
               8.42550896                6.93468452               11.04455114                0.30837346               -0.50139610               -0.03418998                0.15697649                0.20164565                4.69398507                1.15353625
               9.42555967                6.91303724               10.97764943                0.88049210                0.07743266                0.08933160               -0.28414120                0.00132297                0.03480599                0.36040313
              10.42705762                6.89180541               10.91042398                1.00000000                0.14979516                0.22068432               -0.72702749               -0.02304219                0.02161311               -0.44578248
               0.49786596                8.11133314               11.07802416                1.00000000               -0.06469452               -0.15386388                0.47001828               -0.03426003                0.02112275                0.74434940
               1.49721902                8.08527157               10.99632360                0.62073971                0.00553917                0.00797260               -0.02215076               -0.01936595                0.08611137               -0.36997701
               2.49797674                8.05858948               10.91587696                0.03588841               -0.13645339                0.17646812               -0.51988654                0.30759039                5.00092694               -1.48722410
               3.49448995                8.03791817               10.93264460                0.00010000               -0.48186183                0.30451905               -0.37126816                0.63197306                9.86648934               -0.94295300
               4.48833951                8.01759922               10.95313193                0.00010000               -0.72390470                0.39168729               -0.24439032                0.57868347               10.00710131               -0.48517822
               5.48001185                7.99712662               10.97641019                0.00010000               -0.92227572                0.41446593               -0.12861831                0.46674480               10.12039440               -0.13746088
               6.46989399                7.97611248               11.00301400                0.00010000               -1.07000133                0.38281935                0.00213834                0.30462166               10.29901562                0.17802700
               7.45861183                7.95470424               11.03360719                0.00571466               -1.15525701                0.21414354                0.15947079                0.12841146               10.55383809                0.54703936
               8.44678885                7.93401067               11.06868341                0.33306551               -0.61257315               -0.09779913                0.34758787                0.00346927                5.33793648                1.07503130
               9.44636036                7.91367218               10.99769140                0.88920304                0.03083915                0.03739251               -0.12059450               -0.00177920                0.02339268                0.33289737
              10.44740564                7.89378655               10.92638481                1.00000000                0.10452716                0.17697974               -0.58293166               -0.02285617                0.01169455               -0.48164235
               0.52280228                9.11005802               11.06338295                1.00000000               -0.01873259               -0.10461560                0.32415862               -0.03075220                0.01265052                0.61746993
               1.52261496                9.08561068               10.97603123                0.64307737                0.05640161                0.06068430               -0.19749586               -0.01006187                0.10239593               -0.33792824
               2.52393032                9.06062695               10.89045365                0.03689856               -0.11282135                0.22679197               -0.72604437                0.29548350                5.79069896               -1.06808076
               3.52035853                9.04120756               10.91709107                0.00010000               -0.52420519                0.39483521               -0.42852794                0.45183372               11.27611717               -0.61704212
               4.51344621                9.02180344               10.94553388                0.00010000               -0.78758981                0.43309789               -0.26139949                0.36586819               11.21595690               -0.29431243
               5.50460673                9.00153543               10.97564341                0.00010000               -0.98844902                0.44826428               -0.10754105                0.27418998               11.23803534               -0.07939269
               6.49367723                8.98041296               11.00889541                0.00010000               -1.21745582                0.43858616                0.06433485                0.11786792               11.42763338                0.11038938
               7.48025762                8.95718345               11.04688868                0.01620087               -1.35334141                0.37081542                0.27120554               -0.13693534               11.81032751                0.33021535
               8.46661040                8.93272854               11.09160538                0.36038227               -0.72547074               -0.14956763                0.52393153               -0.25520279                6.06925213                0.74289693
               9.46574820                8.91378509               11.01773212                0.93839961               -0.01193247               -0.01336574                0.03506377               -0.00535403                0.05866455                0.29761112
              10.46637175                8.89534501               10.94210533                0.96581457                0.06235507                0.13782503               -0.44920053               -0.02384552               -0.02439832               -0.40649919
               0.54614560               10.10924082               11.04631066                1.00000000                0.03032511               -0.08171964                0.17443430                0.05877440                0.35261439                0.50253436
               1.54644885               10.08648525               10.95669273                0.85119471                0.10719689                0.08745737               -0.36262445                0.07761365                0.63699704               -0.29603070
               2.54828953               10.06312532               10.87277380                0.52513532               -0.20493556                0.24983643               -0.88312175                0.40240283                6.75918701               -0.69924577
               3.54235014               10.04581487               10.90586457                0.35798693               -0.64802671                0.46073119               -0.48664725                0.35595365               12.29632187               -0.28197727
               4.53532900               10.02626118               10.93973120                0.35348824               -0.77320014                0.44577383               -0.29544156                0.20213079               12.14888157               -0.10822458
               5.52688613               10.00609191               10.97483010                0.37571231               -0.93628351                0.45564786               -0.10677177                0.15909120               12.15332636                0.00609001
               6.51660333                9.98488420               11.01311931                0.42190901               -1.16642976                0.44712422                0.10429833                0.09404163               12.37608198                0.10659565
               7.50355754                9.96212054               11.05661879                0.51240010               -1.57600866                0.49370911                0.35470290               -0.36325175               12.89874333                0.23231233
               8.48508316                9.93101932               11.10897289                0.69265662               -0.99603620               -0.17092173                0.66116361               -0.58850845                6.94056031                0.47548911
               9.48363682                9.91340487               11.03698057                1.00000000               -0.06371291               -0.03802268                0.18206113                0.06504778                0.45179062                0.26417704
              10.48380890                9.89654305               10.95945276                1.00000000                0.01720839                0.11980449               -0.31078165                0.05753305                0.18077806               -0.32117025
               0.28561005                0.15912104               12.19683186                1.00000000               -0.38343659               -0.42385579                1.46661148               -0.07433168               -0.54290883                0.58789660
               1.28177569                0.11720303               12.14862509                1.00000000               -0.31628505               -0.33331495                1.16693147               -0.05651093               -0.66665344                0.01960161
               2.27928435                0.07505568               12.09783034                1.00000000               -0.17054277               -0.24531686                0.83967076               -0.04237762               -0.59993075               -0.18456778
               3.27836483                0.03388835               12.05088641                0.61280228                0.30977655               -0.18506898                0.54027058                0.42568859                0.37208725               -0.40451709
               4.28547988                0.00352643               12.01948708                0.67167594                0.48808419               -0.11540253                0.23727983               -0.01639390                1.00521613                0.04232697
               5.28812651               -0.01932972               11.98515900                0.73976270                0.17671457                0.00649346               -0.08600446                0.00463353                0.66320531                0.02829271
               6.28901417               -0.04107959               11.94719933                0.72958058                0.04697498                0.10830212               -0.42196313                0.00764374                0.51110527               -0.01829888
               7.28906601               -0.06481191               11.90994778                0.83607691                0.04735695                0.21422183               -0.76602766                0.06029821                0.27295264                0.03136089
               8.28996131               -0.09308357               11.86726521                1.00000000                0.20097983                0.33197529               -1.09159229                0.04450668               -0.17398420                0.34222693
               9.29308561               -0.12409485               11.82121898                1.00000000                0.38215156                0.40481346               -1.40538211               -0.05106061               -0.35824545                0.02087807
              10.29760434               -0.15525963               11.77501862                1.00000000                0.45187326                0.49134528               -1.70727003               -0.07947126               -0.37311481               -0.39561163
               0.32678474                1.15488248               12.17977393                1.00000000               -0.35414803               -0.40578582                1.33245581               -0.03128651               -0.06105652                0.80281131
               1.32324326                1.11386988               12.13113182                1.00000000               -0.31334099               -0.31121507                1.03428609               -0.01141488               -0.00542496                0.03359349
               2.32051792                1.07260251               12.08352763                0.75696939               -0.24284587               -0.22166143                0.72710941                0.02086411                0.22778382               -0.52002515
               3.31838634                1.03203766               12.03954409                0.08570041               -0.42964698               -0.17826721                0.42170026                0.58564127                1.48970181               -0.76661117
               4.31192498                1.00237241               12.01731154                0.21330770               -0.39552396                0.09524318                0.20055316                0.23582482                2.10932738                0.61202051
               5.31047586                0.98073521               11.98710506                0.28588177               -0.00466365                0.09140570               -0.09071381                0.36995440                1.48144321                0.26567231
               6.31183170                0.96000343               11.95287999                0.20081435                0.25975628               -0.01468996               -0.39823330                0.33966290                1.34060397               -0.36065622
               7.31567099                0.93733031               11.92019303                0.37027023                0.41080728                0.23433081               -0.69513504                0.43768004                1.25973902                0.55333514
               8.32004785                0.91023618               11.88463920                1.00000000                0.39960255                0.30681452               -0.97571646                0.16686467                0.63041616                0.45678481
               9.32366304                0.87995328               11.83945567                1.00000000                0.39632816                0.38755037               -1.27330075               -0.00165336                0.09165768                0.07453020
              10.32797441                0.84965382               11.79320202                1.00000000                0.43113767                0.46421582               -1.57468720               -0.03135981                0.03336130               -0.46887776
               0.36700951                2.15100532               12.16686975                1.00000000               -0.31821495               -0.37474010                1.22135375               -0.02931283                0.02947438                1.03639669
               1.36382736                2.11097873               12.11383416                1.00000000               -0.27378250               -0.27241724                0.90540083               -0.00732755                0.11701344                0.01462706
               2.36153386                2.07062245               12.06249404                0.36773364               -0.17598004               -0.17944750                0.60693928                0.02568593                0.69439499               -1.05850043
               3.36030776                2.03032300               12.02099294                0.00010000               -1.00175176               -0.16207240                0.29769673                0.89127232                3.51925891               -1.44770104
               4.34149882                2.00543129               12.02624249                0.00010000               -1.12065908                0.25142384                0.34571262                1.71602066                3.63810084               -0.99821226
               5.33789458                1.98249839               11.99371175                0.00010000               -0.11432439                0.05896010               -0.06828592                1.47712120                1.32762826               -0.47041376
               6.33921234                1.95862661               11.95172951                0.00010000                0.48461428               -0.10279654               -0.37337644                1.44706693                2.41470475                0.06827198
               7.34758686                1.93987471               11.94094699                0.00010000                0.57316482               -0.03911069               -0.61473090                1.03363185                2.69075450                0.41267647
               8.35067563                1.91305272               11.90438526                0.42499842                0.30240228                0.29074952               -0.83989968                0.25048296                0.97414537                0.85574391
               9.35363491                1.88365616               11.85887130                1.00000000                0.34502222                0.36853744               -1.13617682                0.04203248                0.35949092                0.37071287
              10.35757608                1.85402468               11.81005681                1.00000000                0.39411682                0.41357995               -1.45446269               -0.01724771                0.19156809               -0.48318967
               0.40625165                3.14738768               12.15430081                1.00000000               -0.27720762               -0.35019999                1.11024736               -0.02844281                0.02777961                1.04968288
               1.40347958                3.10842154               12.09587049                1.00000000               -0.22821452               -0.23662426                0.77160489               -0.00958219                0.02957445               -0.03146197
               2.40168736                3.06901356               12.03740663                0.17404489               -0.10383195               -0.12767607                0.43464840               -0.02609028                0.88387874               -1.20231862
               3.40140294                3.02879621               11.99602112                0.00010000               -0.38086810               -0.00577130                0.13366020                0.88534715                3.61516817               -1.53903228
               4.39407000                3.00740088               11.99237237                0.00010000               -0.72899856                0.16665881                0.02535701                2.22070861                5.03038847               -2.07804434
               5.38682297                2.98191442               11.98111474                0.00010000               -0.53366363                0.06149155               -0.11773121                1.97581260                4.31364994               -1.08484374
               6.38339673                2.95794750               11.96552306                0.00010000               -0.24527278                0.04078815               -0.31591178                1.82511527                3.97684112                0.35597586
               7.38191751                2.93654810               11.94871434                0.00010000               -0.10603343               -0.12063987               -0.49884474                1.33494122                3.76435729                0.22419138
               8.38127606                2.91605117               11.92979807                0.25602836                0.08071065                0.29041753               -0.68416257                0.57529044                2.21766327                1.56221631
               9.38353172                2.88732403               11.88310898                1.00000000                0.28081731                0.33509939               -0.96919869                0.05770509                0.41105561                0.56264125
              10.38689241                2.85792542               11.82810117                1.00000000                0.33606817                0.37805867               -1.32325477               -0.02701352               -0.00717425               -0.37728794
               0.44437292                4.14400132               12.14146789                1.00000000               -0.23630906               -0.32539406                0.99396589               -0.02944558                0.02658459                1.01513045
               1.44200983                4.10624625               12.07757640                1.00000000               -0.18677714               -0.19482341                0.63118029               -0.00917125                0.02514455               -0.05170965
               2.44063738                4.06806893               12.01357932                0.08264311               -0.11912287               -0.06672901                0.26733030                0.02834551                1.32590624               -1.06931126
               3.43962738                4.03020758               11.97568868                0.00010000               -0.39212957                0.34848958               -0.20054782                0.66430584                4.70528296               -0.41436509
               4.43279479                4.00876447               11.97908198                0.00010000               -0.63815830                0.16272832               -0.12364838                1.38957456                6.31474661               -0.75333882
               5.42686421                3.98372822               11.97586147                0.00010000               -0.58569145                0.19876251               -0.17819906                1.29944388                5.79891358               -0.50202707
               6.42108096                3.95944237               11.97104778                0.00010000               -0.53410988                0.18805323               -0.27031938                1.27729475                5.60488456                0.03355609
               7.41618201                3.93746191               11.96603979                0.00010000               -0.48377285                0.14632301               -0.37288224                1.26859732                5.63429615                0.74091772
               8.41140550                3.91886107               11.96364959                0.25423848               -0.16336236                0.22434209               -0.46637581                0.60385438                2.93961053                1.72778852
               9.41291477                3.89035814               11.90639337                1.00000000                0.22137651                0.26874848               -0.80085618                0.03495783                0.09745125                0.51202475
              10.41583303                3.86158586               11.84721477                1.00000000                0.29182687                0.34868593               -1.17948504               -0.02432384                0.00063181               -0.32925739
               0.48117289                5.14087979               12.12802867                1.00000000               -0.19443402               -0.29360925                0.86832420               -0.03277382                0.08019362                0.94947865
               1.47922855                5.10452507               12.05916349                0.83783485               -0.14399721               -0.14669705                0.48668723               -0.01498227                0.13084235               -0.13585072
               2.47829294                5.06767898               11.99123857                0.03848734               -0.26175178               -0.00814337                0.11710493                0.25428255                2.72315244               -1.12046720
               3.47399351                5.03576600               11.97422855                0.00010000               -0.49760478                0.46030176               -0.27509019                0.63761416                5.94614962                0.05956671
               4.46834085                5.01065545               11.97185895                0.00010000               -0.59297846                0.23331021               -0.20326963                1.01701264                6.82452254               -0.36187120
               5.46213394                4.98588967               11.97460903                0.00010000               -0.65659543                0.24160836               -0.19568465                0.98916926                7.01810649               -0.21095436
               6.45520894                4.96170857               11.97852641                0.00010000               -0.71315909                0.24508719               -0.21460291                0.98080931                7.03815785                0.19285609
               7.44787076                4.93947456               11.98410374                0.00010000               -0.73760121                0.20353374               -0.23878044                1.02725583                7.13654942                0.76576240
               8.44045691                4.92053802               11.99233249                0.26629449               -0.31823315                0.12144738               -0.25309293                0.51190845                3.62034166                1.39556999
               9.44150610                4.89269900               11.92966316                0.97899586                0.17467959                0.20239136               -0.63026452                0.02117176                0.04006366                0.48544688
              10.44395051                4.86489914               11.86630199                1.00000000                0.24444088                0.31079222               -1.02442570               -0.02413787                0.00746936               -0.34232536
               0.51642689                6.13812913               12.11371260                1.00000000               -0.15158881               -0.25069247                0.73382150               -0.03556096                0.06831160                0.86683059
               1.51491101                6.10331231               12.03915088                0.70553528               -0.09723962               -0.09480719                0.32235729               -0.02162821                0.16597419               -0.27653775
               2.51448210                6.06790606               11.96647640                0.02409564               -0.27539088                0.05410885               -0.07650435                0.34723483                3.72552669               -1.36556492
               3.50940319                6.03941361               11.96314763                0.00010000               -0.57353611                0.32041842               -0.20560257                0.77287937                7.40609327               -0.64376421
               4.50301138                6.01343067               11.96638568                0.00010000               -0.69043545                0.30858928               -0.21908593                0.87647196                7.87919271               -0.35704445
               5.49559448                5.98856039               11.97497204                0.00010000               -0.79495608                0.30703147               -0.18159800                0.82984324                8.18308786               -0.11125050
               6.48711226                5.96434412               11.98694008                0.00010000               -0.88484005                0.28692328               -0.14449472                0.76689347                8.35156789                0.26029934
               7.47789768                5.94153259               12.00169064                0.00010000               -0.93465151                0.20103095               -0.10370680                0.77769611                8.50974360                0.73769943
               8.46841923                5.92129002               12.01951521                0.28311254               -0.44602991                0.03812388               -0.05233617                0.37620559                4.30024388                1.28912347
               9.46897708                5.89440597               11.95244192                0.90224636                0.12653902                0.14482415               -0.45873025                0.00928532                0.04420965                0.43890665
              10.47095001                5.86780170               11.88514895                1.00000000                0.19729277                0.26894535               -0.87687668               -0.02225542                0.03640030               -0.39564300
               0.55009532                7.13586594               12.09844591                1.00000000               -0.10762653               -0.19947191                0.59172532               -0.03413349                0.03561669                0.79867983
               1.54901906                7.10262893               12.01789876                0.63312589               -0.04794961               -0.04354412                0.15451875               -0.02123225                0.13717967               -0.36314471
               2.54913633                7.06876115               11.93932917                0.02686966               -0.25462881                0.11291900               -0.27709614                0.36683778                4.53489285               -1.55542581
               3.54392648                7.04217437               11.94681897                0.00010000               -0.62064118                0.28754913               -0.27220714                0.78228172                8.92713023               -0.96202419
               4.53672351                7.01682723               11.95902775                0.00010000               -0.80545594                0.37250917               -0.22309781                0.79018851                9.21491487               -0.47424310
               5.52781736                6.99203030               11.97534972                0.00010000               -0.95744469                0.39396824               -0.15256441                0.68587361                9.44228625               -0.10744379
               6.51757461                6.96744703               11.99532206                0.00010000               -1.06692917                0.34793729               -0.06806886                0.55192129                9.63961455                0.25968813
               7.50647878                6.94349518               12.01884236                0.00010000               -1.12334875                0.20501022                0.02903473                0.48194753                9.84773284                0.69809038
               8.49510764                6.92130049               12.04604051                0.30403704               -0.56493289               -0.03147948                0.14157577                0.20602549                4.97565324                1.23236921
               9.49518012                6.89559549               11.97473770                0.86605001                0.08031499                0.09356002               -0.29797921                0.00269728                0.03573222                0.38685145
              10.49671394                6.87027804               11.90309420                1.00000000                0.15338169                0.22679511               -0.73980767               -0.02171318                0.02248351               -0.46346625
               0.58221826                8.13413970               12.08259809                1.00000000               -0.06271073               -0.14685429                0.44724507               -0.03178881                0.01907542                0.76474209
               1.58159115                8.10244142               11.99614689                0.61340886                0.00275773                0.00622892               -0.01415689               -0.01586118                0.08089905               -0.40168556
               2.58227341                8.07016444               11.91089638                0.03606100               -0.23042046                0.16547430               -0.48057547                0.37400311                5.30060687               -1.57733024
               3.57698274                8.04516460               11.92897110                0.00010000               -0.66570945                0.33529191               -0.36392430                0.74640427               10.47308308               -0.93708645
               4.56895922                8.02088086               11.95070093                0.00010000               -0.91452939                0.45033743               -0.24196926                0.67056583               10.60529345               -0.45353152
               5.55869215                7.99643976               11.97515123                0.00010000               -1.11367104                0.47860364               -0.12431974                0.52215392               10.72031514               -0.10130948
               6.54668580                7.97130286               12.00305363                0.00010000               -1.25044946                0.44375872                0.00490602                0.32375118               10.91469081                0.21553021
               7.53368316                7.94563279               12.03517286                0.00535297               -1.31231885                0.25591643                0.15405184                0.11837875               11.19014298                0.59261591
               8.52043943                7.92066043               12.07204690                0.32958754               -0.68148450               -0.09344193                0.32714068               -0.00843245                5.65756511                1.14145270
               9.52005347                7.89627717               11.99639986                0.87437353                0.03555998                0.04208353               -0.13853632               -0.00055755                0.02203277                0.35615192
              10.52115063                7.87233760               11.92047929                1.00000000                0.10971511                0.18511469               -0.60111014               -0.02121427                0.01374178               -0.49952517
               0.61285609                9.13292886               12.06650775                1.00000000               -0.01789993               -0.09847705                0.30337065               -0.02889477                0.00880759                0.63548169
               1.61267709                9.10275351               11.97413979                0.63551864                0.05185646                0.05671299               -0.18246304               -0.00806629                0.09515219               -0.36446272
               2.61389322                9.07207064               11.88348422                0.03298701               -0.22694724                0.21199070               -0.67377567                0.39313569                6.16631949               -1.12896731
               3.60813815                9.04888021               11.91271585                0.00010000               -0.75167786                0.47317316               -0.43719148                0.56497317               11.99158764               -0.59608570
               4.59885966                9.02583398               11.94287316                0.00010000               -1.01498559                0.51745947               -0.26673467                0.43823900               11.87958524               -0.27087393
               5.58783844                9.00160237               11.97457254                0.00010000               -1.20015297                0.52971156               -0.10662551                0.31058054               11.90330204               -0.05637898
               6.57485660                8.97632221               12.00954456                0.00010000               -1.41748240                0.51463041                0.06478329                0.12462748               12.11363234                0.13230092
               7.55948879                8.94861350               12.04955302                0.01683348               -1.52809985                0.43707470                0.26238131               -0.16532138               12.52504411                0.35384198
               8.54429461                8.91943166               12.09669472                0.35833729               -0.79984950               -0.14226382                0.49770493               -0.29000353                6.43069216                0.78195743
               9.54349180                8.89643716               12.01799142                0.93057184               -0.00629080               -0.00811750                0.01604608               -0.00512542                0.05724414                0.31227674
              10.54416879                8.87398034               11.93754918                0.96779602                0.06769937                0.14493878               -0.46688219               -0.02161417               -0.02369351               -0.42291212
               0.64199107               10.13217015               12.04795600                1.00000000                0.02969749               -0.07587041                0.15700631                0.05405065                0.35777475                0.51763581
               1.64228804               10.10357568               11.95318202                0.84793043                0.10091771                0.08221779               -0.34176377                0.07280006                0.64984077               -0.31670521
               2.64400942               10.07440425               11.86426180                0.52245280               -0.38845909                0.23336123               -0.82568065                0.56423907                7.20603861               -0.73428925
               3.63451886               10.05462806               11.90082659                0.35883916               -0.95037896                0.57478505               -0.50575706                0.47936123               13.09678909               -0.26730511
               4.62500184               10.03123005               11.93670397                0.35378845               -1.00516601                0.53960644               -0.30405847                0.23451450               12.87413621               -0.09626901
               5.61441554               10.00703399               11.97376128                0.37568034               -1.14173134                0.54316194               -0.10650988                0.17598189               12.88856826                0.01872432
               6.60216722                9.98159547               12.01416591                0.42179188               -1.35741277                0.52732663                0.10431712                0.09807613               13.13723206                0.11942190
               7.58726729                9.95437428               12.06010999                0.51312357               -1.76757571                0.57607800                0.34426922               -0.41116596               13.69383193                0.24687646
               8.56681570                9.91781515               12.11541832                0.69234599               -1.09325016               -0.16165016                0.63153827               -0.66086346                7.35157103                0.49466199
               9.56540228                9.89611482               12.03867947                1.00000000               -0.05918624               -0.03223337                0.15928186                0.06210986                0.46800404                0.27282680
              10.56563198                9.87523638               11.95628181                1.00000000                0.02296949                0.12560408               -0.32833496                0.05847437                0.19155921               -0.33204047
               0.32971484                0.18288320               13.21139222                1.00000000               -0.37834048               -0.41705337                1.44682240               -0.07385533               -0.57563227                0.61788731
               1.32593143                0.13558893               13.16022549                1.00000000               -0.31224346               -0.32934335                1.15397424               -0.05708025               -0.71250617                0.02613789
               2.32346997                0.08807495               13.10622747                1.00000000               -0.16795123               -0.24401864                0.83812984               -0.04191201               -0.64643686               -0.18612665
               3.32257241                0.04160131               13.05632564                0.61676612                0.31248803               -0.18622899                0.54493142                0.44335946                0.33281477               -0.43914318
               4.32971973                0.00637794               13.02186880                0.67997621                0.48336695               -0.10250716                0.23953515               -0.02422078                0.95454448                0.05646367
               5.33223975               -0.02093670               12.98432989                0.75121947                0.16763788                0.01036980               -0.07980570                0.00656914                0.60157298                0.03514256
               6.33307249               -0.04708892               12.94304516                0.73870594                0.04345381                0.10754839               -0.40919935                0.00868678                0.44012456               -0.02335965
               7.33310883               -0.07509097               12.90237535                0.84181059                0.04360534                0.21095025               -0.74851497                0.05788422                0.20713218                0.03325564
               8.33394459               -0.10755730               12.85644479                1.00000000                0.19399743                0.32768418               -1.07230298                0.04378153               -0.22273204                0.35395618
               9.33698877               -0.14279279               12.80726881                1.00000000                0.37454015                0.39941310               -1.38437928               -0.05089072               -0.39410846                0.01935071
              10.34143540               -0.17821378               12.75806085                1.00000000                0.44466240                0.48451557               -1.68386487               -0.07859118               -0.40286028               -0.42560759
               0.37627055                1.17871266               13.19300154                1.00000000               -0.35057959               -0.39802298                1.31429510               -0.03160624               -0.06768589                0.84306032
               1.37276476                1.13229550               13.14141373                1.00000000               -0.31129461               -0.30705326                1.02261750               -0.01243633               -0.01654102                0.04157744
               2.37004466                1.08563476               13.09078142                0.77110570               -0.24551230               -0.22054614                0.72313850                0.02241174                0.21375269               -0.52427112
               3.36785451                1.03973902               13.04378561                0.09752518               -0.46490642               -0.17838947                0.42502809                0.61785485                1.51664454               -0.80321324
               4.36074653                1.00535287               13.01930961                0.23088078               -0.44078205                0.08857440                0.19914869                0.15758197                2.15196563                0.69521384
               5.35903887                0.97916699               12.98621128                0.30675843               -0.02550197                0.08966793               -0.08826562                0.33260218                1.48872924                0.28280292
               6.36023649                0.95398657               12.94894285                0.21707467                0.24414954               -0.00432890               -0.38975836                0.31666991                1.34696690               -0.36471570
               7.36392186                0.92701853               12.91330656                0.38229046                0.39984137                0.22457211               -0.68246012                0.42320387                1.27677427                0.55920910
               8.36823332                0.89571954               12.87495094                1.00000000                0.39431233                0.30316457               -0.96207205                0.16723067                0.64318324                0.47810867
               9.37180811                0.86120134               12.82680264                1.00000000                0.39185773                0.38284234               -1.25734334               -0.00151534                0.09395368                0.07552518
              10.37607047                0.82663138               12.77754691                1.00000000                0.42623677                0.45736399               -1.55622160               -0.03084898                0.03361089               -0.50482152
               0.42191704                2.17492274               13.17898642                1.00000000               -0.31564373               -0.36562294                1.20316225               -0.02820320                0.02960201                1.08670310
               1.41876061                2.12944787               13.12283413                1.00000000               -0.27211826               -0.26837394                0.89489909               -0.00537424                0.12500486                0.02163229
               2.41647468                2.08366403               13.06854118                0.38282571               -0.17746026               -0.18087630                0.60200239                0.03434047                0.70516119               -1.08990605
               3.41521140                2.03803352               13.02397454                0.00010000               -1.15156408               -0.16232826                0.29801042                0.92036091                3.68264906               -1.50495650
               4.39344340                2.00814943               13.02929196                0.00010000               -1.24766545                0.25031554                0.28003896                1.78247206                3.82859603               -1.03727377
               5.39025809                1.98085665               12.99297574                0.00010000               -0.09445226                0.04275872               -0.07652871                1.54177509                1.34984134               -0.47182647
               6.39155435                1.95282450               12.94802767                0.00010000                0.47909175               -0.11388347               -0.36817325                1.47412615                2.50181054                0.07856307
               7.39983993                1.92940047               12.93481836                0.00010000                0.57760221               -0.05521977               -0.61045801                1.04905671                2.79195240                0.44485116
               8.40310640                1.89850599               12.89602884                0.43153872                0.31033516                0.28942364               -0.83191381                0.26296854                1.04456417                0.89826200
               9.40604663                1.86486405               12.84756811                1.00000000                0.34259735                0.36537172               -1.12482425                0.04433420                0.38297741                0.38927737
              10.40995834                1.83093350               12.79558334                1.00000000                0.39117124                0.40703281               -1.44047362               -0.01618447                0.20374941               -0.51869611
               0.46665623                3.17140020               13.16530387                1.00000000               -0.27402482               -0.34097109                1.09159764               -0.02582282                0.02921606                1.09650609
               1.46391598                3.12692802               13.10354028                1.00000000               -0.22552088               -0.23360869                0.76250733               -0.00631748                0.03149757               -0.03021588
               2.46214581                3.08201724               13.04176246                0.18678320               -0.10698269               -0.13166287                0.43559001               -0.01275952                0.90271362               -1.25541953
               3.46177633                3.03649246               12.99737782                0.00010000               -0.42864858               -0.03083516                0.13645167                0.94500986                3.74374495               -1.69452669
               4.45357284                3.01035918               12.99257156                0.00010000               -0.82885172                0.17494534                0.01651007                2.39129822                5.24603187               -2.25658912
               5.44519929                2.98002217               12.97989014                0.00010000               -0.61988191                0.05545799               -0.12539733                2.09256839                4.50557492               -1.12725763
               6.44117520                2.95170890               12.96238581                0.00010000               -0.29888924                0.01497760               -0.31174314                1.91385376                4.14938903                0.38187062
               7.43922151                2.92591413               12.94376721                0.00010000               -0.15730496               -0.12807897               -0.49131448                1.40382523                3.93857204                0.28283229
               8.43802910                2.90150801               12.92299845                0.25484090                0.05228861                0.29068126               -0.67726541                0.59980501                2.33661148                1.64374039
               9.44026728                2.86850877               12.87345759                1.00000000                0.27893951                0.33267377               -0.96169341                0.06060430                0.44648409                0.59555108
              10.44360789                2.83477203               12.81491789                1.00000000                0.33406126                0.37318257               -1.31401590               -0.02608202               -0.00535143               -0.39956948
               0.51034496                4.16810332               13.15130353                1.00000000               -0.23277338               -0.31663584                0.97446337               -0.02690621                0.02777957                1.05423829
               1.50801722                4.12477569               13.08385174                1.00000000               -0.18449540               -0.19275331                0.62383277               -0.00631076                0.02530117               -0.05570151
               2.50665505                4.08103077               13.01628367                0.09343183               -0.11237833               -0.07092848                0.27212105                0.02110035                1.27490791               -1.11149044
               3.50576966                4.03741682               12.97379870                0.00010000               -0.44576997                0.32505958               -0.17621609                0.70265761                4.86792550               -0.54335541
               4.49773965                4.01164833               12.97782312                0.00010000               -0.75049578                0.16105075               -0.12878051                1.47081222                6.69175919               -0.83074694
               5.49075974                3.98196581               12.97408838                0.00010000               -0.69000933                0.21084383               -0.17696383                1.36397197                6.10174266               -0.53369845
               6.48393946                3.95312406               12.96837493                0.00010000               -0.63212130                0.19112956               -0.26485241                1.32763348                5.88535215                0.05687469
               7.47811732                3.92683889               12.96234503                0.00010000               -0.57158040                0.15222352               -0.36674126                1.31563165                5.91199232                0.80513772
               8.47250786                3.90431962               12.95899155                0.25094775               -0.20613087                0.22468628               -0.46557543                0.62617590                3.10147956                1.83320592
               9.47399470                3.87151753               12.89840278                1.00000000                0.22011647                0.26714064               -0.79835545                0.03630895                0.11933551                0.54443076
              10.47691019                3.83839715               12.83544237                1.00000000                0.29154868                0.34730288               -1.17635017               -0.02312419                0.00063159               -0.34011481
               0.55277335                5.16506749               13.13660279                1.00000000               -0.19110391               -0.28496470                0.84791223               -0.03046865                0.08624186                0.97950032
               1.55086231                5.12307295               13.06400289                0.82735725               -0.14233300               -0.14514278                0.48093189               -0.01236039                0.14241215               -0.15156633
               2.54992669                5.08059867               12.99246328                0.04739321               -0.28251985               -0.01262914                0.12585648                0.25303734                2.70650602               -1.17500515
               3.54521191                5.04299365               12.97113722                0.00010000               -0.57433008                0.48213840               -0.34450914                0.64219841                6.18913563                0.12045748
               4.53844009                5.01358019               12.96980344                0.00010000               -0.71044528                0.24243790               -0.20969928                1.07716266                7.28463492               -0.36972877
               5.53100301                4.98423905               12.97267210                0.00010000               -0.77926457                0.25733912               -0.19311428                1.02398651                7.41475400               -0.20719080
               6.52285480                4.95553149               12.97641471                0.00010000               -0.83322135                0.26344429               -0.20869860                1.00887112                7.41566540                0.22605655
               7.51433858                4.92895860               12.98173683                0.00010000               -0.84904097                0.21740164               -0.23511694                1.05890957                7.51415534                0.83192457
               8.50587398                4.90600174               12.98978099                0.26227517               -0.37113295                0.12246526               -0.25777369                0.52656644                3.82119335                1.49124914
               9.50691592                4.87385159               12.92332002                0.96370698                0.17560934                0.20358091               -0.63804487                0.02134530                0.05335775                0.52041792
              10.50938617                4.84171809               12.85601924                1.00000000                0.24702424                0.31353204               -1.03188287               -0.02302107                0.01362589               -0.35087032
               0.59372466                6.16240402               13.12093904                1.00000000               -0.14858178               -0.24220393                0.71315679               -0.03323711                0.06845868                0.88886855
               1.59223884                6.12187284               13.04235971                0.69693125               -0.09647769               -0.09403183                0.31903927               -0.01845979                0.17185140               -0.30327367
               2.59179510                6.08077819               12.96579210                0.03076541               -0.33033683                0.04852137               -0.06277014                0.37314047                3.86006903               -1.44417018
               3.58563210                6.04705959               12.96099516                0.00010000               -0.68787965                0.35297877               -0.23387653                0.80399117                7.74735552               -0.54921337
               4.57803751                6.01649709               12.96415865                0.00010000               -0.81719612                0.32946930               -0.22954015                0.92307331                8.32052772               -0.32067588
               5.56928818                5.98711260               12.97317755                0.00010000               -0.93200893                0.33395023               -0.17917794                0.86146740                8.64666990               -0.08144399
               6.55939733                5.95839294               12.98552452                0.00010000               -1.02314603                0.31526467               -0.13973959                0.78407945                8.81209444                0.30341929
               7.54882526                5.93118692               13.00066021                0.00010000               -1.06255636                0.22107829               -0.10287596                0.79305948                8.97414795                0.80170702
               8.53814620                5.90676892               13.01894471                0.27898624               -0.50600013                0.03992400               -0.06201249                0.38274693                4.54106823                1.37463956
               9.53870525                5.87558915               12.94779963                0.88778447                0.12852777                0.14823740               -0.47008892                0.01017853                0.05249707                0.47179629
              10.54071676                5.84466779               12.87630505                1.00000000                0.20115028                0.27438307               -0.89115393               -0.02172967                0.03855879               -0.40895286
               0.63317098                7.16022341               13.10425388                1.00000000               -0.10520271               -0.19189424                0.57177763               -0.03184886                0.03427972                0.81581529
               1.63211895                7.12119232               13.01945123                0.62583917               -0.04841143               -0.04380045                0.15541042               -0.01772225                0.13810002               -0.39143177
               2.63220275                7.08156909               12.93667987                0.03090686               -0.32730588                0.10548142               -0.25571789                0.41152406                4.74693395               -1.63765549
               3.62557283                7.05005322               12.94410691                0.00010000               -0.76771013                0.31099875               -0.27615442                0.85577215                9.38505757               -0.95287072
               4.61684855                7.02016958               12.95680167                0.00010000               -0.96181633                0.40930399               -0.22540177                0.85462829                9.71701518               -0.43485748
               5.60633651                6.99091805               12.97384461                0.00010000               -1.11932416                0.43825095               -0.15024779                0.72222435                9.96423462               -0.06812750
               6.59446206                6.96183678               12.99466212                0.00010000               -1.22563564                0.39038174               -0.06499858                0.56154842               10.17309615                0.30462851
               7.58182379                6.93338017               13.01912415                0.00010000               -1.26676866                0.23294870                0.02685223                0.47797964               10.39188740                0.75631554
               8.56912669                6.90680022               13.04738265                0.30020944               -0.63015856               -0.02916996                0.12734879                0.20015621                5.25210566                1.31032891
               9.56922062                6.87681633               12.97168984                0.85161546                0.08337969                0.09761748               -0.31205015                0.00344557                0.03830115                0.41316210
              10.57079428                6.84720575               12.89562783                1.00000000                0.15736615                0.23366358               -0.75502244               -0.02081571                0.02404059               -0.48004723
               0.67114986                8.15856614               13.08696906                1.00000000               -0.06111570               -0.14068293                0.42893883               -0.02976203                0.01737476                0.78067430
               1.67053871                8.12099683               12.99604046                0.60689424                0.00074054                0.00469910               -0.00811076               -0.01278725                0.07654071               -0.42973512
               2.67116467                8.08288782               12.90626545                0.03707526               -0.31958235                0.15565461               -0.44949847                0.43803148                5.57322045               -1.65466891
               3.66414706                8.05327956               12.92536612                0.00010000               -0.84497127                0.36885671               -0.35959194                0.85119326               11.04178950               -0.93386790
               4.65426525                8.02468317               12.94829254                0.00010000               -1.10407982                0.51066727               -0.24077757                0.74653652               11.18573928               -0.42459201
               5.64206546                7.99587762               12.97392379                0.00010000               -1.30495348                0.54398755               -0.12214355                0.55911362               11.30788150               -0.06674424
               6.62816618                7.96620058               13.00311212                0.00010000               -1.43220248                0.50549570                0.00600357                0.32378079               11.51738961                0.25233101
               7.61342141                7.93584589               13.03668822                0.00515906               -1.47265090                0.29714960                0.14885212                0.08847484               11.81169417                0.63776201
               8.59871316                7.90618552               13.07522622                0.32650046               -0.75263894               -0.09019734                0.30938312               -0.03226212                5.97144452                1.20736375
               9.59836863                7.87754150               12.99492068                0.85952032                0.04042243                0.04673421               -0.15711902               -0.00132298                0.02079602                0.37966413
              10.59952161                7.84934106               12.91436261                1.00000000                0.11529755                0.19392439               -0.62234169               -0.02063972                0.01381133               -0.51798031
               0.70771435                9.15740975               13.06945036                1.00000000               -0.01728273               -0.09345453                0.28714297               -0.02738648                0.00568529                0.64995536
               1.70754153                9.12128630               12.97238197                0.62887976                0.04831445                0.05349270               -0.17065694               -0.00632053                0.08949286               -0.38746610
               2.70868064                9.08468219               12.87697814                0.03029814               -0.33700928                0.19982798               -0.63257717                0.48725629                6.50462231               -1.18017140
               3.70080134                9.05743036               12.90834724                0.00010000               -0.97497099                0.54838631               -0.43386535                0.66987154               12.66120987               -0.58291605
               4.68918122                9.03038292               12.94019919                0.00010000               -1.23999843                0.59955086               -0.26640907                0.49896130               12.52880499               -0.25249933
               5.67600137                9.00179780               12.97351089                0.00010000               -1.41059115                0.61056502               -0.10559406                0.33469339               12.55751712               -0.03591843
               6.66096940                8.97194670               13.01019108                0.00010000               -1.61965135                0.59146883                0.06407180                0.11792202               12.78591054                0.15296624
               7.64360835                8.93932316               13.05213630                0.01744200               -1.70917779                0.50491148                0.25435929               -0.20950345               13.22376609                0.37695954
               8.62678585                8.90499627               13.10155948                0.35641492               -0.87848629               -0.13600781                0.47662578               -0.33700994                6.78763557                0.82119720
               9.62603862                8.87775102               13.01805304                0.91567212               -0.00017440               -0.00280934               -0.00461973               -0.00736347                0.05777602                0.32905604
              10.62678236                8.85108424               12.93276768                0.96979229                0.07437365                0.15479593               -0.49192870               -0.02098899               -0.02414144               -0.43915179
               0.74284904               10.15669705               13.04945078                1.00000000                0.02908212               -0.07127043                0.14376857                0.05043188                0.36203771                0.53002644
               1.74313986               10.12206668               12.94985745                0.84512699                0.09583508                0.07803836               -0.32515549                0.06919959                0.66127649               -0.33447411
               2.74476574               10.08688437               12.85626019                0.52043244               -0.56480533                0.22021876               -0.78016955                0.71753994                7.60688696               -0.76343789
               3.73184375               10.06424729               12.89574943                0.35965255               -1.24443534                0.68169306               -0.50391342                0.59373175               13.84956466               -0.25823034
               4.71987703               10.03667419               12.93365003                0.35406947               -1.23240964                0.62912640               -0.30380131                0.26166223               13.58853076               -0.08785522
               5.70719556               10.00808892               12.97269990                0.37560406               -1.34388864                0.62911157               -0.10526060                0.18720688               13.61332284                0.02897918
               6.69299926                9.97802995               13.01520566                0.42157627               -1.55068959                0.60832581                0.10313384                0.09574627               13.88306800                0.13053753
               7.67618177                9.94594412               13.06350418                0.51377563               -1.97270774                0.66209636                0.33448305               -0.47088730               14.46995651                0.25995179
               8.65354511                9.90346537               13.12160365                0.69200332               -1.20241847               -0.15309070                0.60626555               -0.74701469                7.75862700                0.51511312
               9.65213340                9.87748531               13.04016621                0.99380055               -0.05548580               -0.02657075                0.13737893                0.05805863                0.49083274                0.28444871
              10.65243539                9.85243698               12.95288606                1.00000000                0.03019906                0.13527437               -0.35646969                0.06047034                0.20675609               -0.34363069
               0.37643086                0.20826013               14.22576831                1.00000000               -0.37405498               -0.41106565                1.42947082               -0.07350342               -0.60544929                0.64584885
               1.37269031                0.15534931               14.17170457                1.00000000               -0.30877018               -0.32565246                1.14214777               -0.05752124               -0.75372033                0.03188321
               2.37025546                0.10222523               14.11459294                1.00000000               -0.16552617               -0.24218587                0.83422084               -0.04162439               -0.68836027               -0.18847902
               3.36937979                0.05018556               14.06178504                0.61927522                0.31555351               -0.18610619                0.54556990                0.45856909                0.29377762               -0.47072192
               4.37656653                0.00977409               14.02427778                0.68628967                0.48009176               -0.09205665                0.24219480               -0.03155269                0.90212430                0.07055443
               5.37898162               -0.02238966               13.98356289                0.76046249                0.16023387                0.01350810               -0.07387601                0.00774453                0.54047640                0.04230671
               6.37977121               -0.05334217               13.93901534                0.74629820                0.04137007                0.10687794               -0.39745971                0.00947817                0.37073789               -0.02813598
               7.37980902               -0.08600922               13.89497748                0.84693862                0.04210034                0.20807057               -0.73165376                0.05520659                0.14139588                0.03573120
               8.38061321               -0.12301675               13.84581915                1.00000000                0.18891777                0.32310580               -1.05307526                0.04190784               -0.27289220                0.36569265
               9.38358738               -0.16277551               13.79353140                1.00000000                0.36749196                0.39399928               -1.36317619               -0.05048212               -0.43090801                0.01814947
              10.38796305               -0.20274391               13.74134133                1.00000000                0.43756710                0.47788093               -1.65995540               -0.07733675               -0.43298646               -0.45540572
               0.42860665                1.20414948               14.20605983                1.00000000               -0.34740937               -0.39115425                1.29837833               -0.03190513               -0.07353750                0.88060827
               1.42513255                1.15209279               14.15158417                1.00000000               -0.30927773               -0.30322470                1.01179582               -0.01318616               -0.02637124                0.04889631
               2.42242109                1.09980337               14.09799040                0.78261800               -0.24707533               -0.21909668                0.71823702                0.02364619                0.20117615               -0.52926760
               3.42019105                1.04832450               14.04804466                0.10769173               -0.49412393               -0.17769484                0.42587613                0.64401676                1.54011091               -0.83791337
               4.41253861                1.00885353               14.02129452                0.24620875               -0.47869212                0.08248858                0.19788898                0.09619671                2.19021228                0.75652969
               5.41061720                0.97774542               13.98533975                0.32529127               -0.04314227                0.08863370               -0.08627195                0.30235741                1.49589107                0.29837522
               6.41167577                0.94772661               13.94508482                0.23183483                0.22905885                0.00485427               -0.38249745                0.29803964                1.35359691               -0.36816098
               7.41519838                0.91607148               13.90654383                0.39379235                0.38698332                0.21601529               -0.67065139                0.40517063                1.29257017                0.56442731
               8.41941543                0.88021431               13.86539776                1.00000000                0.38738796                0.29936039               -0.94888169                0.16484757                0.65471029                0.49959330
               9.42294614                0.84116449               13.81430880                1.00000000                0.38713277                0.37811292               -1.24163388               -0.00134173                0.09592853                0.07725283
              10.42715809                0.80203490               13.76207759                1.00000000                0.42119495                0.45118486               -1.53770994               -0.03008149                0.03374108               -0.54018133
               0.47990613                2.20043705               14.19093299                1.00000000               -0.31334358               -0.35743923                1.18716529               -0.02739738                0.03006793                1.13332932
               1.47677270                2.14928482               14.13173214                1.00000000               -0.27047295               -0.26465878                0.88501809               -0.00376804                0.13243333                0.02817276
               2.47449667                2.09784329               14.07453409                0.39701260               -0.17813662               -0.18203441                0.59620163                0.04149271                0.71450218               -1.11871946
               3.47320996                2.04663166               14.02695315                0.00010000               -1.27135656               -0.16214909                0.29693961                0.94291302                3.81710169               -1.55964872
               4.44906954                2.01142387               14.03184327                0.00010000               -1.35271347                0.24422026                0.24015306                1.83455276                4.00084335               -1.07211807
               5.44615569                1.97938301               13.99218118                0.00010000               -0.08318044                0.02556022               -0.08113929                1.59170288                1.38785369               -0.47381787
               6.44740593                1.94675491               13.94436605                0.00010000                0.46345214               -0.12444755               -0.36493323                1.48798723                2.58421832                0.09268167
               7.45542474                1.91831108               13.92873783                0.00010000                0.57056144               -0.06967066               -0.60566053                1.05467401                2.89292117                0.48064084
               8.45881716                1.88297046               13.88774698                0.43825406                0.31576086                0.28744809               -0.82491190                0.26890681                1.11560661                0.94293872
               9.46173995                1.84478675               13.83637482                1.00000000                0.34017181                0.36179483               -1.11422937                0.04525776                0.40711059                0.40947865
              10.46562060                1.80627979               13.78124734                1.00000000                0.38806438                0.40200498               -1.42703896               -0.01536155                0.21615240               -0.55339940
               0.53036315                3.19700069               14.17613276                1.00000000               -0.27122075               -0.33249403                1.07529548               -0.02380965                0.03108218                1.13897127
               1.52765095                3.14679961               14.11112064                1.00000000               -0.22295253               -0.23076039                0.75384942               -0.00374957                0.03423850               -0.02930731
               2.52590410                3.09616268               14.04611843                0.19933910               -0.10911061               -0.13524983                0.43517346               -0.00130967                0.91871368               -1.30369913
               3.52546873                3.04508152               13.99875015                0.00010000               -0.47128913               -0.05252983                0.13724596                0.99058600                3.86082876               -1.83513886
               4.51647832                3.01373793               13.99270257                0.00010000               -0.91742588                0.17468952                0.01151544                2.52229281                5.44997832               -2.40435711
               5.50712022                2.97825662               13.97860680                0.00010000               -0.69854402                0.04446419               -0.12980818                2.18456443                4.69486289               -1.16046871
               6.50250744                2.94523765               13.95928820                0.00010000               -0.35219497               -0.01019718               -0.30799909                1.97734371                4.32212229                0.41307053
               7.50007632                2.91467807               13.93888805                0.00010000               -0.20947684               -0.13580200               -0.48528917                1.45530526                4.10924034                0.34769580
               8.49831790                2.88596327               13.91625276                0.25404482                0.02328244                0.28860982               -0.67298674                0.61412452                2.45426874                1.72838072
               9.50054197                2.84840038               13.86387511                1.00000000                0.27734437                0.32987911               -0.95539736                0.06112154                0.48203788                0.63048883
              10.50386479                2.81007500               13.80182086                1.00000000                0.33228248                0.37012122               -1.30585356               -0.02524448               -0.00353762               -0.42192536
               0.57983209                4.19378717               14.16095716                1.00000000               -0.22963780               -0.30832033                0.95745730               -0.02503670                0.02953620                1.08828958
               1.57753572                4.14466961               14.09005306                1.00000000               -0.18217584               -0.19069189                0.61636921               -0.00417561                0.02624260               -0.06017227
               2.57618858                4.09513830               14.01902175                0.10399901               -0.10446428               -0.07461200                0.27453060                0.01480407                1.23029060               -1.15002044
               3.57544643                4.04558107               13.97216436                0.00010000               -0.49241429                0.29485908               -0.15089262                0.73733452                5.01316656               -0.70534047
               4.56634029                4.01491766               13.97650637                0.00010000               -0.85495844                0.15937062               -0.13388022                1.53557887                7.04584193               -0.90254282
               5.55834726                3.98027230               13.97232219                0.00010000               -0.79044659                0.22000309               -0.17629775                1.41654211                6.40178233               -0.55600312
               6.55053136                3.94655097               13.96575073                0.00010000               -0.72710162                0.19212214               -0.26049163                1.36364122                6.16215555                0.08588553
               7.54380523                3.91559504               13.95870497                0.00010000               -0.65770094                0.15598959               -0.36207169                1.34514795                6.18424361                0.87320530
               8.53737734                3.88874265               13.95433808                0.24810068               -0.24772867                0.22232862               -0.46576141                0.63844873                3.26125889                1.94027952
               9.53885066                3.85138433               13.89042626                1.00000000                0.21945693                0.26550661               -0.79732329                0.03662950                0.14178220                0.57664124
              10.54176648                3.81368221               13.82368776                1.00000000                0.29158233                0.34720299               -1.17478957               -0.02222255                0.00041465               -0.35292802
               0.62809753                5.19083429               14.14498692                1.00000000               -0.18812247               -0.27658743                0.83018147               -0.02871862                0.09234411                1.00445913
               1.62621630                5.14298578               14.06878213                0.81756659               -0.14043994               -0.14355586                0.47439661               -0.01022931                0.15418145               -0.16736504
               2.62528873                5.09467044               13.99375570                0.05623808               -0.28901198               -0.01661201                0.13052444                0.24261889                2.64501248               -1.22508258
               3.62043606                5.05097870               13.96733837                0.00010000               -0.63950304                0.49392958               -0.40949222                0.63961119                6.41135078                0.15393922
               4.61249867                5.01692535               13.96766496                0.00010000               -0.83091587                0.25506338               -0.21867345                1.12886173                7.76817676               -0.37850262
               5.60381775                4.98265668               13.97074674                0.00010000               -0.90205769                0.27433512               -0.19270921                1.04847465                7.80877982               -0.19930361
               6.59445751                4.94908010               13.97435244                0.00010000               -0.95150777                0.28070647               -0.20462734                1.02406498                7.78798387                0.26335466
               7.58478759                4.91779786               13.97940140                0.00010000               -0.95799637                0.22921800               -0.23281521                1.07424797                7.88388611                0.90092572
               8.57529759                4.89040984               13.98717702                0.25873819               -0.42262967                0.12192467               -0.26322612                0.53182435                4.01783783                1.58811779
               9.57633500                4.85371051               13.91690226                0.94762054                0.17634995                0.20438707               -0.64517151                0.02126232                0.06689713                0.55490247
              10.57882459                4.81701906               13.84566433                1.00000000                0.24895888                0.31659234               -1.03844660               -0.02195270                0.02056448               -0.36149868
               0.67495474                6.18825542               14.12797574                1.00000000               -0.14597651               -0.23410266                0.69565315               -0.03125768                0.06845039                0.90647038
               1.67349497                6.14179850               14.04553166                0.68897956               -0.09533532               -0.09331172                0.31496981               -0.01553019                0.17759357               -0.32882331
               2.67304803                6.09480606               13.96522100                0.03755718               -0.37556130                0.04321283               -0.05375975                0.38958801                3.96235524               -1.51580684
               3.66598375                6.05545966               13.95847010                0.00010000               -0.79042471                0.38836477               -0.27936241                0.81413216                8.06536537               -0.42435478
               4.65723954                6.02001892               13.96179488                0.00010000               -0.94108727                0.35354236               -0.24509033                0.95633894                8.76993957               -0.28167235
               5.64716200                5.98575900               13.97138848                0.00010000               -1.06840289                0.36324075               -0.18000857                0.87850165                9.10965224               -0.04940981
               6.63587148                5.95216510               13.98414528                0.00010000               -1.16007786                0.34359523               -0.13720805                0.78599449                9.26633294                0.34888840
               7.62396045                5.92017940               13.99963312                0.00010000               -1.18851529                0.23978057               -0.10340760                0.79122250                9.42933529                0.86766773
               8.61210118                5.89118115               14.01827497                0.27535143               -0.56468802                0.04078631               -0.07217501                0.37895705                4.77776745                1.46137773
               9.61266669                5.85547207               13.94304014                0.87297269                0.13045825                0.15135826               -0.48160836                0.00994409                0.06077501                0.50592667
              10.61471034                5.82001406               13.86732587                1.00000000                0.20436550                0.28002414               -0.90411021               -0.02109193                0.03998325               -0.42241012
               0.72038622                7.18615223               14.10988146                1.00000000               -0.10311596               -0.18493591                0.55530790               -0.02985781                0.03311022                0.82921530
               1.71935506                7.14111954               14.02100697                0.61918205               -0.04834473               -0.04412570                0.15520946               -0.01434657                0.13921895               -0.41746026
               2.71941933                7.09553470               13.93421481                0.03527422               -0.39246110                0.09833709               -0.23972857                0.44952895                4.93566015               -1.71096814
               3.71150584                7.05874599               13.94129588                0.00010000               -0.90466092                0.33936248               -0.29252336                0.91345930                9.81676223               -0.92492177
               4.70132611                7.02399619               13.95451971                0.00010000               -1.11321165                0.44862848               -0.23410066                0.90261499               10.21268544               -0.38848696
               5.68924161                6.98992150               13.97234477                0.00010000               -1.27845549                0.48397958               -0.15129549                0.74120044               10.48092478               -0.02713273
               6.67575700                6.95595200               13.99402209                0.00010000               -1.38228069                0.43277131               -0.06415476                0.55348287               10.69909963                0.35076991
               7.66159599                6.92259347               14.01937940                0.00010000               -1.40864704                0.25982360                0.02339820                0.45580339               10.92607745                0.81595880
               8.64758406                6.89122557               14.04858749                0.29682505               -0.69475121               -0.02751355                0.11345514                0.18394477                5.52456833                1.38985298
               9.64770097                6.85673768               13.96849669                0.83719576                0.08673635                0.10175901               -0.32705926                0.00301467                0.04154343                0.44077332
              10.64931878                6.82261954               13.88799375                1.00000000                0.16178159                0.24120427               -0.77214339               -0.02018177                0.02540827               -0.49670590
               0.76442296                8.18455670               14.09117687                1.00000000               -0.05973854               -0.13529928                0.41416379               -0.02805380                0.01598986                0.79341774
               1.76382558                8.14091598               13.99598468                0.60105861               -0.00054014                0.00338232               -0.00395976               -0.00998952                0.07301998               -0.45493902
               2.76441216                8.09677280               13.90190641                0.03870050               -0.40170699                0.14688889               -0.42561516                0.49659965                5.82302653               -1.72225273
               3.75579144                8.06224691               13.92177926                0.00010000               -1.01479141                0.40462906               -0.36155657                0.94270724               11.57987940               -0.92411135
               4.74411633                8.02899149               13.94588538                0.00010000               -1.28806175                0.57151569               -0.24256279                0.80688404               11.75309152               -0.39302279
               5.73003020                7.99543859               13.97270836                0.00010000               -1.49235839                0.60931952               -0.12215697                0.57921577               11.88649436               -0.03178530
               6.71426917                7.96082052               14.00317370                0.00010000               -1.61136266                0.56679971                0.00534478                0.30648469               12.11130319                0.28939546
               7.69780295                7.92537588               14.03814990                0.00508724               -1.63166498                0.33716346                0.14275740                0.04050310               12.42303548                0.68410153
               8.68163587                7.89063087               14.07823456                0.32369601               -0.82349721               -0.08736999                0.29203580               -0.06610503                6.28171865                1.27588975
               9.68133301                7.85750726               13.99325748                0.84470919                0.04535602                0.05175336               -0.17596440               -0.00272920                0.02057729                0.40472778
              10.68254299                7.82483814               13.90803245                1.00000000                0.12099798                0.20271568               -0.64429144               -0.02001623                0.01406299               -0.53768982
               0.80710658                9.18344625               14.07225061                1.00000000               -0.01674106               -0.08934314                0.27436915               -0.02612987                0.00313094                0.66193139
               1.80693917                9.14118719               13.97072665                0.62296289                0.04569048                0.05096234               -0.16178225               -0.00475900                0.08518744               -0.40783375
               2.80802039                9.09847248               13.87083268                0.02849038               -0.43989419                0.18992975               -0.60076280                0.57472045                6.81667541               -1.22428745
               3.79814129                9.06683857               13.90403854                0.00010000               -1.18741425                0.62060807               -0.42852071                0.76414520               13.29490935               -0.56858205
               4.78427211                9.03542651               13.93754498                0.00010000               -1.45721983                0.67898848               -0.26472834                0.54874844               13.16259739               -0.23463967
               5.76899689                9.00210789               13.97246066                0.00010000               -1.61613513                0.68984816               -0.10500098                0.34788298               13.20119619               -0.01625293
               6.75194941                8.96728800               14.01082600                0.00010000               -1.82005943                0.66782702                0.06215920                0.09919965               13.44820533                0.17322247
               7.73259570                8.92933674               14.05464020                0.01804493               -1.89094137                0.57308496                0.24576304               -0.26721806               13.91237923                0.40105749
               8.71413058                8.88947817               14.10622723                0.35445560               -0.95782933               -0.13009002                0.45624862               -0.39368241                7.14276095                0.86328132
               9.71343912                8.85777275               14.01789903                0.89994148                0.00630540                0.00351098               -0.02709731               -0.01003931                0.05999226                0.34895904
              10.71425669                8.82667385               13.92771061                0.97172149                0.08175688                0.16444361               -0.51972889               -0.02066893               -0.02545319               -0.45811169
               0.84841848               10.18276984               14.05083137                1.00000000                0.02856875               -0.06764087                0.13364570                0.04772894                0.36579522                0.54056678
               1.84870417               10.14193523               13.94667891                0.84267785                0.09183506                0.07480396               -0.31227888                0.06657751                0.67196960               -0.35014550
               2.85025518               10.10057139               13.84865841                0.51888375               -0.72919298                0.20989187               -0.74475591                0.85967114                7.97746996               -0.78851013
               3.83412031               10.07465907               13.89074832                0.36041521               -1.52165987                0.78204948               -0.49522978                0.69789564               14.56495260               -0.24910720
               4.81982199               10.04257126               13.93062794                0.35433384               -1.44969683                0.71447565               -0.30021723                0.28381199               14.28720273               -0.08039210
               5.80512637               10.00923555               13.97165607                0.37549631               -1.53988405                0.71276623               -0.10389240                0.19323815               14.32632010                0.03800091
               6.78902431                9.97417706               14.01622858                0.42127830               -1.74289772                0.68890674                0.10055584                0.08759112               14.61665256                0.14053260
               7.77026842                9.93683758               14.06679965                0.51439310               -2.18490458                0.75008322                0.32362394               -0.54012792               15.23267192                0.27258873
               8.74532621                9.88802907               14.12754363                0.69157758               -1.31659431               -0.14490921                0.58079765               -0.84344148                8.16594000                0.53792162
               9.74393653                9.85757747               14.04142705                0.98583898               -0.04994093               -0.01952723                0.11192547                0.05463860                0.51828630                0.30080486
              10.74432740                9.82812701               13.94915242                1.00000000                0.03908618                0.14531612               -0.39042846                0.06202486                0.21964588               -0.35987516
               0.42573332                0.23521712               15.23998163                1.00000000               -0.37009238               -0.40569799                1.41378607               -0.07319330               -0.63251429                0.67173878
               1.42203240                0.17646739               15.18306844                1.00000000               -0.30555147               -0.32215340                1.13082040               -0.05789787               -0.79076914                0.03695955
               2.41962230                0.11751044               15.12291188                1.00000000               -0.16346407               -0.24021792                0.82938057               -0.04144682               -0.72642531               -0.19124084
               3.41876312                0.05966765               15.06723704                0.62051845                0.31810376               -0.18550026                0.54452247                0.47120461                0.25643157               -0.49916287
               4.42598437                0.01375555               15.02671270                0.69103508                0.47742986               -0.08375800                0.24470334               -0.03846481                0.84969865                0.08473294
               5.42831172               -0.02364428               14.98285237                0.76792519                0.15441432                0.01604902               -0.06885458                0.00815880                0.47987178                0.04976412
               6.42907266               -0.05979061               14.93509596                0.75258205                0.04106068                0.10632488               -0.38733520                0.00993069                0.30313635               -0.03271596
               7.42913293               -0.09750905               14.88774227                0.85147444                0.04300875                0.20557707               -0.71618849                0.05223662                0.07632319                0.03878837
               8.42993283               -0.13940067               14.83538328                1.00000000                0.18577546                0.31842409               -1.03457267                0.03919356               -0.32413190                0.37738055
               9.43284844               -0.18398461               14.78000528                1.00000000                0.36114889                0.38875857               -1.34232994               -0.04984665               -0.46866429                0.01710935
              10.43715581               -0.22879442               14.72486174                1.00000000                0.43073703                0.47161597               -1.63609076               -0.07578942               -0.46361331               -0.48527558
               0.48375112                1.23116014               15.21896911                1.00000000               -0.34443570               -0.38503631                1.28411727               -0.03208877               -0.07867940                0.91556970
               1.48030676                1.17324586               15.16164964                1.00000000               -0.30717104               -0.29962674                1.00152016               -0.01380515               -0.03494695                0.05555040
               2.47760770                1.11510826               15.10514617                0.79175162               -0.24770768               -0.21744139                0.71274359                0.02440984                0.19027448               -0.53508997
               3.47535261                1.05781265               15.05230313                0.11635468               -0.51760065               -0.17662981                0.42551548                0.66454208                1.56176303               -0.87136302
               4.46725569                1.01291797               15.02326739                0.25962802               -0.50931137                0.07717298                0.19695358                0.04757156                2.22520387                0.80570512
               5.46516638                0.97651621               14.98448585                0.34186181               -0.05756698                0.08787641               -0.08475153                0.27676740                1.50283325                0.31378292
               6.46610435                0.94127264               14.94129290                0.24533804                0.21469715                0.01326877               -0.37652742                0.28199621                1.36066406               -0.37123586
               7.46946033                0.90454672               14.89989353                0.40480638                0.37291010                0.20890543               -0.66003932                0.38477073                1.30745025                0.56948297
               8.47356255                0.86378357               14.85597331                1.00000000                0.37932615                0.29552150               -0.93645663                0.16024795                0.66505271                0.52106714
               9.47704685                0.81990297               14.80196996                1.00000000                0.38225860                0.37359675               -1.22649113               -0.00108900                0.09750528                0.07944327
              10.48120772                0.77592174               14.74679271                1.00000000                0.41608724                0.44583318               -1.51950361               -0.02909562                0.03370295               -0.57537886
               0.54092012                2.22751640               15.20272973                1.00000000               -0.31119352               -0.35023384                1.17295400               -0.02660378                0.03083194                1.17674220
               1.53780818                2.17047486               15.14053449                1.00000000               -0.26882044               -0.26124529                0.87567142               -0.00232322                0.13921348                0.03424088
               2.53554371                2.11316161               15.08046522                0.41046286               -0.17819645               -0.18263322                0.58968418                0.04715297                0.72258447               -1.14533538
               3.53424425                2.05613505               15.02991333                0.00010000               -1.36557344               -0.16170865                0.29425666                0.95967706                3.93433988               -1.61276695
               4.50823224                2.01529901               15.03409502                0.00010000               -1.43759296                0.23454847                0.21626958                1.87191355                4.15943666               -1.10441602
               5.50549239                1.97811325               14.99135296                0.00010000               -0.07750852                0.00777876               -0.08391263                1.62601524                1.43382559               -0.47461126
               6.50668207                1.94047477               14.94072900                0.00010000                0.44125096               -0.13435085               -0.36311656                1.48939284                2.66337093                0.11053926
               7.51431741                1.90666906               14.92270514                0.00010000                0.55497359               -0.08229042               -0.60128777                1.05082081                2.99315377                0.51934922
               8.51778154                1.86650976               14.87953060                0.44508934                0.31855404                0.28504780               -0.81884206                0.26915673                1.18653812                0.98902851
               9.52068849                1.82348732               14.82528352                1.00000000                0.33774106                0.35820696               -1.10454769                0.04527879                0.43174689                0.43097128
              10.52453636                1.78012224               14.76704256                1.00000000                0.38478683                0.39856776               -1.41437103               -0.01461172                0.22873571               -0.58772381
               0.59730212                3.22415547               15.18680978                1.00000000               -0.26870363               -0.32507237                1.06098147               -0.02226287                0.03347581                1.17787188
               1.59461509                3.16802095               15.11861727                1.00000000               -0.22057767               -0.22820513                0.74593519               -0.00152820                0.03797289               -0.02877105
               2.59289057                3.11145560               15.05046593                0.21174323               -0.11031653               -0.13842628                0.43396521                0.00816833                0.93242055               -1.34757528
               3.59240875                3.05457847               15.00012274                0.00010000               -0.50874023               -0.07066271                0.13670031                1.02287286                3.97034929               -1.96120824
               4.58271576                3.01760894               14.99280187                0.00010000               -0.99489124                0.16680390                0.00959263                2.61798667                5.64610234               -2.53327772
               5.57251093                2.97667178               14.97729397                0.00010000               -0.76896858                0.02962801               -0.13169101                2.25176603                4.88055300               -1.18653456
               6.56733639                2.93858562               14.95622583                0.00010000               -0.40345914               -0.03486239               -0.30471949                2.01734306                4.49334462                0.45016846
               7.56444175                2.90290091               14.93406142                0.00010000               -0.26044850               -0.14397071               -0.48087640                1.48981640                4.27568814                0.41815350
               8.56212742                2.86948453               14.90953871                0.25351039               -0.00509014                0.28455950               -0.67088183                0.61982004                2.57033398                1.81594690
               9.56433994                2.82706711               14.85434965                1.00000000                0.27591104                0.32679381               -0.95019143                0.06003672                0.51811154                0.66736137
              10.56764564                2.78389310               14.78880082                1.00000000                0.33056985                0.36864382               -1.29839070               -0.02444635               -0.00161039               -0.44436412
               0.65274388                4.22101495               15.17045267                1.00000000               -0.22663962               -0.30086908                0.94288790               -0.02403461                0.03195239                1.11808791
               1.65047749                4.16591076               15.09617912                1.00000000               -0.17971637               -0.18869540                0.60873071               -0.00298954                0.02827577               -0.06533225
               2.64914956                4.11039309               15.02177428                0.11428303               -0.09645607               -0.07789182                0.27635040                0.00955862                1.19362180               -1.18503132
               3.64854837                4.05472180               14.97078085                0.00010000               -0.53254481                0.25941113               -0.12655509                0.76814563                5.14582533               -0.89637533
               4.63849866                4.01863509               14.97514552                0.00010000               -0.94986690                0.15563452               -0.13689429                1.58317474                7.37875558               -0.97167541
               5.62955103                3.97870581               14.97056243                0.00010000               -0.88494301                0.22574480               -0.17527563                1.45613150                6.69850501               -0.57122628
               6.62079980                3.93977752               14.96316509                0.00010000               -0.81680969                0.19092009               -0.25712203                1.38536314                6.43481532                0.12026969
               7.61321483                3.90378964               14.95510359                0.00010000               -0.73940290                0.15740250               -0.35917805                1.35867088                6.45090182                0.94538128
               8.60601174                3.87220095               14.94967633                0.24557813               -0.28670865                0.21713415               -0.46727276                0.64180017                3.41892919                2.04996350
               9.60748066                3.83002320               14.88245631                1.00000000                0.21918620                0.26343219               -0.79655414                0.03603886                0.16473257                0.60904818
              10.61039547                3.78749512               14.81194658                1.00000000                0.29148045                0.34784568               -1.17298845               -0.02142340               -0.00000400               -0.36702646
               0.70702982                5.21813809               15.15320642                1.00000000               -0.18526575               -0.26880316                0.81530361               -0.02720703                0.09813842                1.02525946
               1.70517716                5.16424705               15.07349082                0.80826786               -0.13795576               -0.14196137                0.46639924               -0.00861826                0.16548780               -0.18318497
               2.70427070                5.10989776               14.99507377                0.06492176               -0.28237458               -0.01950721                0.13010313                0.22369290                2.54693201               -1.27041192
               3.69952967                5.05976669               14.96294738                0.00010000               -0.69377255                0.49465885               -0.45745511                0.63205161                6.61385993                0.15160715
               4.69039525                5.02072163               14.96542997                0.00010000               -0.95192694                0.26869049               -0.22770466                1.17196199                8.26927636               -0.39048568
               5.68049113                4.98118668               14.96881791                0.00010000               -1.02177164                0.29102847               -0.19318647                1.06310930                8.20051619               -0.18820822
               6.66995982                4.94240403               14.97232216                0.00010000               -1.06496980                0.29617716               -0.20227722                1.02709175                8.15543853                0.30459344
               7.65919173                4.90604896               14.97708052                0.00010000               -1.06149719                0.23863140               -0.23234780                1.07453172                8.24638375                0.97316469
               8.64872987                4.87382721               14.98451646                0.25558897               -0.47125887                0.11925253               -0.26903801                0.52847918                4.21034658                1.68688769
               9.64976655                4.83233576               14.91041659                0.93097515                0.17717285                0.20450271               -0.65151419                0.02059916                0.08036377                0.58939278
              10.65227333                4.79085001               14.83525031                1.00000000                0.25067754                0.31975237               -1.04339646               -0.02110009                0.02856388               -0.37395180
               0.75998182                6.21563889               15.13485211                1.00000000               -0.14363734               -0.22657488                0.68080837               -0.02911819                0.06824545                0.92063768
               1.75854545                6.16307153               15.04865910                0.68154144               -0.09390275               -0.09284767                0.31048607               -0.01215606                0.18304045               -0.35314869
               2.75810377                6.11000294               14.96471691                0.04437146               -0.40899595                0.03832804               -0.04799309                0.39498894                4.02820779               -1.58138260
               3.75036553                6.06461497               14.95540791                0.00010000               -0.87929255                0.42394658               -0.33909016                0.80397310                8.36269907               -0.28069379
               4.74051792                6.02400890               14.95925684                0.00010000               -1.06173556                0.37938546               -0.26286039                0.97847629                9.23515108               -0.24222571
               5.72913082                5.98452638               14.96957738                0.00010000               -1.20192817                0.39344204               -0.18307637                0.88268311                9.57370576               -0.01554965
               6.71647935                5.94570106               14.98278036                0.00010000               -1.29242677                0.37098701               -0.13683633                0.77427498                9.71555589                0.39693388
               7.70328228                5.90856227               14.99859206                0.00010000               -1.30924093                0.25667995               -0.10582545                0.77365773                9.87633537                0.93635214
               8.69029453                5.87458600               15.01750121                0.27213430               -0.62062171                0.04052337               -0.08295409                0.36609367                5.01013690                1.55042490
               9.69086985                5.83411325               14.93816746                0.85789290                0.13252116                0.15393541               -0.49288548                0.00914194                0.06870001                0.54160413
              10.69294496                5.79389017               14.85822284                1.00000000                0.20751081                0.28575209               -0.91593481               -0.02055798                0.04120884               -0.43666594
               0.81158217                7.21360659               15.11536004                1.00000000               -0.10121851               -0.17867720                0.54162900               -0.02803870                0.03219832                0.83968845
               1.81056998                7.16239009               15.02255542                0.61306643               -0.04775659               -0.04465822                0.15400720               -0.01090771                0.14078335               -0.44170562
               2.81062703                7.11066432               14.93188530                0.03986738               -0.44834040                0.09109735               -0.22810987                0.47911933                5.09925217               -1.77718122
               3.80160317                7.06824563               14.93825644                0.00010000               -1.02868306                0.37198521               -0.32153101                0.95225834               10.22486844               -0.87357654
               4.79005337                7.02830934               14.95211965                0.00010000               -1.25752747                0.48942743               -0.24846510                0.93449807               10.70889724               -0.33472408
               5.77645262                6.98905552               14.97081870                0.00010000               -1.43219770                0.52998202               -0.15522962                0.74453211               10.99578557                0.01612814
               6.76140942                6.94982377               14.99337902                0.00010000               -1.53363392                0.47417565               -0.06563901                0.52991941               11.21954784                0.39884337
               7.74577995                6.91118256               15.01959211                0.00010000               -1.54543261                0.28524258                0.01809085                0.41764443               11.45186714                0.87813350
               8.73050077                6.87463768               15.04965175                0.29381342               -0.75673582               -0.02612167                0.09866115                0.15886653                5.79316373                1.47263308
               9.73064523                6.83541446               14.96514866                0.82276495                0.09037858                0.10602350               -0.34314007                0.00199061                0.04501524                0.47038539
              10.73230834                6.79656505               14.88018496                1.00000000                0.16631094                0.24901201               -0.78978282               -0.01954340                0.02661443               -0.51358441
               0.86185404                8.21206534               15.09525234                1.00000000               -0.05844762               -0.13063544                0.40201473               -0.02656161                0.01490112                0.80367468
               1.86126956                8.16217837               14.99596126                0.59580061               -0.00117087                0.00226484               -0.00151683               -0.00736148                0.07034252               -0.47803386
               2.86183062                8.11182489               14.89775315                0.04077627               -0.47519415                0.13900604               -0.40767879                0.54757686                6.05195404               -1.78260292
               3.85176568                8.07205468               14.91813499                0.00010000               -1.17163187                0.44220167               -0.37154831                1.01783043               12.09242658               -0.90165750
               4.83839798                8.03379745               14.94344129                0.00010000               -1.46293227                0.63191169               -0.24850748                0.85145092               12.31219990               -0.35537637
               5.82250703                7.99512602               14.97148066                0.00010000               -1.67236420                0.67347559               -0.12477823                0.58393921               12.45877643                0.00520244
               6.80495070                7.95518458               15.00321902                0.00010000               -1.78428877                0.62662471                0.00254380                0.27428262               12.69837446                0.32788690
               7.78682126                7.91426712               15.03954337                0.00512021               -1.78553682                0.37559989                0.13481825               -0.02231267               13.02584277                0.73292786
               8.76923996                7.87406357               15.08106694                0.32108114               -0.89194836               -0.08424226                0.27344454               -0.10759632                6.58878951                1.34836903
               9.76898229                7.83623372               14.99140139                0.82982458                0.05064756                0.05730830               -0.19614794               -0.00416508                0.02120881                0.43222845
              10.77025291                7.79887041               14.90147678                1.00000000                0.12706236                0.21184938               -0.66732775               -0.01924203                0.01448548               -0.55789450
               0.91082489                9.21099388               15.07493774                1.00000000               -0.01616846               -0.08592399                0.26402091               -0.02505832                0.00103697                0.67202307
               1.91066321                9.16243539               14.96914632                0.61765904                0.04386844                0.04904399               -0.15546314               -0.00333950                0.08206657               -0.42626342
               2.91170226                9.11344444               14.86496288                0.02733945               -0.53379898                0.18189110               -0.57657052                0.65346895                7.10872999               -1.26325566
               3.89998723                9.07708966               14.89977683                0.00010000               -1.38456025                0.68954544               -0.42588119                0.84553627               13.90010411               -0.54792032
               4.88401105                9.04094757               14.93490462                0.00010000               -1.66214737                0.75514920               -0.26473613                0.58753642               13.78279939               -0.21436391
               5.86674428                9.00252503               14.97141088                0.00010000               -1.81285451                0.76660500               -0.10609851                0.35114868               13.83528561                0.00413623
               6.84775396                8.96235626               15.01143426                0.00010000               -2.01447902                0.74254325                0.05834360                0.07037773               14.10196454                0.19404500
               7.82645470                8.91869456               15.05705157                0.01867775               -2.06858600                0.64049373                0.23530141               -0.33522604               14.59231050                0.42724015
               8.80638224                8.87295283               15.11068445                0.35230637               -1.03498038               -0.12362798                0.43377469               -0.45686890                7.49565552                0.90905395
               9.80575509                8.83656063               15.01751110                0.88319819                0.01339412                0.01058235               -0.05167967               -0.01213775                0.06391135                0.37087131
              10.80665013                8.80080204               14.92237311                0.97344559                0.08950356                0.17427252               -0.54832947               -0.01962691               -0.02629793               -0.47749668
               0.95846985               10.21034686               15.05212370                1.00000000                0.02823588               -0.06470159                0.12561666                0.04573421                0.36930180                0.54978963
               1.95875221               10.16315925               14.94361187                0.84050972                0.08879397                0.07238553               -0.30259686                0.06469279                0.68234680               -0.36430493
               2.96024573               10.11546271               14.84136507                0.51768553               -0.87894679                0.20182699               -0.71753241                0.98866420                8.32687626               -0.81078887
               3.94117327               10.08584559               14.88584484                0.36112359               -1.77661954                0.87559275               -0.48643961                0.79049067               15.25094455               -0.23678204
               4.92471334               10.04890043               14.92764569                0.35458366               -1.65259772                0.79528575               -0.29728892                0.30085499               14.96981814               -0.07227548
               5.90812132               10.01045812               14.97062206                0.37536665               -1.72623063                0.79330845               -0.10406287                0.19445460               15.02728517                0.04670132
               6.89018873                9.97003544               15.01721677                0.42091313               -1.93005783                0.76791808                0.09574181                0.07442040               15.33876429                0.15004724
               7.86952016                9.92707700               15.06997666                0.51501695               -2.39761057                0.83824397                0.31029777               -0.61567510               15.98332224                0.28547182
               8.84223651                9.87159101               15.13321961                0.69095347               -1.43149152               -0.13618241                0.55265735               -0.94615440                8.57208943                0.56417672
               9.84089033                9.83644537               15.04240472                0.97676541               -0.04294788               -0.01152606                0.08196403                0.05176652                0.54846925                0.31850382
              10.84137756                9.80235586               14.94507749                0.98754627                0.04872255                0.15538198               -0.42543819                0.06379210                0.23285923               -0.37678789
               0.47760695                0.26371996               16.25404403                1.00000000               -0.36622754               -0.40071857                1.39896316               -0.07288203               -0.65717619                0.69577376
               1.47394468                0.19892611               16.19432098                1.00000000               -0.30242999               -0.31883584                1.11981227               -0.05821779               -0.82413946                0.04135983
               2.47155835                0.13393185               16.13118055                1.00000000               -0.16185372               -0.23836106                0.82439033               -0.04132475               -0.76072578               -0.19450458
               3.47070760                0.07007013               16.07267549                0.62066356                0.31934112               -0.18491812                0.54349888                0.48112444                0.22159566               -0.52430721
               4.47794518                0.01835938               16.02917185                0.69467819                0.47440979               -0.07740655                0.24675193               -0.04509341                0.79749922                0.09909656
               5.48019580               -0.02466134               15.98218580                0.77407121                0.14994265                0.01818240               -0.06539701                0.00776803                0.41949991                0.05730730
               6.48094403               -0.06639037               15.93126864                0.75778669                0.04261841                0.10592217               -0.37899800                0.01000127                0.23757063               -0.03724352
               7.48104817               -0.10953598               15.88065371                0.85544654                0.04617674                0.20342460               -0.70222897                0.04894042                0.01245451                0.04241214
               8.48186756               -0.15664919               15.82512770                1.00000000                0.18437348                0.31375205               -1.01700582                0.03591384               -0.37607332                0.38891012
               9.48473564               -0.20636268               15.76668480                1.00000000                0.35551519                0.38377960               -1.32205578               -0.04898874               -0.50732630                0.01597723
              10.48897787               -0.25631137               15.70861951                1.00000000                0.42422309                0.46578681               -1.61251404               -0.07399053               -0.49482858               -0.51559620
               0.54167199                1.25971277               16.23174218                1.00000000               -0.34154300               -0.37943716                1.27091252               -0.03218804               -0.08330309                0.94819924
               1.53825656                1.19573775               16.17161458                1.00000000               -0.30494453               -0.29620490                0.99167428               -0.01438670               -0.04252858                0.06140308
               2.53557309                1.13154824               16.11224527                0.79868604               -0.24757363               -0.21575114                0.70713811                0.02471849                0.18103057               -0.54195722
               3.53330508                1.06822095               16.05655497                0.12359328               -0.53565604               -0.17567061                0.42545474                0.67982148                1.58246369               -0.90380139
               4.52485997                1.01758531               16.02523359                0.27149451               -0.53283638                0.07208435                0.19681549                0.00865082                2.25775148                0.84835945
               5.52264836                0.97552049               15.98364471                0.35691145               -0.06893061                0.08719970               -0.08373918                0.25429799                1.50917562                0.32933177
               6.52348136                0.93466885               15.93755428                0.25786848                0.20093121                0.02115719               -0.37172927                0.26774582                1.36795068               -0.37438649
               7.52666698                0.89249827               15.89334304                0.41539078                0.35793472                0.20330761               -0.65067269                0.36287645                1.32146619                0.57437608
               8.53064006                0.84648833               15.84666863                1.00000000                0.37049297                0.29174058               -0.92499330                0.15394134                0.67417941                0.54228546
               9.53407684                0.79747511               15.78977898                1.00000000                0.37732959                0.36945883               -1.21213658               -0.00072680                0.09858024                0.08162447
              10.53818665                0.74834650               15.73168752                1.00000000                0.41098092                0.44142872               -1.50185610               -0.02789325                0.03344281               -0.61104322
               0.60491324                2.25613122               16.21439207                1.00000000               -0.30917631               -0.34387947                1.16014229               -0.02563549                0.03155838                1.21718956
               1.60182148                2.19300201               16.14924557                1.00000000               -0.26718596               -0.25790924                0.86681321               -0.00083429                0.14493135                0.03977544
               2.59956952                2.12961683               16.08632777                0.42350577               -0.17772608               -0.18230638                0.58250650                0.05143313                0.72905365               -1.17036138
               3.59826696                2.06655672               16.03283829                0.00010000               -1.43754361               -0.16155560                0.28983882                0.97094660                4.04116673               -1.66451239
               4.57081865                2.01980106               16.03616866                0.00010000               -1.50343672                0.22182834                0.20218010                1.89475488                4.30862077               -1.13432123
               5.56819822                1.97708266               15.99050293                0.00010000               -0.07487439               -0.01020139               -0.08634722                1.64453330                1.48306364               -0.47325929
               6.56932116                1.93403277               15.93710371                0.00010000                0.41439949               -0.14319568               -0.36242435                1.47865188                2.73989596                0.13155243
               7.57648621                1.89453018               15.91671208                0.00010000                0.53241923               -0.09277888               -0.59803965                1.03815341                3.09201396                0.56009394
               8.57996955                1.84918562               15.87137014                0.45199665                0.31883593                0.28240755               -0.81384274                0.26463095                1.25691511                1.03571145
               9.58286293                1.80102649               15.81428387                1.00000000                0.33538407                0.35498515               -1.09610811                0.04484182                0.45662983                0.45319358
              10.58667723                1.75251721               15.75295991                1.00000000                0.38142978                0.39685977               -1.40288083               -0.01374906                0.24140825               -0.62215949
               0.66741769                3.25283518               16.19735239                1.00000000               -0.26634296               -0.31894639                1.04838939               -0.02031197                0.03648471                1.21378969
               1.66475426                3.19057956               16.12603934                1.00000000               -0.21853204               -0.22562945                0.73870733                0.00125358                0.04234108               -0.02935744
               2.66304705                3.12790211               16.05479773                0.22417632               -0.11072425               -0.13934968                0.43219133                0.01500185                0.94398050               -1.38760950
               3.66253978                3.06498984               16.00148416                0.00010000               -0.54089596               -0.08638983                0.13597978                1.04222548                4.07571871               -2.07423371
               4.65222913                3.02202188               15.99289443                0.00010000               -1.06162294                0.15274936                0.01000515                2.68208989                5.83789357               -2.64976755
               5.64130732                2.97531646               15.97597298                0.00010000               -0.83111243                0.01205858               -0.13139780                2.29413103                5.06111469               -1.20584302
               6.63560688                2.93180493               15.95319381                0.00010000               -0.45150604               -0.05863710               -0.30224739                2.03457845                4.66100170                0.49305509
               7.63227720                2.89064269               15.92927052                0.00010000               -0.30852614               -0.15233035               -0.47826044                1.50786831                4.43682781                0.49339398
               8.62943636                2.85213648               15.90283513                0.25314522               -0.03175524                0.27892752               -0.67100618                0.61828887                2.68433454                1.90580308
               9.63164209                2.80457482               15.84487128                1.00000000                0.27469420                0.32359302               -0.94641374                0.05796664                0.55496974                0.70632244
              10.63493024                2.75628369               15.77585304                1.00000000                0.32881515                0.36874925               -1.29162358               -0.02368037                0.00066565               -0.46611417
               0.72901824                4.24975229               16.17981491                1.00000000               -0.22386192               -0.29475709                0.93008936               -0.02259657                0.03407906                1.14481589
               1.72677963                4.18848942               16.10222767                0.99234386               -0.17794782               -0.18687332                0.60277003               -0.00090012                0.03205098               -0.07326391
               2.72545929                4.12682983               16.02454875                0.12433726               -0.08939635               -0.07912670                0.28084996                0.00316326                1.16604523               -1.22219065
               3.72499170                4.06482892               15.96963326                0.00010000               -0.56627320                0.21969736               -0.10423974                0.79217533                5.27275734               -1.10998611
               4.71413382                4.02285605               15.97376848                0.00010000               -1.03469545                0.14912145               -0.13578703                1.61397197                7.69213963               -1.03800560
               5.70429779                3.97732383               15.96881668                0.00010000               -0.97236617                0.22805551               -0.17328686                1.48162661                6.98943705               -0.58056134
               6.69468650                3.93286003               15.96060829                0.00010000               -0.89928787                0.18758813               -0.25496508                1.39282664                6.70169057                0.15939928
               7.68631203                3.89148357               15.95152141                0.00010000               -0.81416491                0.15649983               -0.35857924                1.35739574                6.71108360                1.02159742
               8.67840320                3.85476417               15.94499263                0.24328502               -0.32184904                0.20931129               -0.47081721                0.63734390                3.57475066                2.16281146
               9.67987505                3.80749835               15.87449518                1.00000000                0.21913309                0.26062047               -0.79512560                0.03471782                0.18883723                0.64268551
              10.68278586                3.75989219               15.80022800                1.00000000                0.29108131                0.34900323               -1.16943096               -0.02070691               -0.00079898               -0.38091963
               0.78949150                5.24694004               16.16129299                1.00000000               -0.18327812               -0.26188656                0.80270419               -0.02542398                0.10163472                1.04238492
               1.78765871                5.18684210               16.07811011                0.79923951               -0.13603411               -0.14092461                0.45872373               -0.00545542                0.17510332               -0.19989630
               2.78677081                5.12631958               15.99635776                0.07337275               -0.26508266               -0.02314821                0.12716005                0.19728919                2.42731088               -1.31645730
               3.78235706                5.06938378               15.95818926                0.00010000               -0.73785770                0.48538988               -0.48151382                0.61954133                6.79783713                0.10942363
               4.77201366                5.02500431               15.96311087                0.00010000               -1.07105941                0.28143351               -0.23390430                1.20665272                8.77552099               -0.40619074
               5.76093587                4.97987757               15.96688301                0.00010000               -1.13549925                0.30616930               -0.19378250                1.06835997                8.58824119               -0.17472232
               6.74930367                4.93555670               15.97030690                0.00010000               -1.17074534                0.30934450               -0.20170687                1.01882669                8.51701006                0.34945526
               7.73752097                4.89377269               15.97475445                0.00010000               -1.15676112                0.24556438               -0.23423134                1.06101407                8.60166437                1.04899960
               8.72616845                4.85632271               15.98179626                0.25273872               -0.51562688                0.11450907               -0.27579792                0.51699234                4.39957155                1.78821741
               9.72720843                4.80978722               15.90387198                0.91398238                0.17799893                0.20368680               -0.65619172                0.01925280                0.09427689                0.62394045
              10.72972843                4.76326376               15.82479640                1.00000000                0.25200022                0.32269479               -1.04540088               -0.02045233                0.03702092               -0.38803891
               0.84870566                6.24451456               16.14159191                1.00000000               -0.14146723               -0.21971363                0.66805723               -0.02696632                0.06862277                0.93134777
               1.84729098                6.18567093               16.05174138                0.67448992               -0.09211350               -0.09294129                0.30580404               -0.00804716                0.18924531               -0.37627914
               2.84686339                6.12636687               15.96426114                0.05110830               -0.42965953                0.03176292               -0.04402351                0.38991600                4.05446154               -1.64208801
               3.83869779                6.07453672               15.95168830                0.00010000               -0.95451477                0.45818000               -0.40582974                0.77648251                8.63949180               -0.13387886
               4.82777309                6.02848472               15.95653767                0.00010000               -1.17925964                0.40564811               -0.28000198                0.99193157                9.72080970               -0.20459220
               5.81511260                5.98344722               15.96772696                0.00010000               -1.33025871                0.42316069               -0.18751254                0.87621367               10.03826818                0.01951885
               6.80116792                5.93904692               15.98140856                0.00010000               -1.41731486                0.39667590               -0.13858311                0.75092548               10.15966345                0.44775264
               7.78676630                5.89639486               15.99751661                0.00010000               -1.42197013                0.27160711               -0.11046219                0.74235359               10.31537470                1.00838421
               8.77272851                5.85705435               16.01661588                0.26925397               -0.67236239                0.03948992               -0.09493637                0.34497837                5.23818457                1.64239008
               9.77331906                5.81157209               15.93318243                0.84262872                0.13476179                0.15621177               -0.50439825                0.00756862                0.07615046                0.57807993
              10.77542375                5.76634609               15.84900718                1.00000000                0.21046944                0.29150784               -0.92702499               -0.02009827                0.04216087               -0.45264145
               0.90663943                7.24254577               16.12071404                1.00000000               -0.09939674               -0.17310346                0.52988110               -0.02637572                0.03156660                0.84758545
               1.90564546                7.18498327               16.02408711                0.60740596               -0.04680428               -0.04532644                0.15200576               -0.00751489                0.14299104               -0.46490057
               2.90570334                7.12695483               15.92965261                0.04459110               -0.49383023                0.08381484               -0.21980949                0.49891215                5.23522514               -1.83884352
               3.89576886                7.07854738               15.93486526                0.00010000               -1.13807751                0.40783285               -0.36161211                0.97082362               10.61074980               -0.79655394
               4.88294179                7.03311727               15.94955041                0.00010000               -1.39354527                0.53071374               -0.26689367                0.95174867               11.21148612               -0.27476242
               5.86789795                6.98834078               15.96924017                0.00010000               -1.57836249                0.57516246               -0.16145188                0.73441720               11.51074329                0.06174400
               6.85137454                6.94349021               15.99270931                0.00010000               -1.67686743                0.51380525               -0.06946625                0.49350333               11.73494679                0.44941123
               7.83436060                6.89920483               16.01974122                0.00010000               -1.67418780                0.30900627                0.01050020                0.36639377               11.96948128                0.94364645
               8.81789079                6.85711251               16.05056071                0.29110230               -0.81462674               -0.02443989                0.08206016                0.12658778                6.05752477                1.55939102
               9.81806807                6.81291146               15.96163389                0.80829321                0.09438427                0.11086477               -0.36079504                0.00048467                0.04834042                0.50221379
              10.81977847                6.76909392               15.87219809                1.00000000                0.17104046                0.25730103               -0.80816788               -0.01884642                0.02771020               -0.53079030
               0.96330314                8.24105249               16.09921716                1.00000000               -0.05715174               -0.12652097                0.39156389               -0.02527210                0.01409755                0.81180009
               1.96273162                8.18476440               15.99595434                0.59105903               -0.00128108                0.00140181               -0.00053445               -0.00497093                0.06849461               -0.49959331
               2.96327752                8.12804316               15.89375284                0.04317887               -0.53898958                0.13203028               -0.39437406                0.58950607                6.26021820               -1.83767280
               3.95195183                8.08269337               15.91434830                0.00010000               -1.31314274                0.48114682               -0.38971905                1.07443012               12.58250350               -0.86209945
               4.93701466                8.03909900               15.94091523                0.00010000               -1.62619147                0.69087795               -0.25873075                0.88046716               12.86742764               -0.30987143
               5.91942800                7.99495047               15.97021280                0.00010000               -1.84203629                0.73542144               -0.13012663                0.57495212               13.02659542                0.04508928
               6.90017394                7.94932302               16.00322457                0.00010000               -1.94780562                0.68404639               -0.00269788                0.22989901               13.27922641                0.36860323
               7.88047189                7.90257498               16.04084627                0.00525804               -1.93101479                0.41217162                0.12442647               -0.09631750               13.62017737                0.78500677
               8.86155364                7.85656555               16.08370345                0.31860178               -0.95622748               -0.08029650                0.25250242               -0.15461149                6.89217865                1.42524792
               9.86134734                7.81378938               15.98933452                0.81481737                0.05641349                0.06376928               -0.21825861               -0.00564113                0.02238361                0.46253390
              10.86268191                7.77149211               15.89468590                1.00000000                0.13345723                0.22146475               -0.69139583               -0.01831575                0.01500931               -0.57777285
               1.01871017                9.24001535               16.07753103                1.00000000               -0.01547987               -0.08293827                0.25512917               -0.02415321               -0.00068408                0.68061300
               2.01855537                9.18501131               15.96761739                0.61288686                0.04271614                0.04768114               -0.15131293               -0.00208988                0.07997139               -0.44327210
               3.01956449                9.12959544               15.85930127                0.02668688               -0.61768703                0.17540379               -0.55831966                0.72206214                7.38409334               -1.29846143
               4.00620163                9.08817032               15.89552092                0.00010000               -1.56352212                0.75470167               -0.42767304                0.91230711               14.48169475               -0.51749219
               4.98829405                9.04693483               15.93225026                0.00010000               -1.85143289                0.82723170               -0.26786387                0.61526802               14.39182793               -0.18994435
               5.96917297                9.00304921               15.97033869                0.00010000               -1.99730198                0.83983758               -0.10973256                0.34546519               14.46076986                0.02619095
               6.94834801                8.95717114               16.01199287                0.00010000               -2.19906242                0.81449815                0.05201274                0.03350527               14.74746477                0.21610102
               7.92519172                8.90744826               16.05934623                0.01938388               -2.23819255                0.70609246                0.22218967               -0.41022123               15.26307558                0.45601374
               8.90358416                8.85550658               16.11490273                0.34995357               -1.10815131               -0.11616250                0.40831086               -0.52375583                7.84520899                0.95851625
               9.90302869                8.81418685               16.01686543                0.86570405                0.02112796                0.01854663               -0.07865065               -0.01413338                0.06887381                0.39495658
              10.90400671                8.77352321               15.91674402                0.97498901                0.09780206                0.18451909               -0.57812017               -0.01850744               -0.02678311               -0.49701448
               1.07282816               10.23939372               16.05334370                1.00000000                0.02815736               -0.06216278                0.11870818                0.04422941                0.37271798                0.55803206
               2.07310973               10.18571802               15.94062698                0.83860180                0.08657937                0.07067140               -0.29563751                0.06331262                0.69268022               -0.37735505
               3.07455975               10.13155124               15.83430776                0.51675557               -1.01255756                0.19557998               -0.69673834                1.10299533                8.66032638               -0.83111537
               4.05285858               10.09778741               15.88101953                0.36178023               -2.00593098                0.96170889               -0.48025719                0.87031524               15.91293872               -0.21914098
               5.03444113               10.05564363               15.92468216                0.35482199               -1.83787960                0.87088020               -0.29702945                0.31269870               15.63745056               -0.06253947
               6.01610099               10.01174722               15.96957481                0.37522098               -1.89980682                0.86980032               -0.10688543                0.19126997               15.71647153                0.05565761
               6.99644499                9.96561299               16.01814342                0.42049232               -2.10844803                0.84418432                0.08805463                0.05717932               16.04931476                0.15950744
               7.97393203                9.91669683               16.07300561                0.51568376               -2.60525249                0.92485679                0.29389125               -0.69450298               16.72124584                0.29899602
               8.94433994                9.85424231               16.13859677                0.69013369               -1.54419975               -0.12642700                0.52111567               -1.05124700                8.97525539                0.59354132
               9.94304804                9.81416032               16.04306633                0.96697929               -0.03504551               -0.00265282                0.04894592                0.04894333                0.58042302                0.33772061
              10.94363903                9.77518249               15.94064366                0.98739533                0.05909966                0.16592778               -0.46212664                0.06544886                0.24647932               -0.39421167
               0.53203590                0.29373630               17.26796090                1.00000000               -0.36228041               -0.39602152                1.38452358               -0.07245367               -0.68015717                0.71853805
               1.52841309                0.22270740               17.20546469                1.00000000               -0.29913148               -0.31580614                1.10903702               -0.05826966               -0.85460845                0.04499931
               2.52605327                0.15149090               17.13939969                1.00000000               -0.16046801               -0.23690045                0.81914535               -0.04077672               -0.79169561               -0.19853246
               3.52520373                0.08142256               17.07810702                0.62009081                0.31853904               -0.18487331                0.54252778                0.48713802                0.18881452               -0.54533528
               4.53242405                0.02361399               17.03164774                0.69787519                0.47005954               -0.07256507                0.24696151               -0.05223455                0.74404264                0.11323953
               5.53460493               -0.02541597               16.98154443                0.77933453                0.14660546                0.02016849               -0.06384280                0.00639071                0.35924277                0.06441630
               6.53535616               -0.07310676               16.92751600                0.76210418                0.04590160                0.10565929               -0.37206498                0.00971254                0.17456122               -0.04178134
               7.53552296               -0.12203947               16.87369769                0.85887904                0.05120583                0.20153478               -0.68942817                0.04535578               -0.04978206                0.04660549
               8.53638028               -0.17470433               16.81504317                1.00000000                0.18435720                0.30911633               -1.00020507                0.03229436               -0.42839105                0.40017479
               9.53921010               -0.22985343               16.75356417                1.00000000                0.35047682                0.37898254               -1.30220752               -0.04795498               -0.54677845                0.01456302
              10.54338981               -0.28524236               16.69261146                1.00000000                0.41797108                0.46028268               -1.58913840               -0.07192317               -0.52662631               -0.54657117
               0.60234026                1.28977609               17.24438736                1.00000000               -0.33871642               -0.37431612                1.25847140               -0.03225471               -0.08754425                0.97895763
               1.59895310                1.21954934               17.18148313                1.00000000               -0.30261701               -0.29308967                0.98241512               -0.01480876               -0.04935405                0.06634687
               2.59628792                1.14912189               17.11928893                0.80264390               -0.24697661               -0.21444858                0.70215749                0.02516379                0.17366564               -0.55060130
               3.59401357                1.07957382               17.06081222                0.12946080               -0.54834777               -0.17534734                0.42872674                0.68947043                1.60220683               -0.93608812
               4.58532097                1.02288834               17.02720370                0.28241989               -0.54921792                0.06688773                0.19752068               -0.02360729                2.28743845                0.88677391
               5.58302921                0.97478571               16.98281106                0.37101137               -0.07779664                0.08678847               -0.08325089                0.23375895                1.51346866                0.34380869
               6.58376504                0.92794983               16.93385832                0.26972938                0.18730443                0.02865237               -0.36793613                0.25524208                1.37464997               -0.37803760
               7.58677530                0.87997588               16.88688008                0.42560538                0.34225819                0.19914631               -0.64254245                0.34026550                1.33437973                0.57889486
               8.59061020                0.82838684               16.83747344                1.00000000                0.36121344                0.28809098               -0.91455959                0.14641468                0.68198012                0.56303519
               9.59399957                0.77393639               16.77772723                1.00000000                0.37246522                0.36561625               -1.19863433               -0.00025745                0.09906188                0.08331781
              10.59805950                0.71936047               16.71675559                1.00000000                0.40599371                0.43779415               -1.48486630               -0.02646132                0.03292932               -0.64776125
               0.67184430                2.28624998               17.22593258                1.00000000               -0.30731884               -0.33838326                1.14871328               -0.02455470                0.03233304                1.25492986
               1.66877111                2.21684561               17.15787076                1.00000000               -0.26561200               -0.25488182                0.85877134                0.00077072                0.14909546                0.04437152
               2.66653206                2.14720193               17.09211535                0.43699231               -0.17722084               -0.18197351                0.57458840                0.05537192                0.73304429               -1.19476157
               3.66522669                2.07791561               17.03571011                0.00010000               -1.48960231               -0.16374996                0.28481152                0.97813429                4.14254598               -1.71649546
               4.63674001                2.02495175               17.03813862                0.00010000               -1.55040404                0.20627130                0.19291212                1.90340194                4.45129643               -1.16209423
               5.63421861                1.97631980               16.98962601                0.00010000               -0.07345871               -0.02722712               -0.09036416                1.64595878                1.53148228               -0.46966928
               6.63527084                1.92746629               16.93348052                0.00010000                0.38363240               -0.15038405               -0.36248404                1.45587489                2.81280412                0.15479061
               7.64189126                1.88194345               16.91074435                0.00010000                0.50386061               -0.10082066               -0.59636413                1.01764458                3.18849574                0.60205030
               8.64534805                1.83105749               16.86325375                0.45891920                0.31700283                0.27956345               -0.81020796                0.25592988                1.32637345                1.08228752
               9.64823132                1.77745889               16.80336136                1.00000000                0.33321887                0.35229286               -1.08916807                0.04389450                0.48125081                0.47522692
              10.65201243                1.72351353               16.73898495                1.00000000                0.37811103                0.39711296               -1.39271035               -0.01274024                0.25393401               -0.65736163
               0.74065792                3.28300842               17.20777757                1.00000000               -0.26413491               -0.31396552                1.03737247               -0.01788917                0.03947000                1.24636882
               1.73801657                3.21445170               17.13339142                1.00000000               -0.21662784               -0.22354490                0.73213488                0.00437801                0.04678438               -0.03038124
               2.73632536                3.14548242               17.05910975                0.23743205               -0.10950668               -0.14063428                0.43079401                0.01899670                0.95432716               -1.42267108
               3.73582643                3.07629882               17.00284233                0.00010000               -0.56702701               -0.10493197                0.13634854                1.05442170                4.18455261               -2.18006635
               4.72498482                3.02701377               16.99300197                0.00010000               -1.11962936                0.13533918                0.01491372                2.71801843                6.02118825               -2.75128495
               5.71343385                2.97424117               16.97466602                0.00010000               -0.88629701               -0.00676277               -0.13049976                2.31048665                5.23321772               -1.21877684
               6.70725888                2.92494215               16.95018088                0.00010000               -0.49484314               -0.08069373               -0.30145238                2.02881680                4.82279564                0.54096246
               7.70353698                2.87795946               16.92449622                0.00010000               -0.35227600               -0.16028910               -0.47769703                1.50984303                4.59151719                0.57229396
               8.70021336                2.83397811               16.89611859                0.25287629               -0.05577797                0.27192793               -0.67344246                0.61038612                2.79546989                1.99706629
               9.70242142                2.78098225               16.83542137                1.00000000                0.27410356                0.32086568               -0.94526009                0.05576719                0.59242345                0.74709134
              10.70569543                2.72730273               16.76296835                1.00000000                0.32740061                0.37099220               -1.28707535               -0.02288108                0.00379322               -0.48639224
               0.80859995                4.27997067               17.18905446                1.00000000               -0.22152857               -0.28998152                0.91854694               -0.02107843                0.03862161                1.16843401
               1.80638467                4.21237471               17.10823452                0.98089749               -0.17675416               -0.18581469                0.59908614                0.00082288                0.03970003               -0.08377854
               2.80506487                4.14438924               17.02739128                0.13406936               -0.08004423               -0.08130979                0.28720800               -0.00726659                1.14609847               -1.26330328
               3.80478378                4.07581697               16.96869605                0.00010000               -0.59534183                0.18006527               -0.08808334                0.80880791                5.38555884               -1.32218646
               4.79315803                4.02765853               16.97242978                0.00010000               -1.11419104                0.14074284               -0.12850772                1.62973376                7.98271629               -1.09827574
               5.78249996                3.97618454               16.96709669                0.00010000               -1.05145750                0.22703912               -0.17144762                1.49099802                7.27050360               -0.58600121
               6.77212888                3.92585241               16.95806579                0.00010000               -0.97238981                0.18253549               -0.25464007                1.38614178                6.96085371                0.20254753
               7.76305217                3.87873767               16.94793201                0.00010000               -0.87979496                0.15371430               -0.36061330                1.34211597                6.96330485                1.10138571
               8.75453299                3.83649605               16.94025998                0.24114192               -0.35150644                0.19950990               -0.47816635                0.62644724                3.72762856                2.27904517
               9.75602204                3.78387621               16.86655380                1.00000000                0.21904305                0.25725299               -0.79349701                0.03339228                0.21461962                0.67778065
              10.75891385                3.73093337               16.78855796                1.00000000                0.28918078                0.35036601               -1.16218266               -0.02080926               -0.00083931               -0.39263086
               0.87542827                5.27720879               17.16926050                1.00000000               -0.18138162               -0.25629377                0.79122284               -0.02456955                0.10487106                1.05670057
               1.87361445                5.21073541               17.08266530                0.79026400               -0.13452513               -0.14028807                0.45303165               -0.00380539                0.18419620               -0.21970380
               2.87273776                5.14385623               16.99761697                0.08137143               -0.24405751               -0.02614530                0.12614074                0.16729664                2.29990035               -1.36859312
               3.86873330                5.07990013               16.95331710                0.00010000               -0.77629219                0.47222131               -0.47465779                0.60337229                6.95840927                0.03786772
               4.85721192                5.02982863               16.96075188                0.00010000               -1.18366882                0.29094917               -0.23632366                1.23096198                9.27299728               -0.42614888
               5.84505992                4.97878195               16.96494226                0.00010000               -1.23916679                0.31875239               -0.19487932                1.06447843                8.96937354               -0.16015557
               6.83242858                4.92859286               16.96828803                0.00010000               -1.26621313                0.32006457               -0.20313349                1.00029379                8.87142121                0.39766461
               7.81973566                4.88103375               16.97239590                0.00010000               -1.24124083                0.25027547               -0.23881446                1.03528637                8.94899389                1.12891227
               8.80760377                4.83796831               16.97900051                0.25010285               -0.55418561                0.10866487               -0.28589314                0.49764921                4.58566382                1.89358009
               9.80865195                4.78612731               16.89729276                0.89679448                0.17805724                0.20183660               -0.65721199                0.01606367                0.10881250                0.65775257
              10.81116491                4.73431005               16.81434229                1.00000000                0.25129635                0.32511358               -1.04267871               -0.02048417                0.04633004               -0.40335548
               0.94105533                6.27484479               17.14821325                1.00000000               -0.13942049               -0.21378737                0.65655615               -0.02563024                0.06922823                0.93919800
               1.93966112                6.20956895               17.05477518                0.66773806               -0.09046229               -0.09281431                0.30104827               -0.00508388                0.19623894               -0.39964963
               2.93924608                6.14386634               16.96383644                0.05764852               -0.43911454                0.02697626               -0.04160089                0.37540345                4.04195317               -1.70039800
               3.93087883                6.08526140               16.94729131                0.00010000               -1.01753163                0.48772090               -0.46797100                0.73991242                8.89612382                0.00227542
               4.91889545                6.03347751               16.95365680                0.00010000               -1.29267685                0.43039527               -0.29427205                0.99972296               10.22766622               -0.17118341
               5.90502530                5.98255959               16.96582713                0.00010000               -1.45062417                0.45113041               -0.19278939                0.86124273               10.50179280                0.05522910
               6.88988297                5.93225370               16.98000870                0.00010000               -1.53214222                0.42015564               -0.14240840                0.71811571               10.59800752                0.50153193
               7.87438245                5.88374318               16.99638282                0.00010000               -1.52452794                0.28460426               -0.11764338                0.69990777               10.74610650                1.08451990
               8.85939241                5.83866935               17.01560249                0.26663001               -0.71904427                0.03848121               -0.10865336                0.31622897                5.46168326                1.73819958
               9.86000157                5.78791294               16.92807950                0.82724525                0.13731371                0.15896705               -0.51773918                0.00444994                0.08287042                0.61518842
              10.86213868                5.73743564               16.83968234                1.00000000                0.21371159                0.29802351               -0.93962429               -0.01926808                0.04276994               -0.47095268
               1.00546735                7.27293304               17.12595766                1.00000000               -0.09761234               -0.16802173                0.51908545               -0.02507713                0.03127286                0.85325241
               2.00449123                7.20887912               17.02559553                0.60213558               -0.04569853               -0.04563616                0.14941828               -0.00473170                0.14586359               -0.48733998
               3.00455338                7.14439575               16.92748911                0.04934625               -0.52854307                0.07782203               -0.21381403                0.50851863                5.34113256               -1.89746852
               3.99392037                7.08965455               16.93102420                0.00010000               -1.23225990                0.44478193               -0.40903498                0.97076489               10.97519920               -0.69550908
               4.97990819                7.03843653               16.94678178                0.00010000               -1.52058900                0.57113268               -0.28694670                0.95683014               11.72480581               -0.21070216
               5.96350859                6.98780456               16.96758966                0.00010000               -1.71504384                0.61848475               -0.16921742                0.71318734               12.02639125                0.10953616
               6.94560731                6.93699597               16.99198970                0.00010000               -1.80952095                0.55096872               -0.07552297                0.44700290               12.24496535                0.50282223
               7.92731817                6.88672583               17.01980212                0.00010000               -1.79243590                0.33095333                0.00040549                0.30527142               12.47853523                1.01297365
               8.90975859                6.83873793               17.05129296                0.28862810               -0.86717578               -0.02214193                0.06314751                0.08918489                6.31700942                1.65052758
               9.90997465                6.78930665               16.95793276                0.79377803                0.09877753                0.11699609               -0.38035407               -0.00107280                0.05119141                0.53694219
              10.91173414                6.74027052               16.86402160                1.00000000                0.17594864                0.26666902               -0.82786277               -0.01803029                0.02884155               -0.54761268
               1.06866163                8.27148436               17.10308362                1.00000000               -0.05578488               -0.12267206                0.38190546               -0.02425686                0.01352140                0.81822867
               2.06810378                8.20865622               16.99595057                0.58675414               -0.00102993                0.00090964               -0.00075297               -0.00302114                0.06735633               -0.52003627
               3.06864103                8.14542278               16.88986566                0.04579885               -0.59252130                0.12622680               -0.38449573                0.62140107                6.44705755               -1.88890438
               4.05625335                8.09415704               16.91034061                0.00010000               -1.43794958                0.52070180               -0.41462152                1.11145762               13.05158853               -0.80244721
               5.03988204                8.04490017               16.93826667                0.00010000               -1.77618773                0.74726123               -0.27230283                0.89469526               13.42211554               -0.25612445
               6.02072960                7.99492929               16.96887812                0.00010000               -1.99901422                0.79411355               -0.13782794                0.55406912               13.59091949                0.08805423
               6.99990175                7.94327308               17.00316506                0.00010000               -2.09918369                0.73817306               -0.01041304                0.17606847               13.85366652                0.41188821
               7.97874592                7.89036225               17.04203190                0.00551202               -2.06532329                0.44648297                0.11130860               -0.17791914               14.20538550                0.84062145
               8.95859529                7.83822651               17.08611698                0.31622855               -1.01492033               -0.07540447                0.22881785               -0.20503771                7.19122354                1.50645925
               9.95844752                7.79025286               16.98703622                0.79969291                0.06275243                0.07106501               -0.24236315               -0.00704344                0.02391272                0.49617592
              10.95985034                7.74276902               16.88764886                1.00000000                0.14028181                0.23167349               -0.71656890               -0.01722630                0.01567949               -0.59636149
               1.13063849                9.27047960               17.08004033                1.00000000               -0.01460959               -0.08011011                0.24682230               -0.02342719               -0.00210728                0.68805335
               2.13049239                9.20889731               16.96612006                0.60860428                0.04210535                0.04683713               -0.14897402               -0.00106696                0.07871379               -0.45919800
               3.13148059                9.14692029               16.85379649                0.02641345               -0.69101305                0.17023217               -0.54452559                0.77949714                7.64429362               -1.33089505
               4.11667213                9.10006858               16.89122336                0.00010000               -1.72253766                0.81542554               -0.43381476                0.96328795               15.04254595               -0.47481691
               5.09702984                9.05338176               16.92954735                0.00010000               -2.02275338                0.89428335               -0.27420447                0.63216392               14.99163037               -0.16055616
               6.07621706                9.00368683               16.96921622                0.00010000               -2.16670619                0.90848693               -0.11606600                0.33187867               15.07825104                0.05027679
               7.05369572                8.95175944               17.01247452                0.00010000               -2.37053538                0.88257091                0.04294656               -0.00944350               15.38437911                0.23965811
               8.02880635                8.89565549               17.06149536                0.02021314               -2.39642461                0.76879588                0.20617046               -0.48918983               15.92366033                0.48746168
               9.00576722                8.83722984               17.11885067                0.34746388               -1.17575402               -0.10763837                0.37968190               -0.59209611                8.19046137                1.01143903
              10.00529127                8.79072795               17.01593809                0.84768433                0.02950319                0.02725666               -0.10792277               -0.01607285                0.07469631                0.42119465
              11.00635729                8.74490399               16.91081070                0.97639314                0.10660139                0.19516643               -0.60904100               -0.01728869               -0.02700505               -0.51605414
               1.19135766               10.26988216               17.05449786                1.00000000                0.02840943               -0.05974457                0.11204274                0.04299823                0.37614121                0.56556231
               2.19164175               10.20959297               16.93769912                0.83692091                0.08510224                0.06956515               -0.29100791                0.06219939                0.70307935               -0.38956091
               3.19305970               10.14882742               16.82743030                0.51603660               -1.12920533                0.19071301               -0.68083605                1.20154000                8.98072053               -0.85005325
               4.16905765               10.11046555               16.87623969                0.36238988               -2.20763184                1.03969625               -0.47729121                0.93647247               16.55426216               -0.19460550
               5.14890707               10.06278584               16.92170510                0.35504933               -2.00340773                0.94040802               -0.29993977                0.31939658               16.29118808               -0.05066563
               6.12898949               10.01309902               16.96848435                0.37506482               -2.05814213                0.94121914               -0.11266987                0.18417602               16.39414901                0.06512892
               7.10774422                9.96092450               17.01897787                0.42002507               -2.27488839                0.91650609                0.07734550                0.03680781               16.74790564                0.16911061
               8.08349172                9.90573817               17.07585448                0.51643147               -2.80316585                1.00826727                0.27441106               -0.77400067               17.44546431                0.31325561
               9.05168091                9.83607374               17.14364192                0.68918142               -1.65199070               -0.11560956                0.48628459               -1.15564034                9.37387359                0.62562346
              10.05045191                9.79079799               17.04338363                0.95676128               -0.02642119                0.00700419                0.01329079                0.04599401                0.61375479                0.35834586
              11.05115248                9.74667235               16.93583496                0.98725333                0.07005732                0.17683615               -0.50010071                0.06695544                0.26040508               -0.41193827
               0.58899622                0.32523780               18.28173450                1.00000000               -0.35825084               -0.39175498                1.37040045               -0.07152472               -0.70264939                0.74115284
               1.58541371                0.24778921               18.21650172                1.00000000               -0.29570559               -0.31305964                1.09863139               -0.05733450               -0.88410586                0.04794579
               2.58308211                0.17018272               18.14756345                1.00000000               -0.15889346               -0.23621687                0.81274102               -0.03828976               -0.82168513               -0.20406578
               3.58223584                0.09375302               18.08352605                0.61980972                0.31532554               -0.18569185                0.53762655                0.48633660                0.15458450               -0.56226063
               4.58938862                0.02951225               18.03411108                0.70111565                0.46382739               -0.06823417                0.24374964               -0.06083625                0.68793384                0.12587694
               5.59151239               -0.02590628               17.98090894                0.78391309                0.14466838                0.02213563               -0.06371018                0.00392772                0.30057513                0.07083406
               6.59228199               -0.07991063               17.92382734                0.76564271                0.05064841                0.10542130               -0.36580186                0.00921756                0.11486933               -0.04619764
               7.59252536               -0.13496864               17.86686514                0.86179974                0.05756398                0.19981466               -0.67729689                0.04162813               -0.11014820                0.05138125
               8.59343327               -0.19350625               17.80512360                1.00000000                0.18532066                0.30446985               -0.98384184                0.02847782               -0.48077174                0.41119975
               9.59623177               -0.25439755               17.74064065                1.00000000                0.34587427                0.37418311               -1.28250108               -0.04682530               -0.58678211                0.01288994
              10.60035075               -0.31553106               17.67683674                1.00000000                0.41189800                0.45488445               -1.56578003               -0.06957401               -0.55882593               -0.57803410
               0.66572956                1.32132025               18.25691161                1.00000000               -0.33616530               -0.36990983                1.24645151               -0.03179710               -0.09139503                1.00901081
               1.66236790                1.24465862               18.19126288                1.00000000               -0.30061227               -0.29040326                0.97419576               -0.01463930               -0.05487862                0.07022260
               2.65971731                1.16782056               18.12628842                0.80269930               -0.24667282               -0.21409782                0.69917329                0.02732134                0.17037603               -0.56243934
               3.65743445                1.09189610               18.06512950                0.13495075               -0.55537034               -0.17781580                0.43762125                0.69340546                1.61872277               -0.96844012
               4.64860991                1.02882991               18.02918400                0.29328582               -0.55856688                0.06243279                0.19780732               -0.05204812                2.30912239                0.91762847
               5.64626311                0.97431508               17.98197970                0.38465058               -0.08522803                0.08702976               -0.08367531                0.21436280                1.51343222                0.35501415
               6.64690534                0.92114358               17.93019555                0.28113535                0.17381691                0.03583241               -0.36522581                0.24456737                1.37976979               -0.38198121
               7.64973945                0.86702951               17.88049219                0.43546475                0.32635800                0.19618421               -0.63570301                0.31762039                1.34600448                0.58299177
               8.65343250                0.80953845               17.82837744                1.00000000                0.35182387                0.28462347               -0.90511263                0.13807552                0.68847649                0.58326976
               9.65677593                0.74934428               17.76580629                1.00000000                0.36780051                0.36172228               -1.18593227                0.00021556                0.09894235                0.08447768
              10.66078851                0.68901779               17.70199019                1.00000000                0.40125888                0.43441371               -1.46853937               -0.02474968                0.03212407               -0.68531802
               0.74168354                2.31783960               18.23736634                1.00000000               -0.30629202               -0.33397863                1.13803421               -0.02335334                0.03361620                1.29054502
               1.73862062                2.24198115               18.16642099                1.00000000               -0.26462402               -0.25252226                0.85272127                0.00255151                0.15233590                0.04740957
               2.73639106                2.16590077               18.09781954                0.45424301               -0.17630082               -0.18239011                0.56656901                0.05904587                0.73470317               -1.21906512
               3.73509460                2.09019670               18.03853452                0.00010000               -1.52311905               -0.17467662                0.28394346                0.98821481                4.22835728               -1.75768197
               4.70592868                2.03076091               18.04002690                0.00010000               -1.58043133                0.19375571                0.18182924                1.89284613                4.58408194               -1.18872949
               5.70348598                1.97583432               17.98869564                0.00010000               -0.07348854               -0.04224163               -0.09756627                1.62873813                1.57534180               -0.46602008
               6.70445891                1.92080602               17.92985403                0.00010000                0.34984606               -0.15523370               -0.36325413                1.42239902                2.88004089                0.17963869
               7.71048290                1.86895505               17.90478479                0.00010000                0.47105520               -0.10642964               -0.59642963                0.99052955                3.28134851                0.64485113
               8.71388001                1.81218622               17.85516598                0.46578314                0.31369266                0.27665592               -0.80819022                0.24349696                1.39461070                1.12852022
               9.71675675                1.75283689               17.79250050                1.00000000                0.33143629                0.34899606               -1.08372233                0.04179355                0.50529872                0.49627285
              10.72050874                1.69315722               17.72510571                1.00000000                0.37519863                0.39825215               -1.38366291               -0.01178498                0.26627651               -0.69405632
               0.81697939                3.31464067               18.21809984                1.00000000               -0.26216268               -0.31007824                1.02732778               -0.01589947                0.04285518                1.27551189
               1.81435777                3.23960817               18.14068204                1.00000000               -0.21483570               -0.22205880                0.72655878                0.00741349                0.05213580               -0.03212445
               2.81268268                3.16417275               18.06341361                0.25093229               -0.10095795               -0.14221082                0.42980154                0.01615308                0.96360216               -1.45275046
               3.81233861                3.08840256               18.00421113                0.00010000               -0.59267345               -0.11431380                0.13663304                1.05510213                4.25345777               -2.23176126
               4.80082921                3.03270502               17.99319270                0.00010000               -1.17729224                0.11898619                0.01820117                2.72632589                6.18552128               -2.84427013
               5.78879276                2.97347025               17.97336298                0.00010000               -0.92983067               -0.02533784               -0.13283129                2.29598797                5.39388968               -1.22590096
               6.78223260                2.91803891               17.94716476                0.00010000               -0.53114652               -0.10010917               -0.30310903                2.00200104                4.97882852                0.59261608
               7.77816983                2.86490092               17.91971658                0.00010000               -0.39059989               -0.16717221               -0.47933786                1.49668529                4.73958741                0.65418285
               8.77442060                2.81507157               17.88936628                0.25263766               -0.07645145                0.26384674               -0.67827977                0.59386256                2.90271529                2.08862131
               9.77664080                2.75632420               17.82596608                1.00000000                0.27457809                0.31728458               -0.94695720                0.05119866                0.62898358                0.78977185
              10.77991216                2.69698283               17.75011154                1.00000000                0.32713574                0.37542051               -1.28548993               -0.02153550                0.00669611               -0.50279862
               0.89143055                4.31163803               18.19818585                1.00000000               -0.21937444               -0.28627050                0.90802237               -0.01980916                0.04541045                1.18857243
               1.88923681                4.23753997               18.11420939                0.96845825               -0.17554122               -0.18504057                0.59563493                0.00234637                0.05055574               -0.09600106
               2.88791973                4.16305655               18.03029291                0.14232403               -0.07862159               -0.08350988                0.29212084               -0.00976066                1.12858933               -1.30474402
               3.88766438                4.08791042               17.96787159                0.00010000               -0.62661071                0.15716576               -0.06527026                0.80679013                5.47562599               -1.48247262
               4.87538751                4.03314063               17.97119833                0.00010000               -1.17962633                0.12746412               -0.12072927                1.62181850                8.25584321               -1.16213296
               5.86407185                3.97532756               17.96538773                0.00010000               -1.11596281                0.22368891               -0.17216827                1.48288199                7.53962595               -0.58918464
               6.85306826                3.91880383               17.95551549                0.00010000               -1.03439559                0.17640860               -0.25664934                1.36649547                7.21296188                0.24963115
               7.84338394                3.86561160               17.94430914                0.00010000               -0.93671392                0.14996055               -0.36518357                1.31389298                7.20642153                1.18451695
               8.83433398                3.81746316               17.93542930                0.23907694               -0.37572376                0.18901165               -0.48890073                0.60676259                3.87664948                2.39767286
               9.83586946                3.75918258               17.85862524                0.99006147                0.22133895                0.25461931               -0.79974610                0.03022802                0.24447760                0.71869957
              10.83876076                3.70066563               17.77698434                1.00000000                0.28912952                0.35447181               -1.16037635               -0.01950516                0.00533692               -0.39887385
               0.96477933                5.30891526               18.17711745                1.00000000               -0.17931580               -0.25183355                0.78028179               -0.02400018                0.10810773                1.06821843
               1.96298618                5.23590736               18.08717074                0.78138082               -0.13311596               -0.13961362                0.44824001               -0.00284693                0.19306684               -0.24192866
               2.96211702                5.16250256               17.99888058                0.08862522               -0.22979221               -0.02848957                0.12725663                0.14525561                2.18172574               -1.42301513
               3.95839033                5.09154588               17.94869611                0.00010000               -0.81342864                0.44823522               -0.43108664                0.59436369                7.10032787               -0.04843025
               4.94584844                5.03525430               17.95838440                0.00010000               -1.28015670                0.29452620               -0.23779596                1.24006157                9.75082280               -0.45385241
               5.93278720                4.97794402               17.96298543                0.00010000               -1.32849889                0.32884183               -0.19695966                1.05187428                9.34385308               -0.14484044
               6.91927846                4.92156708               17.96624423                0.00010000               -1.34994164                0.32860265               -0.20664831                0.97301110                9.21876445                0.44940719
               7.90578837                4.86790013               17.96997816                0.00010000               -1.31467977                0.25337164               -0.24597417                0.99977177                9.28699775                1.21308195
               8.89298487                4.81885180               17.97607839                0.24760496               -0.58727361                0.10313666               -0.29990777                0.47239896                4.77004275                2.00517351
               9.89404289                4.76141658               17.89072774                0.87950869                0.17855477                0.20266369               -0.66123481                0.01238028                0.12762951                0.69199853
              10.89655596                4.70407227               17.80394282                1.00000000                0.25130712                0.32910461               -1.04630914               -0.01879700                0.05874594               -0.42260207
               1.03696636                6.30660136               18.15472303                1.00000000               -0.13737782               -0.20874053                0.64538992               -0.02487608                0.06972691                0.94491612
               2.03559258                6.23474770               18.05776235                0.66127304               -0.08900168               -0.09231390                0.29652942               -0.00347511                0.20319361               -0.42344012
               3.03518632                6.16248676               17.96342912                0.06388845               -0.43963377                0.02368400               -0.03964482                0.35538682                3.99693024               -1.75729115
               4.02679990                6.09687513               17.94232888                0.00010000               -1.06978605                0.50210143               -0.51466824                0.70671163                9.13702215                0.10867460
               5.01379060                6.03903115               17.95065223                0.00010000               -1.40016705                0.45195279               -0.30406818                1.00266357               10.75205536               -0.14330150
               5.99879656                5.98190440               17.96387117                0.00010000               -1.56091119                0.47682441               -0.19849066                0.83876977               10.96272096                0.09196843
               6.98257238                5.92537589               17.97856039                0.00010000               -1.63509566                0.44116099               -0.14810146                0.67787846               11.02998638                0.55852307
               7.96609465                5.87067903               17.99516374                0.00010000               -1.61534382                0.29575463               -0.12740774                0.64948434               11.16845255                1.16507588
               8.95026550                5.81952589               18.01444282                0.26418580               -0.75990212                0.03783767               -0.12481657                0.28361441                5.68015212                1.83951737
               9.95089661                5.76323586               17.92282765                0.81179094                0.14039748                0.16384998               -0.53403091                0.00210936                0.08851522                0.65177814
              10.95307345                5.70724772               17.83021469                1.00000000                0.21768448                0.30514375               -0.95505671               -0.01773094                0.04310645               -0.49273002
               1.10798914                7.30474045               18.13109575                1.00000000               -0.09578628               -0.16334851                0.50846979               -0.02427217                0.03115349                0.85742045
               2.10703128                7.23406108               18.02707548                0.59719759               -0.04459079               -0.04542794                0.14638194               -0.00300474                0.14908654               -0.50919426
               3.10709732                7.16297624               17.92537633                0.05402515               -0.55255527                0.07354714               -0.20931305                0.50845694                5.41579007               -1.95346297
               4.09598017                7.10158791               17.92668456                0.00010000               -1.31124401                0.47850694               -0.45808017                0.95499080               11.31853499               -0.57767705
               5.08087244                7.04429336               17.94381148                0.00010000               -1.63811555                0.60898945               -0.30598409                0.95107298               12.25066812               -0.14504934
               6.06321786                6.98748051               17.96585583                0.00010000               -1.84055239                0.65902969               -0.17764234                0.68241892               12.54184567                0.15931337
               7.04406140                6.93039030               17.99119885                0.00010000               -1.92949074                0.58500408               -0.08354129                0.39279087               12.74878448                0.55920329
               8.02462805                6.87381522               18.01974933                0.00010000               -1.89805305                0.35075685               -0.01223333                0.23756427               12.97850227                1.08614597
               9.00610034                6.81960856               18.05182366                0.28632844               -0.91323973               -0.01944332                0.04177750                0.04933315                6.57147803                1.74548885
              10.00636325                6.76469358               17.95402681                0.77922271                0.10386407                0.12358601               -0.40152905               -0.00181533                0.05372705                0.57555296
              11.00817762                6.71017514               17.85564084                1.00000000                0.18143652                0.27640282               -0.84897904               -0.01700634                0.03030447               -0.56204353
               1.17783965                8.30333439               18.10685527                1.00000000               -0.05429535               -0.11891398                0.37230495               -0.02355495                0.01310337                0.82357595
               2.17729670                8.23383914               17.99593928                0.58284891               -0.00055088                0.00088563               -0.00194068               -0.00172432                0.06665835               -0.53956151
               3.17782864                8.16395770               17.88606292                0.04852302               -0.63570529                0.12183332               -0.37703227                0.64279292                6.61164253               -1.93714180
               4.16458259                8.10644527               17.90605587                0.00010000               -1.54545896                0.55934936               -0.44336225                1.12873756               13.50033789               -0.72167799
               5.14691946                8.05121094               17.93546917                0.00010000               -1.91172964                0.79959597               -0.28745529                0.89505369               13.97805090               -0.19509225
               6.12634800                7.99508499               17.96745624                0.00010000               -2.14129844                0.84840062               -0.14712827                0.52289922               14.15162372                0.13372231
               7.10409349                7.93707597               18.00301631                0.00010000               -2.23601635                0.78806004               -0.02039433                0.11521190               14.42086474                0.45765007
               8.08162767                7.87769417               18.04307244                0.00589861               -2.18598445                0.47798503                0.09542748               -0.26391090               14.78060706                0.89952318
               9.06037380                7.81913703               18.08827981                0.31394998               -1.06669801               -0.06990688                0.20237165               -0.25681374                7.48549039                1.59123202
              10.06029371                7.76570758               17.98448725                0.78444870                0.06982030                0.07848685               -0.26826302               -0.00809550                0.02582164                0.53295154
              11.06177020                7.71277578               17.88035452                1.00000000                0.14764907                0.24204460               -0.74265871               -0.01599173                0.01646971               -0.61295687
               1.24650855                9.30236217               18.08246747                1.00000000               -0.01350646               -0.07722466                0.23840731               -0.02289776               -0.00330875                0.69475748
               2.24637348                9.23407880               17.96463791                0.60475825                0.04192561                0.04647684               -0.14814082               -0.00035455                0.07804794               -0.47424059
               3.24734706                9.16541290               17.84841076                0.02641182               -0.75358985                0.16624210               -0.53395820                0.82505277                7.88997844               -1.36113810
               4.23130168                9.11277490               17.88684462                0.00010000               -1.86066323                0.87086888               -0.44302112                0.99794068               15.58415382               -0.41840822
               5.21013379                9.06028528               17.92676617                0.00010000               -2.17454319                0.95519380               -0.28292279                0.63872037               15.58325594               -0.12613897
               6.18781082                9.00444852               17.96801737                0.00010000               -2.31886699                0.97142787               -0.12469858                0.31147110               15.68767591                0.07624781
               7.16375645                8.94615150               18.01285180                0.00010000               -2.52610252                0.94562654                0.03126580               -0.05670600               16.01195150                0.26461546
               8.13728877                8.88337492               18.06346964                0.02121768               -2.54028991                0.82747647                0.18727524               -0.56957455               16.57283408                0.52134923
               9.11295066                8.81821042               18.12249637                0.34492113               -1.23630900               -0.09823735                0.34782395               -0.65985683                8.53052979                1.06702220
              10.11256259                8.76626332               18.01470698                0.82932085                0.03853627                0.03642810               -0.13931891               -0.01790022                0.08124838                0.44926773
              11.11372138                8.71501603               17.90456320                0.97768183                0.11587909                0.20597184               -0.64075930               -0.01601435               -0.02697112               -0.53427648
               1.31394845               10.30178990               18.05558455                1.00000000                0.02904252               -0.05722734                0.10492796                0.04186860                0.37963201                0.57263190
               2.31423888               10.23476868               17.93480682                0.83545638                0.08425685                0.06898826               -0.28837625                0.06117206                0.71356654               -0.40107672
               3.31563359               10.16728255               17.82069104                0.51547712               -1.22849248                0.18696427               -0.66858227                1.28335159                9.28962968               -0.86786490
               4.28966903               10.12386264               17.87147371                0.36295725               -2.38066786                1.10877487               -0.47704048                0.98834821               17.17678575               -0.16213821
               5.26802023               10.07031482               17.91868337                0.35527025               -2.14789134                1.00295385               -0.30554742                0.32118928               16.93166264               -0.03653159
               6.24671120               10.01451355               17.96732142                0.37490046               -2.19936309                1.00650236               -0.12111852                0.17372225               17.06028489                0.07510627
               7.22403297                9.95598850               18.01969033                0.41951898               -2.42669706                0.98369988                0.06382272                0.01415950               17.43398872                0.17884351
               8.19817726                9.89424370               18.07849383                0.51729550               -2.98723559                1.08687814                0.25214580               -0.85196181               18.15482866                0.32819922
               9.16428826                9.81717228               18.14832247                0.68817266               -1.75235836               -0.10381418                0.44822734               -1.25661760                9.76650892                0.65975316
              10.16313009                9.76643614               18.04333214                0.94627109               -0.01718861                0.01728180               -0.02460826                0.04289723                0.64804615                0.38006899
              11.16394449                9.71689521               17.93064164                0.98713900                0.08143936                0.18791790               -0.53870556                0.06821829                0.27455928               -0.42971628
               0.64844847                0.35820515               19.29536890                1.00000000               -0.35464463               -0.38806824                1.35707887               -0.06998005               -0.72570557                0.76399535
               1.64490203                0.27414400               19.22743732                1.00000000               -0.29266153               -0.31094800                1.08938394               -0.05460631               -0.91562987                0.05085141
               2.64259524                0.18995965               19.15565451                1.00000000               -0.15771109               -0.23426237                0.80535823               -0.03531981               -0.85818765               -0.21125650
               3.64174780                0.10697044               19.08885955                0.61959810                0.31022963               -0.17738859                0.52994263                0.47576537                0.11377128               -0.57588111
               4.64879983                0.03598568               19.03652273                0.70414785                0.45761825               -0.06605942                0.23914201               -0.07022333                0.63575763                0.13542817
               5.65090017               -0.02614080               18.98027022                0.78776615                0.14487545                0.02400956               -0.06354263                0.00097213                0.24630203                0.07695478
               6.65169734               -0.08676715               18.92019996                0.76849466                0.05617818                0.10506603               -0.35945467                0.00880234                0.05890518               -0.05038442
               7.65202373               -0.14826594               18.86015175                0.86423781                0.06459977                0.19820045               -0.66543984                0.03793416               -0.16861992                0.05670509
               8.65298934               -0.21298801               18.79536633                1.00000000                0.18687908                0.29978563               -0.96770385                0.02457988               -0.53291600                0.42215939
               9.65576131               -0.27992692               18.72791414                1.00000000                0.34158824                0.36930134               -1.26284686               -0.04566143               -0.62701993                0.01121853
              10.65982110               -0.34710993               18.66129586                1.00000000                0.40597893                0.44950788               -1.54250443               -0.06699222               -0.59113601               -0.60942244
               0.73180982                1.35432447               19.26931639                1.00000000               -0.33311063               -0.36662499                1.23464961               -0.03105220               -0.09452367                1.03873203
               1.72847871                1.27103452               19.20096704                1.00000000               -0.29904975               -0.28846801                0.96667747               -0.01224180               -0.05856873                0.07470719
               2.72582882                1.18761702               19.13327239                0.78779224               -0.24931351               -0.21321056                0.69969922                0.03396954                0.17443296               -0.58174864
               3.72349244                1.10519655               19.06956465                0.14098878               -0.55878018               -0.16450489                0.44535555                0.67733651                1.63668697               -1.01589211
               4.71465322                1.03532508               19.03115985                0.30437283               -0.56030695                0.05913914                0.19422360               -0.08182830                2.31900658                0.93724509
               5.71228630                0.97409929               18.98113756                0.39790133               -0.09026417                0.08784568               -0.08586869                0.19782905                1.50899576                0.36220315
               6.71284794                0.91428351               18.92655380                0.29212568                0.16136005                0.04285032               -0.36385338                0.23509669                1.38349838               -0.38536424
               7.71551350                0.85371606               18.87416602                0.44492775                0.31088457                0.19410129               -0.63016584                0.29544422                1.35659079                0.58687903
               8.71906563                0.79000985               18.81937119                1.00000000                0.34260781                0.28135343               -0.89656025                0.12926211                0.69398839                0.60318705
               9.72236566                0.72376609               18.75400859                1.00000000                0.36342807                0.35757443               -1.17401547                0.00057782                0.09833652                0.08555679
              10.72633419                0.65738515               18.68738480                1.00000000                0.39685291                0.43104942               -1.45298218               -0.02277181                0.03105460               -0.72279429
               0.81440732                2.35087265               19.24869326                1.00000000               -0.30426871               -0.33126600                1.12693881               -0.02276062                0.03748933                1.32491685
               1.81136463                2.26837464               19.17492518                1.00000000               -0.26473593               -0.25068536                0.84718002                0.00447933                0.15592896                0.04944428
               2.80911260                2.18569544               19.10344673                0.45519566               -0.18890783               -0.18314918                0.56715001                0.07725930                0.74264897               -1.24972588
               3.80758647                2.10368034               19.04138898                0.00010000               -1.54260370               -0.14350149                0.30831846                0.95485395                4.32916796               -1.83973973
               4.77826053                2.03716846               19.04177521                0.00010000               -1.58440762                0.18159297                0.16084395                1.84129727                4.70579122               -1.21900811
               5.77589832                1.97561611               18.98767469                0.00010000               -0.07390085               -0.05341123               -0.10688533                1.59873380                1.61622493               -0.46420969
               6.77678251                1.91408986               18.92621543                0.00010000                0.31539797               -0.15752456               -0.36556388                1.38169400                2.94179572                0.20634016
               7.78220628                1.85561608               18.89881576                0.00010000                0.43710225               -0.10986451               -0.59825474                0.95814543                3.36989985                0.68892040
               8.78552455                1.79263906               18.84708994                0.47249139                0.30956443                0.27386854               -0.80778338                0.22805115                1.46155311                1.17440316
               9.78839757                1.72722457               18.78168691                1.00000000                0.33014999                0.34434336               -1.07966352                0.03810867                0.52883384                0.51716611
              10.79212755                1.66151106               18.71131169                1.00000000                0.37299835                0.39914887               -1.37580471               -0.01113862                0.27825133               -0.73105786
               0.89635062                3.34769915               19.22832413                1.00000000               -0.26051114               -0.30740688                1.01686094               -0.01514490                0.04722733                1.30234923
               1.89374551                3.26602081               19.14792260                1.00000000               -0.21411565               -0.22043295                0.72185619                0.00894939                0.05887621               -0.03594159
               2.89206831                3.18395404               19.06770578                0.25872102               -0.13145065               -0.14340211                0.42810278                0.05837842                0.97179438               -1.48044788
               3.89111650                3.10232652               19.00557499                0.00010000               -0.62624578               -0.09989004                0.14158102                1.04036590                4.32579675               -2.29693540
               4.87954339                3.03895694               18.99336600                0.00010000               -1.18884576                0.10278577                0.00948394                2.66013941                6.35222530               -2.93211279
               5.86733958                2.97303107               18.97200939                0.00010000               -0.95307738               -0.04188539               -0.13923282                2.26265394                5.55344712               -1.22738785
               6.86048185                2.91113302               18.94411870                0.00010000               -0.56061855               -0.11621460               -0.30683868                1.95859515                5.13225257                0.64746206
               7.85612721                2.85151877               18.91490946                0.00010000               -0.42318378               -0.17248228               -0.48313171                1.47073502                4.88184097                0.73951732
               8.85201817                2.79548722               18.88255299                0.25236292               -0.09356875                0.25491679               -0.68529853                0.56797552                3.00596119                2.18103111
               9.85425584                2.73065296               18.81648223                1.00000000                0.27601324                0.31319847               -0.95118561                0.04199432                0.66463453                0.83124272
              10.85753843                2.66536812               18.73725855                1.00000000                0.32825987                0.38067752               -1.28632457               -0.01974243                0.00859800               -0.51931652
               0.97746108                4.34472451               19.20721491                1.00000000               -0.21723608               -0.28315820                0.89741869               -0.01919269                0.05367708                1.20578041
               1.97528872                4.26396598               19.12014722                0.95572543               -0.17433134               -0.18384666                0.59152952                0.00350147                0.06362695               -0.10981986
               2.97397446                4.18282739               19.03323370                0.14817936               -0.09489171               -0.08471615                0.29526889                0.02475824                1.12509278               -1.34607230
               3.97339089                4.10168254               18.96739065                0.00010000               -0.66078458                0.10738588               -0.02789356                0.82581609                5.57159520               -1.63935688
               4.96075877                4.03922418               18.97001519                0.00010000               -1.22077830                0.11703657               -0.11952067                1.57457654                8.51610079               -1.23164249
               5.94897532                3.97477841               18.96365333                0.00010000               -1.16460285                0.21853159               -0.17492881                1.46394814                7.80424756               -0.58692004
               6.93746671                3.91176557               18.95293280                0.00010000               -1.08542696                0.17015414               -0.26076910                1.33586658                7.46056505                0.30125678
               7.92726678                3.85216644               18.94062834                0.00010000               -0.98584149                0.14610049               -0.37199335                1.27430351                7.44212543                1.27120900
               8.91774988                3.79773739               18.93048197                0.23702197               -0.39551176                0.17855215               -0.50207374                0.57794823                4.01965622                2.51940909
               9.91935655                3.73348853               18.85055888                0.97073551                0.22762457                0.25559569               -0.81909628                0.02357423                0.27427225                0.76584985
              10.92230237                3.66912461               18.76535044                1.00000000                0.29458216                0.36297693               -1.17417883               -0.01783125                0.01600069               -0.40575768
               1.05748383                5.34203598               19.18486614                1.00000000               -0.17711703               -0.24798481                0.76912228               -0.02370272                0.11128451                1.07732088
               2.05571266                5.26234388               19.09163010                0.77287746               -0.13184559               -0.13852846                0.44367887               -0.00230412                0.20204718               -0.26570586
               3.05484691                5.18225972               19.00016210                0.09524083               -0.22383091               -0.03013167                0.12944888                0.13870306                2.09082204               -1.47896607
               4.05123604                5.10447424               18.94469537                0.00010000               -0.84539278                0.38819462               -0.37560826                0.60216169                7.25655848               -0.18917652
               5.03793906                5.04129767               18.95599596                0.00010000               -1.35794412                0.29801157               -0.23710973                1.22814803               10.19875494               -0.48664297
               6.02407716                4.97740170               18.96100307                0.00010000               -1.40639574                0.33750773               -0.19947096                1.03173306                9.71380410               -0.12646742
               7.00981114                4.91453610               18.96415506                0.00010000               -1.42178516                0.33519890               -0.21186182                0.93812454                9.55965064                0.50539678
               7.99564145                4.85444078               18.96747641                0.00010000               -1.37780526                0.25535430               -0.25557932                0.95622246                9.61659370                1.30138972
               8.98225504                4.79905826               18.97300235                0.24516866               -0.61506718                0.09885178               -0.31668651                0.44528789                4.95181024                2.12157446
               9.98334011                4.73576487               18.88406806                0.86218097                0.18273134                0.20804482               -0.67849086                0.01064254                0.14733653                0.73397627
              10.98590967                4.67262766               18.79341611                1.00000000                0.25695570                0.33792114               -1.06747872               -0.01750320                0.06809053               -0.44117889
               1.13637123                6.33976481               19.16112105                1.00000000               -0.13523275               -0.20433847                0.63404977               -0.02458319                0.07008253                0.94909945
               2.13501891                6.26119541               19.06070577                0.65508904               -0.08765375               -0.09127890                0.29208549               -0.00301646                0.20993391               -0.44743189
               3.13461816                6.18222476               18.96304354                0.06974781               -0.43113696                0.02164883               -0.03748957                0.33321014                3.92875004               -1.81307715
               4.12639617                6.10944643               18.93699795                0.00010000               -1.11119464                0.49498884               -0.54334681                0.67897657                9.36167233                0.16113108
               5.11239426                6.04518441               18.94757544                0.00010000               -1.50123051                0.47104629               -0.30972535                0.99466775               11.28465785               -0.12003586
               6.09637156                5.98152856               18.96185731                0.00010000               -1.66020728                0.50020305               -0.20381147                0.80830545               11.41831180                0.13041618
               7.07919012                5.91846954               18.97704667                0.00010000               -1.72512400                0.45940070               -0.15530762                0.63116573               11.45487229                0.61898861
               8.06186908                5.85727352               18.99383466                0.00010000               -1.69292853                0.30496369               -0.13963121                0.59334205               11.58226473                1.24959361
               9.04533155                5.79971443               19.01310615                0.26184825               -0.79345394                0.03762256               -0.14462390                0.25157693                5.89433212                1.94511649
              10.04600000                5.73764943               18.91739888                0.79627759                0.14475872                0.16966159               -0.55313859                0.00302549                0.09479791                0.69009863
              11.04822672                5.67588303               18.82058121                1.00000000                0.22267259                0.31310784               -0.97286022               -0.01651454                0.04485923               -0.51181341
               1.21413097                7.33794921               19.13612705                1.00000000               -0.09385866               -0.15903300                0.49759377               -0.02386903                0.03102002                0.86081124
               2.21319238                7.26051830               19.02852317                0.59251667               -0.04354351               -0.04464240                0.14297785               -0.00230638                0.15219370               -0.53051764
               3.21326010                7.18269269               18.92330285                0.05853283               -0.56682286                0.07103762               -0.20569129                0.49974270                5.46045448               -2.00731606
               4.20185592                7.11437402               18.92186260                0.00010000               -1.37549051                0.50584923               -0.50284698                0.92417991               11.64191607               -0.45387936
               5.18575029                7.05071860               18.94066210                0.00010000               -1.74488974                0.64296115               -0.32183351                0.93400835               12.78715757               -0.08104946
               6.16695813                6.98740576               18.96403682                0.00010000               -1.95303963                0.69568142               -0.18595895                0.64244475               13.05465110                0.21071747
               7.14668949                6.92372412               18.99031887                0.00010000               -2.03473610                0.61517919               -0.09319998                0.33235087               13.24496371                0.61830697
               8.12626341                6.86054006               19.01955745                0.00010000               -1.98894115                0.36794378               -0.02747325                0.16560432               13.46882855                1.16251535
               9.10691067                6.79981071               19.05212851                0.28415141               -0.95156935               -0.01679914                0.01777324                0.00883901                6.82146977                1.84289121
              10.10723202                6.73915810               18.94990218                0.76458718                0.11007535                0.12911473               -0.42428473               -0.00158236                0.05653957                0.61692794
              11.10911218                6.67888982               18.84704202                1.00000000                0.18801588                0.28522475               -0.87120513               -0.01590464                0.03177157               -0.57406914
               1.29075567                8.33658415               19.11052972                1.00000000               -0.05263762               -0.11518717                0.36232385               -0.02313524                0.01275029                0.82846218
               2.29022930                8.26030256               18.99591176                0.57927262                0.00008121                0.00133335               -0.00394328               -0.00104782                0.06606954               -0.55826162
               3.29075730                8.18364551               18.88232502                0.05123551               -0.66877189                0.11883582               -0.37124221                0.65371007                6.75403214               -1.98285955
               4.27685386                8.11956342               18.90147336                0.00010000               -1.63573049                0.59542819               -0.47186439                1.12709932               13.92897259               -0.62117181
               5.25804269                8.05804363               18.93251757                0.00010000               -2.03194618                0.84630923               -0.30210579                0.88253481               14.53515951               -0.12863890
               6.23621493                7.99544219               18.96593556                0.00010000               -2.26699215                0.89704237               -0.15715805                0.48281574               14.70728615                0.18123487
               7.21270284                7.93077313               19.00275717                0.00010000               -2.35601833                0.83268063               -0.03235913                0.04915963               14.97936353                0.50541896
               8.18909457                7.86463240               19.04394045                0.00643223               -2.29062804                0.50605153                0.07678311               -0.35198057               15.34477481                0.96100345
               9.16689028                7.79937845               19.09016442                0.31175884               -1.11026631               -0.06415409                0.17301203               -0.30854299                7.77467016                1.67787778
              10.16688924                7.74023173               18.98167095                0.76909162                0.07774569                0.08551577               -0.29586087               -0.00867673                0.02822815                0.57163203
              11.16844520                7.68158752               18.87279569                1.00000000                0.15559549                0.25207604               -0.76930645               -0.01475805                0.01735162               -0.62753118
               1.36623144                9.33564547               19.08480847                1.00000000               -0.01213774               -0.07417630                0.22943414               -0.02254490               -0.00435553                0.70112162
               2.36611006                9.26054497               18.96315725                0.60132645                0.04210014                0.04655228               -0.14857662                0.00006222                0.07771891               -0.48850696
               3.36707344                9.18506941               18.84311732                0.02656765               -0.80551360                0.16320210               -0.52569439                0.85828625                8.12170558               -1.38954390
               4.34999979                9.12628258               18.88236294                0.00010000               -1.97756165                0.92006007               -0.45321788                1.01612754               16.10732654               -0.34800748
               5.32752221                9.06764478               18.92388889                0.00010000               -2.30574233                1.00885902               -0.29265841                0.63569759               16.16667035               -0.08736487
               6.30388495                9.00534661               18.96672225                0.00010000               -2.45198686                1.02754364               -0.13494228                0.28531184               16.28822063                0.10359929
               7.27848247                8.94037773               19.01309983                0.00010000               -2.66332359                1.00255946                0.01724863               -0.10683924               16.62896769                0.29060872
               8.25061847                8.87066109               19.06524086                0.02244734               -2.66709944                0.88106860                0.16561265               -0.64942536               17.20905312                0.55717852
               9.22514049                8.79852763               19.12580715                0.34239974               -1.28845335               -0.08809200                0.31259766               -0.72550882                8.86436339                1.12399125
              10.22484941                8.74086842               19.01315171                0.81073143                0.04824668                0.04586590               -0.17272744               -0.01959369                0.08843254                0.47836920
              11.22610542                8.68393134               18.89799552                0.97885386                0.12560119                0.21668095               -0.67288261               -0.01473419               -0.02669424               -0.55166301
               1.44050577               10.33510063               19.05659642                1.00000000                0.03008255               -0.05448405                0.09692811                0.04073131                0.38321121                0.57945458
               2.44080660               10.26123361               18.93193160                0.83420196                0.08398178                0.06886408               -0.28745586                0.06009980                0.72403960               -0.41198741
               3.44218541               10.18690956               18.81405866                0.51503253               -1.31027822                0.18401453               -0.65900851                1.34774689                9.58796757               -0.88470599
               4.41460103               10.13796462               18.86669888                0.36348699               -2.52464000                1.16820376               -0.47848111                1.02568693               17.78163451               -0.12144422
               5.39169261               10.07822081               18.91559415                0.35548353               -2.27064039                1.05760258               -0.31286684                0.31846186               17.55893833               -0.02035615
               6.36918823               10.01599306               18.96606198                0.37473073               -2.32205134                1.06464506               -0.13164827                0.16050334               17.71437160                0.08537991
               7.34525158                9.95082432               19.02025432                0.41897980               -2.56160331                1.04465868                0.04780685               -0.01005367               18.10677818                0.18856949
               8.31795616                9.88225377               19.08089740                0.51831146               -3.15394036                1.15926853                0.22737782               -0.92661681               18.84793017                0.34368219
               9.28217277                9.79761661               19.15260647                0.68716990               -1.84312517               -0.09110222                0.40691877               -1.35200747               10.15152218                0.69501949
              10.28109366                9.74114904               19.04289147                0.93563106               -0.00740534                0.02806256               -0.06444437                0.03965179                0.68288506                0.40236478
              11.28202467                9.68592114               18.92506084                0.98704884                0.09310112                0.19898031               -0.57735898                0.06913488                0.28887657               -0.44737446
               0.71034529                0.39262274               20.30887608                1.00000000               -0.35297753               -0.38522046                1.34568336               -0.06834630               -0.74826415                0.78582321
               1.70681551                0.30174679               20.23828940                1.00000000               -0.29245811               -0.30818926                1.08172847               -0.05254390               -0.94871307                0.05296892
               2.70449612                0.21072183               20.16367062                1.00000000               -0.15862307               -0.23284620                0.80055257               -0.03485530               -0.89863838               -0.21204117
               3.70364305                0.12082520               20.09412490                0.62022301                0.30984887               -0.17763693                0.53059694                0.47500653                0.06973007               -0.58604058
               4.71069310                0.04294659               20.03889392                0.70695176                0.45590761               -0.06242515                0.23584295               -0.07394915                0.58673676                0.14210887
               5.71276120               -0.02610185               19.97963809                0.79103575                0.14427307                0.02565245               -0.06180231                0.00015794                0.19522336                0.08323643
               6.71357856               -0.09362599               19.91663824                0.77078498                0.06126977                0.10468202               -0.35255884                0.00876778                0.00565144               -0.05444072
               7.71398660               -0.16186307               19.85355635                0.86623728                0.07169979                0.19661487               -0.65366166                0.03438872               -0.22559237                0.06248915
               8.71501256               -0.23307278               19.78576952                1.00000000                0.18876244                0.29513575               -0.95187041                0.02076446               -0.58464710                0.43326575
               9.71776185               -0.30636207               19.71538371                1.00000000                0.33760230                0.36447130               -1.24352247               -0.04451132               -0.66720349                0.00980751
              10.72176460               -0.37989739               19.64598665                1.00000000                0.40027588                0.44434693               -1.51976780               -0.06427588               -0.62328036               -0.64020365
               0.80053777                1.38877053               20.28160460                1.00000000               -0.32972468               -0.36462695                1.22349061               -0.02935407               -0.09833278                1.06697580
               1.79724052                1.29866490               20.21059643                1.00000000               -0.29647027               -0.28661523                0.95971907               -0.01034716               -0.06075921                0.07888012
               2.79460837                1.20839337               20.14028241                0.79072543               -0.24798945               -0.21244849                0.69731538                0.03340253                0.17938367               -0.59625480
               3.79228074                1.11904883               20.07403661                0.15026658               -0.55956178               -0.17168182                0.43471197                0.68176996                1.65133580               -1.05043355
               4.78341713                1.04232234               20.03306848                0.31502421               -0.56158327                0.06140024                0.18502705               -0.09142280                2.32216327                0.94594984
               5.78104907                0.97415468               19.98026232                0.41061808               -0.09351404                0.08900664               -0.09029164                0.18537692                1.50395556                0.36830819
               6.78154685                0.90742083               19.92291849                0.30257640                0.15024026                0.04969557               -0.36359415                0.22617956                1.38699273               -0.38768541
               7.78405388                0.84010308               19.86788887                0.45390353                0.29614273                0.19265393               -0.62575141                0.27387702                1.36672888                0.59076778
               8.78746970                0.76987858               19.81044623                1.00000000                0.33375828                0.27826295               -0.88881731                0.12034615                0.69894938                0.62304683
               9.79072904                0.69728264               19.74232598                1.00000000                0.35937337                0.35343194               -1.16300245                0.00086651                0.09738297                0.08706023
              10.79465717                0.62454607               19.67293055                1.00000000                0.39281304                0.42798562               -1.43852298               -0.02067662                0.02976750               -0.75937638
               0.88996948                2.38533020               20.25990512                1.00000000               -0.29837467               -0.33022619                1.11537141               -0.02210990                0.04049684                1.35803635
               1.88698573                2.29601448               20.18336459                1.00000000               -0.25946178               -0.24987974                0.83968438                0.00278855                0.16295001                0.05249239
               2.88478024                2.20647286               20.10916254                0.44928228               -0.18181253               -0.18082715                0.57738913                0.06174393                0.77148289               -1.28388270
               3.88334948                2.11739156               20.04470089                0.00010000               -1.55107245               -0.12933208                0.33660899                0.93076626                4.42546108               -1.94319836
               4.85375879                2.04417459               20.04324378                0.00010000               -1.59896166                0.17502216                0.13288031                1.81544569                4.79725188               -1.25094035
               5.85137025                1.97567829               19.98655794                0.00010000               -0.08025226               -0.06054144               -0.11725606                1.56266284                1.66235376               -0.46094806
               6.85215375                1.90736792               19.92254276                0.00010000                0.28180680               -0.15750255               -0.36823325                1.33712294                3.00110237                0.23632411
               7.85700638                1.84199001               19.89281970                0.00010000                0.40430858               -0.11121999               -0.60250194                0.92215233                3.45578859                0.73506172
               8.86023992                1.77249248               19.83901032                0.47892510                0.30526491                0.27107938               -0.80865571                0.21069523                1.52746090                1.22026312
               9.86311168                1.70070657               19.77090723                1.00000000                0.32921460                0.33972189               -1.07697127                0.03343668                0.55203176                0.53849617
              10.86682421                1.62866232               19.69758961                1.00000000                0.37125300                0.40058387               -1.36945078               -0.01070972                0.28968879               -0.76739424
               0.97872700                3.38216601               20.23843706                1.00000000               -0.25733694               -0.30592842                1.00523581               -0.01637131                0.05227181                1.32842056
               1.97615363                3.29366730               20.15511916                1.00000000               -0.21304174               -0.21892045                0.71688061                0.00578225                0.06459514               -0.03900385
               2.97446617                3.20477683               20.07197567                0.26133452               -0.14796521               -0.13970349                0.42727704                0.05964001                0.98379804               -1.51175322
               3.97319433                3.11646219               20.00704275                0.00010000               -0.65134252               -0.06943246                0.15623167                1.00056283                4.47366674               -2.46703713
               4.96143932                3.04582278               19.99338238                0.00010000               -1.20426644                0.08516111                0.00451796                2.60848619                6.53578028               -3.00182428
               5.94910900                2.97294385               19.97057832                0.00010000               -0.97308679               -0.05414029               -0.14546295                2.21584703                5.71921030               -1.22231088
               6.94197758                2.90427078               19.94102798                0.00010000               -0.58683209               -0.12876549               -0.31162691                1.90428163                5.28363334                0.70672033
               7.93737236                2.83787868               19.91005395                0.00010000               -0.45052650               -0.17605941               -0.48854480                1.43501458                5.01866771                0.82919091
               8.93296705                2.77530017               19.87566031                0.25198073               -0.10722095                0.24547510               -0.69382018                0.53775191                3.10529021                2.27427689
               9.93522794                2.70407708               19.80694237                1.00000000                0.27822157                0.31035884               -0.95827021                0.03161705                0.69983089                0.86935600
              10.93853148                2.63255775               19.72438504                1.00000000                0.33035435                0.38652985               -1.28994677               -0.01826057                0.01013745               -0.54016324
               1.06663947                4.37921163               20.21613423                1.00000000               -0.21489078               -0.28052337                0.88609962               -0.02004996                0.06233363                1.22178794
               2.06449056                4.29163607               20.12603998                0.94464740               -0.17306549               -0.18163036                0.58638776                0.00223445                0.07753185               -0.12416109
               3.06317816                4.20367879               20.03619829                0.15459763               -0.10878881               -0.08317170                0.29650263                0.03844262                1.13813810               -1.38508605
               4.06231478                4.11600291               19.96731372                0.00010000               -0.68656523                0.08464324               -0.01484085                0.83461670                5.70621486               -1.87141545
               5.04944685                4.04587781               19.96880791                0.00010000               -1.25377965                0.10692094               -0.11586495                1.53345460                8.76467495               -1.28488614
               6.03723919                3.97459548               19.96188915                0.00010000               -1.20711532                0.21334187               -0.17699767                1.43549882                8.06814351               -0.57674443
               7.02530455                3.90479261               19.95030010                0.00010000               -1.12809537                0.16451854               -0.26595743                1.29469481                7.70319388                0.35795855
               8.01467728                3.83846883               19.93686927                0.00010000               -1.02539939                0.14214559               -0.38086350                1.22549836                7.67070810                1.36165744
               9.00479656                3.77740198               19.92538783                0.23490950               -0.40954220                0.16794691               -0.51946193                0.54536492                4.15492479                2.64457788
              10.00648644                3.70691375               19.84224331                0.95133939                0.23505511                0.25895153               -0.84244787                0.01694284                0.30057854                0.81340106
              11.00949766                3.63639291               19.75350077                1.00000000                0.30112221                0.37300819               -1.19391753               -0.01757338                0.02646642               -0.41746795
               1.15347711                5.37655554               20.19249989                1.00000000               -0.17459523               -0.24445949                0.75743790               -0.02413011                0.11461970                1.08509723
               2.15173116                5.29003469               20.09604432                0.76475504               -0.13044649               -0.13650427                0.43869077               -0.00319724                0.21122001               -0.28982714
               3.15086818                5.20311339               20.00146956                0.10139019               -0.20217610               -0.02971630                0.13154244                0.12056736                2.01993591               -1.53440305
               4.14768764                5.11815505               19.94118394                0.00010000               -0.86761723                0.34638047               -0.34558334                0.60172355                7.41015190               -0.39019554
               5.13351584                5.04796120               19.95364220                0.00010000               -1.43917287                0.30432420               -0.23184789                1.21165876               10.61511554               -0.51886839
               6.11890418                4.97721069               19.95899601                0.00010000               -1.47588528                0.34417458               -0.20138865                1.00261632               10.07556033               -0.10317279
               7.10399813                4.90756115               19.96200699                0.00010000               -1.48156159                0.33996193               -0.21821207                0.89494182                9.89299550                0.56592908
               8.08927295                4.84072160               19.96486657                0.00010000               -1.42843529                0.25605217               -0.26763265                0.90505676                9.93782676                1.39335713
               9.07542943                4.77865911               19.96974466                0.24272359               -0.63485420                0.09500397               -0.33785574                0.41629431                5.12792867                2.24131843
              10.07657587                4.70925611               19.87715792                0.84480997                0.18961267                0.21449821               -0.70406714                0.00949389                0.16294321                0.78431438
              11.07922168                4.64001792               19.78259325                1.00000000                0.26458151                0.34963121               -1.09416420               -0.01840438                0.07093138               -0.45338071
               1.23919856                6.37432244               20.16740403                1.00000000               -0.13297957               -0.20037640                0.62237263               -0.02463529                0.07010910                0.95257097
               2.23786876                6.28890599               20.06360406                0.64910580               -0.08647062               -0.08949751                0.28744198               -0.00348917                0.21619293               -0.47127765
               3.23746915                6.20308446               19.96267933                0.07520812               -0.41836583                0.02175228               -0.03551123                0.30616671                3.84536858               -1.86770955
               4.22950145                6.12293052               19.93146194                0.00010000               -1.14223782                0.49399283               -0.55992887                0.63257202                9.57269250                0.16611327
               5.21462439                6.05196430               19.94445772                0.00010000               -1.59049405                0.48845246               -0.31276929                0.97369939               11.81537957               -0.10382938
               6.19769157                5.98147897               19.95979494                0.00010000               -1.74659586                0.52029652               -0.20824818                0.76887398               11.86506120                0.17065903
               7.17969247                5.91159185               19.97545424                0.00010000               -1.80055540                0.47423940               -0.16380504                0.57763997               11.87075580                0.68277901
               8.16168046                5.84358987               19.99237112                0.00010000               -1.75522735                0.31190699               -0.15450563                0.53161234               11.98631342                1.33725514
               9.14458793                5.77930206               20.01155034                0.25954237               -0.81814756                0.03745063               -0.16853595                0.21847102                6.10447894                2.05298997
              10.14531751                5.71120371               19.91176487                0.78070448                0.15090204                0.17519755               -0.57579724                0.00440692                0.10228775                0.73348851
              11.14760597                5.64338554               19.81075748                1.00000000                0.22884604                0.32306825               -0.99357577               -0.01623329                0.04764719               -0.52337789
               1.32381731                7.37254801               20.14104762                1.00000000               -0.09179562               -0.15501101                0.48634265               -0.02372647                0.03078171                0.86396261
               2.32289935                7.28824474               20.02993503                0.58803381               -0.04251612               -0.04330783                0.13916244               -0.00227774                0.15493010               -0.55121316
               3.32296699                7.20354844               19.92126250                0.06275512               -0.57200534                0.07007890               -0.20267910                0.48343463                5.47875284               -2.05918809
               4.31145925                7.12803491               19.91662763                0.00010000               -1.42628062                0.52954820               -0.53809537                0.88249308               11.94592536               -0.33111681
               5.29444137                7.05773025               19.93737481                0.00010000               -1.84025670                0.67235374               -0.33327768                0.90588843               13.33004200               -0.01973463
               6.27465411                6.98761662               19.96213665                0.00010000               -2.05006688                0.72726405               -0.19374575                0.59391186               13.56117326                0.26293313
               7.25344004                6.91704594               19.98933485                0.00010000               -2.12295658                0.64057690               -0.10434620                0.26632536               13.73135371                0.67959549
               8.23219498                6.84695974               20.01919987                0.00010000               -2.06275158                0.38204799               -0.04547844                0.08988258               13.94831939                1.24115238
               9.21218501                6.77940812               20.05217913                0.28204300               -0.98072256               -0.01430630               -0.00951494               -0.03254500                7.06685153                1.94153944
              10.21258053                6.71276006               19.94554112                0.74986214                0.11741779                0.13434877               -0.44919796               -0.00096707                0.05996216                0.65971379
              11.21453336                6.64647928               19.83821674                1.00000000                0.19528315                0.29430600               -0.89412649               -0.01498835                0.03304866               -0.58420420
               1.40733057                8.37122222               20.11410175                1.00000000               -0.05077841               -0.11150552                0.35180096               -0.02290981                0.01238988                0.83330441
               2.40682279                8.28803983               19.99586042                0.57597029                0.00085533                0.00220362               -0.00668586               -0.00082604                0.06530655               -0.57618851
               3.40734768                8.20448604               19.87863808                0.05381130               -0.69266435                0.11699758               -0.36665370                0.65450693                6.87613208               -2.02637611
               4.39296950                8.13352148               19.89661858                0.00010000               -1.70936135                0.62771584               -0.49544313                1.10713652               14.33810060               -0.50378492
               5.37316045                8.06541137               19.92942706                0.00010000               -2.13576919                0.88655761               -0.31431251                0.85846426               15.09116663               -0.05882128
               6.35025412                7.99602425               19.96431308                0.00010000               -2.37422932                0.93887363               -0.16719845                0.43510967               15.25548238                0.22978037
               7.32567586                7.92440339               20.00236913                0.00010000               -2.45690944                0.87102964               -0.04609877               -0.02081326               15.52708857                0.55458397
               8.30111593                7.85123083               20.04460810                0.00712954               -2.37695826                0.53009048                0.05527866               -0.44099576               15.89628081                1.02431247
               9.27813670                7.77901594               20.09174005                0.30964621               -1.14444609               -0.05799616                0.14032329               -0.35990334                8.05806914                1.76469027
              10.27822700                7.71389069               19.97857004                0.75360647                0.08655348                0.09250634               -0.32537181               -0.00909660                0.03116929                0.61097986
              11.27986777                7.64927166               19.86496839                1.00000000                0.16407632                0.26191691               -0.79626675               -0.01357689                0.01825401               -0.64050133
               1.48972389                9.37031790               20.08705615                1.00000000               -0.01048778               -0.07095607                0.21969335               -0.02232138               -0.00530420                0.70739865
               2.48961901                9.28828882               19.96166637                0.59824867                0.04257934                0.04701949               -0.15012339                0.00025670                0.07749993               -0.50206085
               3.49057547                9.20588839               19.83789687                0.02677701               -0.84711815                0.16098582               -0.51914126                0.87891958                8.34061057               -1.41625798
               4.47267665                9.14058922               19.87778027                0.00010000               -2.07337916                0.96201975               -0.46188771                1.01848694               16.61280204               -0.26494298
               5.44910789                9.07546140               19.92091300                0.00010000               -2.41561766                1.05429037               -0.30187825                0.62401611               16.74076574               -0.04527423
               6.42436429                9.00639409               19.96531853                0.00010000               -2.56453469                1.07587214               -0.14607212                0.25447392               16.87828654                0.13172907
               7.39781720                8.93446653               20.01319678                0.00010000               -2.78008897                1.05237634                0.00118579               -0.15876457               17.23376207                0.31724979
               8.36876251                8.85756155               20.06678190                0.02394699               -2.77450585                0.92867252                0.14129904               -0.72752701               17.83031055                0.59450586
               9.34232708                8.77824820               20.12874832                0.33996615               -1.33098186               -0.07709503                0.27374992               -0.78817101                9.19058438                1.18103368
              10.34214288                8.71461019               20.01125243                0.79197658                0.05863999                0.05566124               -0.20817037               -0.02120822                0.09613344                0.50763291
              11.34349988                8.65171762               19.89110555                0.97990709                0.13570033                0.22727036               -0.70511507               -0.01348227               -0.02615530               -0.56837432
               1.57094232               10.36980310               20.05752312                1.00000000                0.03151181               -0.05148047                0.08786277                0.03955538                0.38686579                0.58615212
               2.57125743               10.28898022               19.92905770                0.83315376                0.08416719                0.06914064               -0.28800880                0.05897559                0.73440499               -0.42233677
               3.57262566               10.20770576               19.80751087                0.51465386               -1.37456037                0.18173705               -0.65142504                1.39410153                9.87650265               -0.90053312
               4.54376623               10.15276188               19.86190408                0.36398378               -2.63948772                1.21726554               -0.48041510                1.04852918               18.36957298               -0.07326789
               5.51983591               10.08649718               19.91242603                0.35569438               -2.37138814                1.10357812               -0.32075417                0.31179242               18.17256065               -0.00260622
               6.49633846               10.01754170               19.96468845                0.37455559               -2.42513945                1.11476064               -0.14365398                0.14510377               18.35536993                0.09569957
               7.47133312                9.94545091               20.02064647                0.41841269               -2.67773730                1.09843842                0.02956258               -0.03527883               18.76519637                0.19815934
               8.44278372                9.86980428               20.08304139                0.51950867               -3.30042424                1.22427338                0.20033984               -0.99672325               19.52297689                0.35965119
               9.40532463                9.77747404               20.15646084                0.68622494               -1.92251505               -0.07741591                0.36211092               -1.44026309               10.52697977                0.73047184
              10.40433342                9.71500391               20.04204325                0.92490045                0.00293172                0.03937208               -0.10617145                0.03620558                0.71788391                0.42469155
              11.40538327                9.65381707               19.91909446                0.98698901                0.10498492                0.20994471               -0.61574716                0.06965414                0.30332400               -0.46486257
               0.77465655                0.42846457               21.32228257                1.00000000               -0.35233221               -0.38296267                1.33680726               -0.06722926               -0.76891086                0.80454282
               1.77113322                0.33058932               21.24907189                1.00000000               -0.29347864               -0.30523912                1.07499740               -0.05321645               -0.97776322                0.05593254
               2.76878697                0.23249525               21.17166556                1.00000000               -0.16070582               -0.22952407                0.79822101               -0.03922175               -0.92857552               -0.21005216
               3.76791911                0.13542620               21.09947149                0.62178186                0.31172036               -0.18143083                0.53557786                0.48057259                0.02893907               -0.60708636
               4.77502138                0.05047874               21.04123959                0.70988587                0.45706009               -0.05845243                0.23314183               -0.07259794                0.52844287                0.15287741
               5.77706031               -0.02572454               20.97903418                0.79395816                0.14353660                0.02701511               -0.05881901                0.00074993                0.14429113                0.08911991
               6.77789211               -0.10041645               20.91314879                0.77263644                0.06601486                0.10417411               -0.34523406                0.00907909               -0.04685313               -0.05819559
               7.77838061               -0.17568121               20.84707852                0.86783186                0.07884604                0.19492811               -0.64211634                0.03098949               -0.28166308                0.06853386
               8.77946903               -0.25367612               20.77632892                1.00000000                0.19097514                0.29061056               -0.93669533                0.01714198               -0.63592035                0.44462661
               9.78220011               -0.33361532               20.70304370                1.00000000                0.33402870                0.35990901               -1.22506420               -0.04339401               -0.70711057                0.00873007
              10.78614961               -0.41380179               20.63090050                1.00000000                0.39494979                0.43964504               -1.49825373               -0.06156660               -0.65505431               -0.67017819
               0.87185950                1.42463495               21.29378620                1.00000000               -0.32737828               -0.36318277                1.21390470               -0.02771377               -0.10232732                1.09222023
               1.86858572                1.32753693               21.22016143                1.00000000               -0.29415947               -0.28437831                0.95343313               -0.01009764               -0.06613541                0.08197149
               2.86597631                1.23020001               21.14721870                0.81252584               -0.24263156               -0.20853632                0.68714595                0.02469783                0.16904695               -0.59497718
               3.86373309                1.13361190               21.07825889                0.16053234               -0.55527703               -0.18079851                0.41050904                0.68947735                1.65299754               -1.05311687
               4.85487077                1.04989421               21.03486039                0.32533505               -0.56088433                0.06785057                0.17295650               -0.08695776                2.33128536                0.95315979
               5.85251540                0.97454561               20.97933172                0.42234046               -0.09547672                0.09028454               -0.09587993                0.17585960                1.50087656                0.37518797
               6.85296124                0.90062529               20.91928192                0.31335309                0.14024662                0.05616464               -0.36369064                0.21865702                1.39103997               -0.38710602
               7.85532034                0.82626807               20.86165099                0.46229569                0.28231336                0.19167281               -0.62207245                0.25392910                1.37671384                0.59382661
               8.85860751                0.74922999               20.80159484                1.00000000                0.32543347                0.27531829               -0.88182682                0.11164517                0.70367027                0.64299371
               9.86182900                0.66998377               20.73074854                1.00000000                0.35564527                0.34967130               -1.15305752                0.00117361                0.09617116                0.08906883
              10.86572041                0.59059466               20.65861434                1.00000000                0.38914072                0.42552321               -1.42549695               -0.01856289                0.02830446               -0.79487703
               0.96829830                2.42120092               21.27100069                1.00000000               -0.29320922               -0.32982500                1.10448896               -0.02129875                0.03982873                1.38930817
               1.96536621                2.32490176               21.19171887                1.00000000               -0.25461680               -0.24857924                0.83251245                0.00183449                0.17120947                0.05650477
               2.96320596                2.22832452               21.11499451                0.45924581               -0.16758787               -0.17583925                0.58118221                0.03764223                0.79309106               -1.30431082
               3.96201445                2.13181023               21.04812116                0.00010000               -1.54287264               -0.16194761                0.32329678                0.94806273                4.45388000               -1.96031756
               4.93234851                2.05183575               21.04443281                0.00010000               -1.60840129                0.17310569                0.10903292                1.80617833                4.86375041               -1.27077873
               5.92984642                1.97608115               20.98532957                0.00010000               -0.09028582               -0.06459852               -0.12866382                1.52169367                1.71463687               -0.45069474
               6.93054280                1.90070684               20.91885077                0.00010000                0.25040335               -0.15576061               -0.36964396                1.28943705                3.05676999                0.27157832
               7.93485449                1.82815224               20.88676572                0.00010000                0.37217199               -0.11075261               -0.60824214                0.88356563                3.53692105                0.78325466
               8.93798623                1.75183025               20.83091683                0.48495373                0.30022081                0.26826296               -0.81033017                0.19269572                1.59347085                1.26636182
               9.94085891                1.67337811               20.76014749                1.00000000                0.32851679                0.33601157               -1.07558237                0.02885692                0.57486574                0.55958316
              10.94455657                1.59470867               20.68392267                1.00000000                0.36976624                0.40295236               -1.36474839               -0.01017259                0.30074866               -0.80367669
               1.06403185                3.41803845               21.24842884                1.00000000               -0.25330461               -0.30517407                0.99372631               -0.01741274                0.05630309                1.35429377
               2.06149880                3.32256535               21.16226021                1.00000000               -0.21055853               -0.21720780                0.71107708                0.00269333                0.06775843               -0.03891297
               3.05982068                3.22668322               21.07625132                0.26841475               -0.11578431               -0.13463693                0.42839965                0.00325576                0.99938919               -1.54321569
               4.05918312                3.13037294               21.00869963                0.00010000               -0.65486277               -0.08485980                0.16464949                0.97821077                4.56809078               -2.55675834
               5.04672342                3.05335633               20.99345636                0.00010000               -1.25524675                0.07154405                0.01139238                2.60045107                6.69247540               -3.05369512
               6.03407818                2.97325364               20.96910013                0.00010000               -1.00222687               -0.06276581               -0.14892251                2.15766644                5.87269287               -1.20691234
               7.02667889                2.89751008               20.93788616                0.00010000               -0.61049703               -0.13805564               -0.31698000                1.84035225                5.42966656                0.77075807
               8.02186824                2.82405302               20.90513856                0.00010000               -0.47216645               -0.17826383               -0.49517477                1.39119509                5.14981630                0.92367609
               9.01723556                2.75459525               20.86867659                0.25141900               -0.11702635                0.23571747               -0.70344506                0.50695443                3.20022427                2.36677569
              10.01952772                2.67670400               20.79731682                1.00000000                0.28101337                0.30814455               -0.96712949                0.02273668                0.73387512                0.90507559
              11.02285583                2.59865371               20.71145961                1.00000000                0.33281097                0.39291842               -1.29535235               -0.01701865                0.01143742               -0.56349917
               1.15889624                4.41509744               21.22493690                1.00000000               -0.21209480               -0.27851595                0.87455451               -0.02120804                0.06983677                1.23792812
               2.15677530                4.32055760               21.13187498                0.93413737               -0.17163819               -0.17910417                0.58063612                0.00014683                0.09018522               -0.13743092
               3.15546348                4.22563178               21.03916375                0.16135537               -0.09348668               -0.07963033                0.29655369               -0.00796155                1.13994907               -1.42123560
               4.15490556                4.13011304               20.96709383                0.00010000               -0.69933218                0.10745830               -0.02518173                0.78590772                5.82523888               -2.05193553
               5.14147684                4.05326663               20.96769789                0.00010000               -1.30297800                0.09570852               -0.10667411                1.52093381                9.01028221               -1.33291861
               6.12884600                3.97482583               20.96011337                0.00010000               -1.24631865                0.20894079               -0.17761763                1.39122442                8.31845241               -0.56011492
               7.11655046                3.89794573               20.94761366                0.00010000               -1.16263889                0.15952373               -0.27172922                1.24413683                7.93702767                0.41972792
               8.10559323                3.82458697               20.93301107                0.00010000               -1.05380631                0.13765307               -0.39185435                1.16954703                7.88888586                1.45524374
               9.09547434                3.75654460               20.92009273                0.23267627               -0.41690225                0.15634354               -0.54043886                0.51203651                4.28220745                2.77043047
              10.09725518                3.67954100               20.83370992                0.93186023                0.24212246                0.26127963               -0.86328982                0.01225581                0.32567655                0.86026735
              11.10031679                3.60256704               20.74147209                1.00000000                0.30616068                0.38248110               -1.21026741               -0.01730474                0.03786933               -0.42991838
               1.25268736                5.41246813               21.20001490                1.00000000               -0.17199689               -0.24144666                0.74566082               -0.02463102                0.11731331                1.09245977
               2.25096739                5.31898326               21.10040391                0.75686205               -0.12906756               -0.13392266                0.43305979               -0.00426729                0.21995335               -0.31311656
               3.25010601                5.22509062               21.00279295                0.10724193               -0.18504824               -0.02770814                0.13262067                0.08715068                1.95015257               -1.58730568
               4.24726643                5.13252211               20.93778370                0.00010000               -0.88383524                0.36059887               -0.33317130                0.56729696                7.53966773               -0.57118177
               5.23242931                5.05527050               20.95135900                0.00010000               -1.50214273                0.30542938               -0.22666235                1.19011829               11.01385634               -0.55159204
               6.21722357                4.97743246               20.95697530                0.00010000               -1.53144072                0.34876332               -0.20260381                0.96301592               10.42387016               -0.07621570
               7.20180049                4.90070055               20.95979082                0.00010000               -1.52816283                0.34257679               -0.22566667                0.84261066               10.21556265                0.63022586
               8.18666032                4.82680608               20.96212376                0.00010000               -1.46391164                0.25491822               -0.28228375                0.84637915               10.24724934                1.48837553
               9.17252226                4.75772212               20.96624523                0.24019622               -0.64549652                0.08975856               -0.36361789                0.38382764                5.29640340                2.36472369
              10.17375039                4.68192959               20.86998672                0.82738878                0.19676914                0.21975053               -0.72944541                0.00823191                0.17636351                0.83913226
              11.17645764                4.60630333               20.77153282                1.00000000                0.27072553                0.36124719               -1.11618645               -0.01874366                0.07264138               -0.46080501
               1.34537335                6.41026850               21.17356850                1.00000000               -0.13058920               -0.19686922                0.61052921               -0.02471463                0.06987468                0.95580221
               2.34406746                6.31787915               21.06645461                0.64318267               -0.08528531               -0.08727918                0.28246199               -0.00410859                0.22195715               -0.49444312
               3.34366765                6.22507762               20.96233332                0.08019630               -0.39979190                0.02297837               -0.03392956                0.27412103                3.75088560               -1.92084349
               4.33607162                6.13732502               20.92579937                0.00010000               -1.16493944                0.50364664               -0.56516637                0.58466479                9.77104483                0.15531872
               5.32036886                6.05937522               20.94132006                0.00010000               -1.66976780                0.50420377               -0.31313403                0.94444416               12.33987166               -0.09193723
               6.30267627                5.98180110               20.95769235                0.00010000               -1.81699009                0.53569172               -0.21217527                0.72100110               12.30036806                0.21250196
               7.28402906                5.90479726               20.97377057                0.00010000               -1.85885114                0.48502907               -0.17368886                0.51685447               12.27489634                0.74921544
               8.26549924                5.82968533               20.99074455                0.00010000               -1.80008409                0.31600216               -0.17223797                0.46338529               12.37822528                1.42744371
               9.24802737                5.75833977               21.00973544                0.25720940               -0.83303191                0.03648349               -0.19624683                0.18174344                6.30832744                2.16363681
              10.24883861                5.68393601               20.90588293                0.76504831                0.15835353                0.18088106               -0.60163174                0.00477427                0.10913886                0.78206495
              11.25119444                5.60979199               20.80070969                1.00000000                0.23558390                0.33457498               -1.01584823               -0.01618857                0.04988217               -0.52920677
               1.43697178                7.40853074               21.14585391                1.00000000               -0.08956785               -0.15133955                0.47480278               -0.02366735                0.03039813                0.86711425
               2.43607610                7.31723768               21.03130642                0.58362475               -0.04146093               -0.04158465                0.13485764               -0.00244602                0.15722823               -0.57126607
               3.43614256                7.22555018               20.91924927                0.06658163               -0.57069869                0.07030024               -0.20032513                0.46057473                5.47705591               -2.10939037
               4.42466213                7.14259504               20.91110069                0.00010000               -1.46502286                0.55050312               -0.55908420                0.82798271               12.23184785               -0.20870191
               5.40684210                7.06535457               20.93399655                0.00010000               -1.92202900                0.69768959               -0.33957069                0.86769562               13.87318855                0.04039848
               6.38622155                6.98814629               20.96016190                0.00010000               -2.12943774                0.75274087               -0.20077514                0.53764024               14.05782307                0.31587518
               7.36425335                6.91040113               20.98823195                0.00010000               -2.19180141                0.66028085               -0.11702343                0.19501811               14.20543311                0.74261155
               8.34238552                6.83312612               21.01864788                0.00010000               -2.11734495                0.39256442               -0.06640755                0.01003359               14.41476446                1.32148864
               9.32190645                6.75845179               21.05193821                0.27995691               -0.99959336               -0.01183539               -0.04055957               -0.07582733                7.30607652                2.04094370
              10.32239365                6.68554722               20.94091822                0.73500871                0.12577317                0.14020019               -0.47669338               -0.00056375                0.06359563                0.70480563
              11.32442191                6.61299483               20.82915949                1.00000000                0.20282616                0.30483498               -0.91759749               -0.01428261                0.03433101               -0.59116114
               1.52748613                8.40724171               21.11756573                1.00000000               -0.04870339               -0.10793344                0.34074451               -0.02276882                0.01199474                0.83820570
               2.52699910                8.31704745               20.99577804                0.57283696                0.00178224                0.00343952               -0.01015520               -0.00074190                0.06425958               -0.59338246
               3.52752178                8.22648363               20.87499195                0.05613014               -0.70861046                0.11606374               -0.36307229                0.64584135                6.98210930               -2.06801302
               4.51282689                8.14833508               20.89156450                0.00010000               -1.76751268                0.65515872               -0.50938903                1.07114776               14.72908766               -0.37336095
               5.49217152                8.07332901               20.92623132                0.00010000               -2.22221891                0.91928786               -0.32240234                0.82390011               15.64194160                0.01312242
               6.46838251                7.99685592               20.96259159                0.00010000               -2.46109678                0.97297634               -0.17674601                0.38096132               15.79309506                0.27900306
               7.44294959                7.91800288               21.00183520                0.00010000               -2.53666238                0.90221281               -0.06147255               -0.09391509               16.06155231                0.60481487
               8.41764926                7.83753662               21.04504603                0.00800503               -2.44299275                0.54958991                0.03081259               -0.53060996               16.43286953                1.08910932
               9.39408973                7.75810306               21.09297088                0.30759772               -1.16824874               -0.05121362                0.10393461               -0.41107090                8.33428223                1.85084967
              10.39428429                7.68674001               20.97516352                0.73796418                0.09619169                0.10003213               -0.35706827               -0.00965895                0.03446963                0.65070030
              11.39601357                7.61588869               20.85687035                1.00000000                0.17292782                0.27214772               -0.82339199               -0.01242467                0.01915505               -0.65195698
               1.61690492                9.40637207               21.08920234                1.00000000               -0.00855702               -0.06759829                0.20914238               -0.02217084               -0.00619582                0.71364186
               2.61681935                9.31730647               20.96015478                0.59547558                0.04334225                0.04783839               -0.15268740                0.00036173                0.07723528               -0.51495823
               3.61777176                9.22787146               20.83273450                0.02691801               -0.87898241                0.15936328               -0.51397364                0.88695256                8.54887159               -1.44145080
               4.59923970                9.15569822               20.87312519                0.00010000               -2.14862484                0.99582744               -0.46636598                1.00596576               17.10162672               -0.17209188
               5.57479927                9.08374033               20.91785133                0.00010000               -2.50363993                1.09068104               -0.30917410                0.60477658               17.30344022               -0.00099807
               6.54916690                9.00760582               20.96380081                0.00010000               -2.65524607                1.11556425               -0.15745618                0.21988690               17.45568373                0.16024091
               7.52169435                8.92844539               21.01312355                0.00010000               -2.87468797                1.09426209               -0.01665030               -0.21174568               17.82434110                0.34436641
               8.49167314                8.84411792               21.06806684                0.02575482               -2.86063524                0.96955957                0.11453628               -0.80329077               18.43411465                0.63329943
               9.46448164                8.75742751               21.13128215                0.33767080               -1.36291476               -0.06510299                0.23101620               -0.84746444                9.50736458                1.23722828
              10.46441485                8.68754786               21.00898830                0.77310867                0.06972163                0.06606052               -0.24576114               -0.02281521                0.10414391                0.53657379
              11.46587607                8.61843778               20.88389321                0.98083384                0.14612261                0.23786888               -0.73729599               -0.01224922               -0.02535099               -0.58444138
               1.70517392               10.40588975               21.05835367                1.00000000                0.03330239               -0.04823277                0.07772667                0.03834795                0.39054276                0.59273282
               2.70550695               10.31800422               20.92617142                0.83230102                0.08475784                0.06977521               -0.28985636                0.05781708                0.74454625               -0.43215732
               3.70686908               10.22967089               20.80103015                0.51428710               -1.42148064                0.17994328               -0.64541863                1.42210183               10.15624611               -0.91534121
               4.67707733               10.16825163               20.85709058                0.36445107               -2.72548122                1.25534095               -0.48169386                1.05735017               18.94145838               -0.01954729
               5.65235945               10.09514263               20.90917907                0.35590015               -2.45010725                1.14023001               -0.32813574                0.30179757               18.77165349                0.01612533
               6.62807519               10.01916720               20.96318890                0.37437874               -2.50784415                1.15613857               -0.15663815                0.12810333               18.98178469                0.10591800
               7.60220257                9.93988812               21.02084557                0.41781666               -2.77369327                1.14427336                0.00929707               -0.06114697               19.40796243                0.20763245
               8.57260132                9.85692781               21.08490419                0.52091264               -3.42460338                1.28098921                0.17133653               -1.06153812               20.17773068                0.37635467
               9.53371050                9.75680100               21.15984868                0.68538321               -1.98918044               -0.06265144                0.31339759               -1.52044310               10.89056027                0.76531146
              10.53281771                9.68806122               21.04076804                0.91414615                0.01391139                0.05133640               -0.14997933                0.03253989                0.75268145                0.44665017
              11.53398873                9.62064606               20.91274590                0.98692522                0.11710178                0.22082800               -0.65380201                0.06974996                0.31786498               -0.48208784
               0.84138844                0.46570634               22.33561223                1.00000000               -0.35111828               -0.38095159                1.32951118               -0.06676404               -0.78714030                0.82067835
               1.83787726                0.36068636               22.25978935                1.00000000               -0.29317143               -0.30290196                1.06848474               -0.05378533               -1.00228500                0.06074624
               2.83552501                0.25541451               22.17963504                1.00000000               -0.16147271               -0.22496314                0.79360206               -0.04220126               -0.95123237               -0.20993743
               3.83464780                0.15110867               22.10483646                0.62361842                0.30871303               -0.17718499                0.53169587                0.47252176               -0.00833303               -0.63499002
               4.84169927                0.05876255               22.04355675                0.71255643                0.45450130               -0.05702354                0.22977219               -0.07408717                0.46620653                0.16697898
               5.84373783               -0.02491454               21.97846171                0.79642199                0.14489429                0.02775885               -0.05621946               -0.00021117                0.09392279                0.09509018
               6.84459716               -0.10705616               21.90973356                0.77406457                0.07176866                0.10328910               -0.33823587                0.00898317               -0.09880241               -0.06151675
               7.84517320               -0.18963733               21.84071402                0.86901447                0.08659103                0.19297429               -0.63131023                0.02740651               -0.33697061                0.07468823
               8.84632898               -0.27471209               21.76703561                1.00000000                0.19374256                0.28626350               -0.92267210                0.01366727               -0.68653454                0.45621037
               9.84904805               -0.36159715               21.69088243                1.00000000                0.33104624                0.35573815               -1.20800959               -0.04233665               -0.74646686                0.00792075
              10.85294990               -0.44872864               21.61602158                1.00000000                0.39018498                0.43550069               -1.47856617               -0.05897447               -0.68627055               -0.69929544
               0.94574077                1.46189682               22.30588269                1.00000000               -0.32554579               -0.36163091                1.20618475               -0.02688554               -0.10573679                1.11472806
               1.94248532                1.35765734               22.22966509                1.00000000               -0.29244660               -0.28202819                0.94690405               -0.00965492               -0.07490147                0.08669303
               2.93989184                1.25316488               22.15402533                0.82708692               -0.23931573               -0.20302448                0.67711848                0.01971233                0.14886298               -0.58786632
               3.93769900                1.14933682               22.08224679                0.16992085               -0.54609192               -0.16821004                0.39684543                0.66842034                1.64884487               -1.05622438
               4.92897000                1.05819231               22.03652761                0.33475277               -0.55269653                0.07002512                0.16213657               -0.09238236                2.34569063                0.96432162
               5.92664507                0.97536305               21.97834472                0.43280222               -0.09608107                0.09052600               -0.10065089                0.16458095                1.50042032                0.38326414
               6.92704838                0.89397673               21.91564467                0.32363572                0.13150781                0.06257021               -0.36358596                0.20926017                1.39594698               -0.38285501
               7.92927523                0.81229242               21.85544743                0.47001231                0.26985901                0.19024303               -0.61877834                0.23396825                1.38673082                0.59631929
               8.93244556                0.72815055               21.79280970                1.00000000                0.31788678                0.27250292               -0.87556531                0.10332035                0.70831532                0.66296931
               9.93563296                0.64196023               21.71926483                1.00000000                0.35230422                0.34635491               -1.14427873                0.00154596                0.09479643                0.09137193
              10.93949165                0.55562637               21.64442061                1.00000000                0.38586841                0.42360787               -1.41405663               -0.01644076                0.02678164               -0.82941910
               1.04932969                2.45847372               22.28199489                1.00000000               -0.29135867               -0.32905755                1.09548538               -0.02031404                0.03906616                1.41829145
               2.04641610                2.35504580               22.20001484                1.00000000               -0.25449553               -0.24622037                0.82695835                0.00406531                0.17832247                0.06152283
               3.04423978                2.25135402               22.12078618                0.46874449               -0.17136617               -0.17108040                0.57463455                0.04106817                0.79570304               -1.31462726
               4.04298878                2.14774447               22.05116682                0.00010000               -1.52071908               -0.14912381                0.29606445                0.92305700                4.46627039               -1.95452177
               5.01382539                2.06016305               22.04542444                0.00010000               -1.58718734                0.16457422                0.09300452                1.75349138                4.93128522               -1.27563530
               6.01124503                1.97689598               21.98398466                0.00010000               -0.09862005               -0.06706270               -0.13856704                1.47600863                1.77064424               -0.43129116
               7.01185299                1.89419524               21.91514988                0.00010000                0.22168571               -0.15268382               -0.37196126                1.23778272                3.10954168                0.31189706
               8.01567874                1.81416753               21.88065485                0.00010000                0.34372885               -0.10927788               -0.61294486                0.84228811                3.61316380                0.83352119
               9.01872757                1.73073797               21.82280371                0.49044699                0.29622047                0.26546168               -0.81246193                0.17550624                1.65938075                1.31240200
              10.02160315                1.64532995               21.74939559                1.00000000                0.32806221                0.33279635               -1.07511033                0.02475012                0.59723184                0.58012624
              11.02528881                1.55974352               21.67029465                1.00000000                0.36856614                0.40559942               -1.36128212               -0.00949253                0.31150657               -0.83981072
               1.15219034                3.45531567               22.25831158                1.00000000               -0.25040152               -0.30447910                0.98374869               -0.01675540                0.05945573                1.37901413
               2.14968632                3.35273293               22.16934070                1.00000000               -0.20879019               -0.21510225                0.70521227                0.00394583                0.07083011               -0.03811917
               3.14801453                3.24974327               22.08054366                0.27572229               -0.11676034               -0.13207825                0.42886535                0.00699604                1.00979783               -1.57023689
               4.14735111                3.14635435               22.01033574                0.00010000               -0.65631061               -0.09321723                0.16345384                0.95185817                4.61540853               -2.57631126
               5.13488832                3.06148379               21.99361023                0.00010000               -1.26090313                0.05768731                0.01049937                2.52375069                6.82258265               -3.08415174
               6.12213305                2.97402180               21.96759987                0.00010000               -1.01779179               -0.06889817               -0.15207809                2.09433521                6.00910491               -1.18038593
               7.11453248                2.89092305               21.93468838                0.00010000               -0.62773969               -0.14563643               -0.32282986                1.76897373                5.56783439                0.83916820
               8.10957826                2.81010686               21.90015045                0.00010000               -0.48696046               -0.17895167               -0.50315680                1.34169574                5.27473277                1.02184632
               9.10479327                2.73345978               21.86159141                0.25059995               -0.12279187                0.22519886               -0.71371713                0.47617893                3.29092001                2.45765340
              10.10712242                2.64861616               21.78759978                1.00000000                0.28406911                0.30596273               -0.97610664                0.01480163                0.76664223                0.93848171
              11.11047466                2.56373835               21.69847800                1.00000000                0.33522368                0.39889095               -1.30069540               -0.01568482                0.01252462               -0.58788743
               1.25416005                4.45238414               22.23362532                1.00000000               -0.20926343               -0.27712671                0.86366955               -0.02128754                0.07678658                1.25341348
               2.25206742                4.35074375               22.13765271                0.92381803               -0.17008825               -0.17701030                0.57504573               -0.00029116                0.10201932               -0.15000204
               3.25075829                4.24871246               22.04212936                0.16737103               -0.08910002               -0.07727796                0.29641939               -0.01933564                1.13512038               -1.45643939
               4.25028542                4.14588013               21.96681009                0.00010000               -0.70626642                0.08357657               -0.01835729                0.75840815                5.91532618               -2.16447600
               5.23663296                4.06131679               21.96667443                0.00010000               -1.32964690                0.09117009               -0.10187643                1.46754716                9.24290540               -1.37784674
               6.22369248                3.97551802               21.95833680                0.00010000               -1.27427759                0.20427992               -0.17872264                1.33912184                8.55222756               -0.53812656
               7.21114741                3.89128251               21.94486552                0.00010000               -1.18582754                0.15428498               -0.27872426                1.18494609                8.15899003                0.48598279
               8.19997593                3.81058850               21.92903219                0.00010000               -1.07027771                0.13243823               -0.40471072                1.10723507                8.09483737                1.55107403
               9.18974185                3.73524195               21.91457905                0.23025691               -0.41776569                0.14255461               -0.56237260                0.47809824                4.40117230                2.89512471
              10.19162061                3.65144920               21.82497751                0.91229131                0.24944363                0.26247964               -0.88262363                0.00862572                0.34991716                0.90712677
              11.19473072                3.56772134               21.72929542                1.00000000                0.31101104                0.39129261               -1.22415783               -0.01740458                0.05067133               -0.44186054
               1.35504535                5.44977314               22.20741311                1.00000000               -0.16931751               -0.23923305                0.73423352               -0.02485156                0.11938546                1.09932743
               2.35335218                5.34919273               22.10470552                0.74890935               -0.12769543               -0.13145662                0.42730724               -0.00498735                0.22831822               -0.33597667
               3.35249145                5.24819771               22.00412197                0.11258312               -0.17186204               -0.02505914                0.13304763                0.06084828                1.88377025               -1.63916812
               4.34991494                5.14802588               21.93452052                0.00010000               -0.89450375                0.34198904               -0.31164533                0.53798373                7.66791618               -0.72742256
               5.33460137                5.06330720               21.94910896                0.00010000               -1.54825838                0.30856089               -0.22237286                1.14887030               11.39771559               -0.57967095
               6.31894977                4.97810740               21.95494393                0.00010000               -1.57202237                0.35121938               -0.20428122                0.91287445               10.75863023               -0.04652239
               7.30316092                4.89400875               21.95749366                0.00010000               -1.55931247                0.34262588               -0.23462922                0.78195128               10.52468155                0.69758517
               8.28776352                4.81275562               21.95922090                0.00010000               -1.48331919                0.25130599               -0.29935807                0.78031483               10.54230195                1.58582991
               9.27349454                4.73631087               21.96247231                0.23752252               -0.64739866                0.08199386               -0.39153080                0.34921842                5.45593467                2.49078137
              10.27481555                4.65386575               21.86256902                0.80990193                0.20438790                0.22321543               -0.75350496                0.00793726                0.18828902                0.89825826
              11.27758230                4.57156421               21.76026952                1.00000000                0.27667493                0.37267002               -1.13539232               -0.01918619                0.07434805               -0.46376549
               1.45482383                6.44759948               22.17961461                1.00000000               -0.12807406               -0.19400347                0.59879010               -0.02474085                0.06943138                0.95864829
               2.45354309                6.34811462               22.06925330                0.63720724               -0.08408661               -0.08483679                0.27707274               -0.00459140                0.22744838               -0.51701909
               3.45314210                6.24821127               21.96200074                0.08462777               -0.38037443                0.02521447               -0.03304393                0.24138379                3.65328601               -1.97288294
               4.44593561                6.15271991               21.92015861                0.00010000               -1.18066288                0.50349319               -0.55348904                0.53553643                9.95566282                0.13897958
               5.42952884                6.06748801               21.93819504                0.00010000               -1.73435961                0.51598803               -0.30964256                0.90325304               12.85238207               -0.07689512
               6.41124841                5.98254241               21.95555143                0.00010000               -1.86953214                0.54637437               -0.21583095                0.66362100               12.72217659                0.25639633
               7.39213820                5.89813503               21.97198046                0.00010000               -1.89841569                0.49123943               -0.18515938                0.44870056               12.66498034                0.81783535
               8.37328010                5.81561462               21.98892636                0.00010000               -1.82610545                0.31662042               -0.19266773                0.38836422               12.75549499                1.51979577
               9.35561609                5.73688183               22.00762540                0.25477629               -0.83770368                0.03403358               -0.22701730                0.14202751                6.50388850                2.27715033
              10.35652603                5.65591351               21.89973224                0.74927070                0.16669968                0.18549202               -0.62864192                0.00542606                0.11491157                0.83557872
              11.35895009                5.57517474               21.79044052                1.00000000                0.24240608                0.34655960               -1.03733984               -0.01612054                0.05183257               -0.52923983
               1.55352025                7.44589307               22.15054368                1.00000000               -0.08716947               -0.14807872                0.46307789               -0.02360666                0.02990684                0.87010229
               2.55264855                7.34749599               22.03263219                0.57922289               -0.04032073               -0.03953983                0.13001603               -0.00261965                0.15915282               -0.59070550
               3.55271383                7.24870200               21.91725600                0.06990509               -0.56498132                0.07146414               -0.19875138                0.43305264                5.46410485               -2.15832017
               4.54134893                7.15809574               21.90544594                0.00010000               -1.49349511                0.56549298               -0.56208491                0.76506168               12.50337740               -0.08679362
               5.52284393                7.07362696               21.93058339                0.00010000               -1.98868771                0.71655148               -0.33965621                0.81912443               14.40905461                0.10103427
               6.50157517                6.98903488               21.95812114                0.00010000               -2.18906063                0.77115008               -0.20684370                0.47351510               14.54107578                0.37023048
               7.47906272                6.90383354               21.98699438                0.00010000               -2.23955826                0.67365267               -0.13124548                0.11837104               14.66465103                0.80723901
               8.45678401                6.81908803               22.01787171                0.00010000               -2.15132594                0.39897163               -0.09022167               -0.07422298               14.86568626                1.40325176
               9.43603620                6.73699155               22.05136793                0.27783621               -1.00764243               -0.00964178               -0.07506049               -0.12118428                7.53716657                2.14111003
              10.43663116                6.65757559               21.93600725                0.71999250                0.13506174                0.14605508               -0.50629713               -0.00026233                0.06672474                0.75294630
              11.43873744                6.57849540               21.81986479                1.00000000                0.21062757                0.31620304               -0.94116369               -0.01366360                0.03552027               -0.59417546
               1.65114585                8.44463790               22.12091664                1.00000000               -0.04640826               -0.10451332                0.32920922               -0.02266566                0.01155890                0.84301524
               2.65068177                8.34732382               21.99565731                0.56980969                0.00287787                0.00501386               -0.01436095               -0.00071716                0.06289236               -0.60989866
               3.65120341                8.24964056               21.87137663                0.05805733               -0.71849423                0.11595811               -0.36046292                0.62873026                7.07851673               -2.10797535
               4.63631188                8.16402977               21.88643080                0.00010000               -1.81156076                0.67627818               -0.50962011                1.02109550               15.10436147               -0.23446942
               5.61497219                8.08181904               21.92297901                0.00010000               -2.28998745                0.94333655               -0.32514688                0.77963912               16.18187053                0.08641205
               6.59051213                7.99796541               21.96077816                0.00010000               -2.52598593                0.99833582               -0.18541163                0.32098072               16.31663233                0.32890315
               7.56445247                7.91160808               22.00113968                0.00010000               -2.59372504                0.92549727               -0.07832025               -0.16980444               16.58011756                0.65617334
               8.53863763                7.82359405               22.04522435                0.00906369               -2.48738119                0.56406668                0.00346442               -0.62084475               16.95194827                1.15556131
               9.51470485                7.73668899               22.09381874                0.30560168               -1.18103531               -0.04382928                0.06384592               -0.46213632                8.60146588                1.93602423
              10.51501693                7.65883461               21.97142867                0.72217005                0.10661745                0.10807780               -0.39089959               -0.01033318                0.03773608                0.69111970
              11.51683720                7.58149880               21.84850055                1.00000000                0.18202719                0.28289227               -0.85047482               -0.01130172                0.02004384               -0.66135150
               1.74769509                9.44380280               22.09123900                1.00000000               -0.00635350               -0.06414087                0.19781379               -0.02206192               -0.00705457                0.71974096
               2.74763156                9.34759627               21.95861263                0.59293221                0.04437021                0.04899808               -0.15621616                0.00042372                0.07683711               -0.52724217
               3.74858250                9.25102116               21.82761740                0.02687069               -0.90196025                0.15835319               -0.51000377                0.88265269                8.74990536               -1.46512575
               4.72959235                9.17162130               21.86845295                0.00010000               -2.20407114                1.02051912               -0.46430895                0.98035635               17.57560395               -0.07397918
               5.70450107                9.09249369               21.91472952                0.00010000               -2.56933025                1.11725840               -0.31345066                0.57893807               17.85177596                0.04434004
               6.67820575                9.00900160               21.96216940                0.00010000               -2.72315442                1.14592367               -0.16862194                0.18226577               18.01792218                0.18899200
               7.65003798                8.92234348               22.01286377                0.00010000               -2.94597710                1.12757160               -0.03595717               -0.26538179               18.39863497                0.37205938
               8.61928620                8.83036937               22.06907262                0.02790552               -2.92425343                1.00313106                0.08575557               -0.87654689               19.01762022                0.67405897
               9.59155292                8.73611496               22.13336864                0.33555138               -1.38357574               -0.05208976                0.18428006               -0.90325385                9.81242224                1.29199617
              10.59161469                8.65973715               22.00633721                0.75415077                0.08150576                0.07714123               -0.28555779               -0.02444063                0.11216886                0.56505258
              11.59318303                8.58415324               21.87635963                0.98160794                0.15683412                0.24855690               -0.76930753               -0.01100808               -0.02428553               -0.59961258
               1.84311767               10.44335508               22.05907765                1.00000000                0.03542066               -0.04477164                0.06658803                0.03712818                0.39416278                0.59911108
               2.84347188               10.34830378               21.92326057                0.83161088                0.08568770                0.07075151               -0.29288354                0.05665901                0.75438615               -0.44146707
               3.84483143               10.25280762               21.79460250                0.51388886               -1.45126973                0.17864565               -0.64075455                1.43171126               10.42853579               -0.92900980
               4.81444648               10.18444015               21.85227021                0.36488990               -2.78303839                1.28188448               -0.48140489                1.05324279               19.49840454                0.03638264
               5.78917066               10.10416421               21.90586331                0.35610078               -2.50694159                1.16705214               -0.33416408                0.28914517               19.35513061                0.03525917
               6.76430765               10.02088388               21.96155569                0.37419701               -2.56967940                1.18822823               -0.17023103                0.10995586               19.59185423                0.11602640
               7.73777707                9.93415951               22.02083241                0.41719674               -2.84862170                1.18160303               -0.01274440               -0.08745172               20.03383791                0.21720167
               8.70733522                9.84365667               22.08646812                0.52254139               -3.52525394                1.32873092                0.14096238               -1.12071454               20.80954816                0.39443913
               9.66727199                9.73564720               22.16272879                0.68467296               -2.04226943               -0.04677648                0.26044953               -1.59205435               11.23947861                0.79890868
              10.66648983                9.66037744               22.03904367                0.90337106                0.02564250                0.06402899               -0.19612506                0.02865098                0.78691907                0.46800777
              11.66778484                9.58646993               21.90601842                0.98688183                0.12950117                0.23166904               -0.69161512                0.06943087                0.33248005               -0.49880505
               0.91055949                0.50433720               23.34887280                1.00000000               -0.34947827               -0.37903647                1.32260505               -0.06639606               -0.80376433                0.83598215
               1.90706471                0.39205276               23.27044158                1.00000000               -0.29221375               -0.30074625                1.06197511               -0.05302865               -1.02576307                0.06588686
               2.90471522                0.27951593               23.18753760                1.00000000               -0.16169878               -0.22243894                0.78715995               -0.04168566               -0.97568797               -0.20985961
               3.90383073                0.16790574               23.11010541                0.62503064                0.30025216               -0.17486899                0.52332326                0.45573156               -0.04548051               -0.66004067
               4.91072026                0.06787661               23.04583503                0.71437474                0.44656117               -0.05636560                0.22620345               -0.07808582                0.41052888                0.17979671
               5.91276196               -0.02358877               22.97790979                0.79806486                0.14717459                0.02767102               -0.05453518               -0.00280277                0.04730286                0.10158788
               6.91366375               -0.11346901               22.90638407                0.77495983                0.07885924                0.10208853               -0.33240033                0.00809813               -0.14865233               -0.06440703
               7.91433914               -0.20365426               22.83445232                0.86974487                0.09530925                0.19078781               -0.62183487                0.02352551               -0.39086309                0.08077906
               8.91556994               -0.29610008               22.75787548                1.00000000                0.19728320                0.28213490               -0.91026213                0.01027385               -0.73597452                0.46795630
               9.91828481               -0.39022172               22.67888350                1.00000000                0.32879761                0.35197667               -1.19274967               -0.04136239               -0.78484793                0.00730637
              10.92214589               -0.48458576               22.60132918                1.00000000                0.38610833                0.43189676               -1.46107404               -0.05654310               -0.71666317               -0.72743458
               1.02217997                1.50054684               23.31790990                1.00000000               -0.32349124               -0.35996729                1.19931616               -0.02614195               -0.10903397                1.13605200
               2.01894506                1.38904530               23.23909951                1.00000000               -0.29040493               -0.27980800                0.94014893               -0.00893189               -0.08334553                0.09294241
               3.01637187                1.27729154               23.16076107                0.83726001               -0.23686760               -0.20011422                0.67126815                0.01822876                0.13098991               -0.58255846
               4.01420771                1.16615705               23.08619580                0.17798148               -0.53426095               -0.16374421                0.39506210                0.64461412                1.64641052               -1.07040954
               5.00568665                1.06731296               23.03810312                0.34287890               -0.54004831                0.06819041                0.15492985               -0.10164941                2.35835845                0.97630137
               6.00340674                0.97668794               22.97731871                0.44187927               -0.09545882                0.08944731               -0.10379991                0.15054178                1.50244815                0.39286485
               7.00377748                0.88755187               22.91201020                0.33303904                0.12415942                0.06850416               -0.36316055                0.19826806                1.40206616               -0.37687430
               8.00588993                0.79825362               22.84927542                0.47701309                0.25894639                0.18869484               -0.61581251                0.21470938                1.39716193                0.59899986
               9.00895641                0.70672127               22.78408354                1.00000000                0.31120460                0.26983266               -0.87005802                0.09538045                0.71303870                0.68277615
              10.01211402                0.61329805               22.70786296                1.00000000                0.34940448                0.34337035               -1.13667906                0.00198732                0.09338681                0.09389687
              11.01594450                0.51973321               22.63033321                1.00000000                0.38304737                0.42204125               -1.40417669               -0.01434886                0.02533412               -0.86279238
               1.13303973                2.49713786               23.29291040                1.00000000               -0.28983600               -0.32792653                1.08795094               -0.01898768                0.03966480                1.44524205
               2.13014137                2.38645660               23.20825804                1.00000000               -0.25358419               -0.24400997                0.82127862                0.00570302                0.18558097                0.06741584
               3.12796805                2.27551364               23.12648720                0.47960454               -0.17198851               -0.16781174                0.56629672                0.04119880                0.79675749               -1.32390349
               4.12670160                2.16463085               23.05404245                0.00010000               -1.49058345               -0.14767960                0.28418842                0.89718949                4.49736283               -1.97354423
               5.09815638                2.06924042               23.04629290                0.00010000               -1.55838620                0.15551729                0.08293532                1.68968078                5.00323857               -1.27348611
               6.09553388                1.97820018               22.98255822                0.00010000               -0.10464709               -0.06970780               -0.14546167                1.42180176                1.82959378               -0.40506358
               7.09606343                1.88790107               22.91141154                0.00010000                0.19650279               -0.14870382               -0.37600810                1.18134894                3.16355784                0.35518242
               8.09946393                1.80011964               22.87450682                0.00010000                0.31848416               -0.10705040               -0.61620434                0.79827265                3.68839099                0.88560120
               9.10243312                1.70929658               22.81466759                0.49528652                0.29243409                0.26258528               -0.81482676                0.15871407                1.72428707                1.35794207
              10.10531261                1.61664569               22.73864528                1.00000000                0.32777333                0.32968306               -1.07508295                0.02092198                0.61922117                0.60024764
              11.10898858                1.52385507               22.65669703                1.00000000                0.36759716                0.40809873               -1.35842717               -0.00879298                0.32203794               -0.87508113
               1.24316273                3.49398831               23.26810382                1.00000000               -0.24793957               -0.30368373                0.97511404               -0.01544721                0.06313331                1.40135181
               2.24068333                3.38416510               23.17636445                1.00000000               -0.20705640               -0.21319279                0.69947043                0.00586320                0.07581578               -0.03793233
               3.23902160                3.27393530               23.08482863                0.28454303               -0.11293053               -0.12944784                0.42720429                0.00394078                1.02079821               -1.59377012
               4.23842472                3.16320345               23.01196870                0.00010000               -0.65553277               -0.09960546                0.15958741                0.92267088                4.68694700               -2.62884559
               5.22591094                3.07042330               22.99366634                0.00010000               -1.26212980                0.04852728                0.00361638                2.43710953                6.95086873               -3.09806032
               6.21318213                2.97529379               22.96605857                0.00010000               -1.02129743               -0.07404656               -0.15728591                2.01600431                6.14174372               -1.14514859
               7.20548500                2.88457780               22.93142957                0.00010000               -0.63611238               -0.15204808               -0.32936044                1.68951343                5.69920329                0.91167292
               8.20045988                2.79611261               22.89507543                0.00010000               -0.49401790               -0.17908161               -0.51218127                1.28538472                5.39358419                1.12209211
               9.19560464                2.71197298               22.85440225                0.24945364               -0.12429545                0.21348068               -0.72393911                0.44492176                3.37792585                2.54617476
              10.19797397                2.61989171               22.77779469                1.00000000                0.28726184                0.30343019               -0.98452577                0.00733750                0.79820405                0.97008017
              11.20134987                2.52789519               22.68544570                1.00000000                0.33759057                0.40416193               -1.30535497               -0.01436125                0.01344719               -0.61188211
               1.35237720                4.49106418               23.24221029                1.00000000               -0.20655639               -0.27614623                0.85373479               -0.02076728                0.08409178                1.26682315
               2.35031164                4.38219275               23.14337589                0.91418507               -0.16843462               -0.17509810                0.56944614                0.00010355                0.11430849               -0.16277881
               3.34900851                4.27292469               23.04509214                0.17314544               -0.08223081               -0.07497118                0.29543881               -0.03045937                1.13844654               -1.49046182
               4.34866702                4.16263874               22.96672669                0.00010000               -0.71001357                0.07108397               -0.00432184                0.72496606                6.00986883               -2.29042393
               5.33480824                4.07021097               22.96566037                0.00010000               -1.34837766                0.08665825               -0.09977514                1.40648818                9.45863319               -1.40804057
               6.32169947                3.97671925               22.95653892                0.00010000               -1.28866794                0.19967927               -0.18194835                1.27392471                8.77523889               -0.50997915
               7.30903488                3.88486011               22.94203917                0.00010000               -1.19615107                0.14797591               -0.28728264                1.11754617                8.36966321                0.55589696
               8.29777644                3.79653801               22.92491685                0.00010000               -1.07412103                0.12579443               -0.41892630                1.03869559                8.28876246                1.64838139
               9.28755246                3.71356619               22.90884528                0.22758442               -0.41196449                0.12592064               -0.58416520                0.44322398                4.51277654                3.01766859
              10.28953715                3.62271429               22.81605745                0.89262477                0.25709747                0.26241625               -0.90077577                0.00585500                0.37388475                0.95414163
              11.29269441                3.53193831               22.71698893                1.00000000                0.31572507                0.39938650               -1.23635789               -0.01791257                0.06449958               -0.45203839
               1.46049025                5.48846538               23.21469957                1.00000000               -0.16653567               -0.23766416                0.72329241               -0.02485411                0.12131065                1.10484717
               2.45882490                5.38066314               23.10895006                0.74096533               -0.12619191               -0.12903248                0.42144611               -0.00554183                0.23677930               -0.35883761
               3.45796641                5.27243588               23.00545390                0.11733689               -0.15935664               -0.02193785                0.13289476                0.03907697                1.82940524               -1.68986736
               4.45563776                5.16462513               22.93155079                0.00010000               -0.90031058                0.32702207               -0.28366330                0.50220708                7.79674457               -0.88518828
               5.43996020                5.07215647               22.94691155                0.00010000               -1.58131442                0.30759565               -0.21528401                1.09388401               11.76002594               -0.60036717
               6.42401148                4.97928737               22.95288967                0.00010000               -1.59715227                0.35162837               -0.20688459                0.85078820               11.07934450               -0.01267239
               7.40801716                4.88753732               22.95509823                0.00010000               -1.57418832                0.33965687               -0.24526714                0.71299951               10.81978632                0.76772410
               8.39252771                4.79862850               22.95613660                0.00010000               -1.48621635                0.24462102               -0.31828665                0.70709167               10.82232271                1.68486885
               9.37829283                4.71449139               22.95841462                0.23463321               -0.64043791                0.07104771               -0.42031444                0.31291715                5.60713249                2.61822468
              10.37971895                4.62514003               22.85491662                0.79233135                0.21253803                0.22475281               -0.77637613                0.00880446                0.19972621                0.96055430
              11.38254359                4.53588292               22.74882498                1.00000000                0.28246411                0.38368083               -1.15252586               -0.01970540                0.07579462               -0.46244355
               1.56748461                6.48631090               23.18554430                1.00000000               -0.12543063               -0.19173108                0.58720706               -0.02474778                0.06878472                0.96068720
               2.56623030                6.37961210               23.07199607                0.63112926               -0.08282779               -0.08217921                0.27129776               -0.00515141                0.23272035               -0.53922594
               3.56582805                6.27248593               22.96167244                0.08844149               -0.36198626                0.02860037               -0.03296625                0.21057882                3.56291904               -2.02398577
               4.55899057                6.16917918               22.91472959                0.00010000               -1.19021862                0.49809267               -0.52600228                0.48207349               10.13467899                0.11599842
               5.54202368                6.07636288               22.93512720                0.00010000               -1.78280966                0.52174109               -0.30143919                0.84802099               13.34535317               -0.05789501
               6.52333438                5.98375181               22.95337573                0.00010000               -1.90349706                0.55184044               -0.21901726                0.59554830               13.12789521                0.30318009
               7.50395374                5.89165325               22.97006738                0.00010000               -1.91850894                0.49246891               -0.19818871                0.37286276               13.03926706                0.88853127
               8.48496420                5.80143043               22.98689119                0.00010000               -1.83272356                0.31323303               -0.21540730                0.30659407               13.11657808                1.61373346
               9.46729927                5.71498714               23.00519509                0.25217461               -0.83212421                0.02946265               -0.25978426                0.10001690                6.69052087                2.39264604
              10.46832172                5.62720935               22.89331009                0.73336047                0.17576337                0.18848376               -0.65555650                0.00685626                0.11983555                0.89272406
              11.47081453                5.53961192               22.77996290                1.00000000                0.24928147                0.35841857               -1.05735389               -0.01605967                0.05361923               -0.52404885
               1.67339290                7.48463076               23.15511546                1.00000000               -0.08460661               -0.14521023                0.45120084               -0.02355302                0.02932790                0.87261712
               2.67254684                7.37901955               23.03390674                0.57475263               -0.03909992               -0.03715272                0.12460691               -0.00281100                0.16078289               -0.60956954
               3.67261090                7.27300789               22.91527424                0.07262445               -0.55722755                0.07383972               -0.19805541                0.40290048                5.45034199               -2.20585149
               4.66140228                7.17458699               22.89985899                0.00010000               -1.51314551                0.57297508               -0.54552244                0.69522818               12.76500609                0.03289735
               5.64234799                7.08259129               22.92720342                0.00010000               -2.03851059                0.72741218               -0.33297923                0.75875459               14.92956425                0.16307862
               6.62063207                6.99032418               22.95602503                0.00010000               -2.22760966                0.78169552               -0.21179246                0.40077568               15.00712567                0.42630472
               7.59779580                6.89738669               22.98560704                0.00010000               -2.26531898                0.68018565               -0.14689360                0.03604920               15.10661859                0.87351945
               8.57532569                6.80489316               23.01684345                0.00010000               -2.16407762                0.40082563               -0.11662416               -0.16305441               15.29901735                1.48619760
               9.55451425                6.71508064               23.05043700                0.27564224               -1.00471988               -0.00821548               -0.11229148               -0.16839916                7.75874103                2.24152917
              10.55523130                6.62890971               22.93079228                0.70480236                0.14514996                0.15115505               -0.53700472                0.00030639                0.06909162                0.80368577
              11.55741725                6.54305129               22.81033622                1.00000000                0.21859511                0.32774441               -0.96402320               -0.01303473                0.03655689               -0.59304754
               1.77823596                8.48340669               23.12414992                1.00000000               -0.04390081               -0.10124394                0.31722814               -0.02258129                0.01108853                0.84748578
               2.77779695                8.37886904               22.99549082                0.56679022                0.00413333                0.00694070               -0.01930768               -0.00065535                0.06124745               -0.62577524
               3.77831863                8.27396272               22.86778269                0.05947990               -0.72426071                0.11675958               -0.35880400                0.60441454                7.17372880               -2.14619485
               4.76331174                8.18063869               22.88137210                0.00010000               -1.84285249                0.68961202               -0.49369004                0.95928844               15.46780533               -0.09259738
               5.74146158                8.09091112               22.91972838                0.00010000               -2.33786239                0.95757697               -0.32192200                0.72586883               16.70426681                0.15994442
               6.71655449                7.99938572               22.95888336                0.00010000               -2.56779190                1.01419728               -0.19298713                0.25524297               16.82259171                0.37953133
               7.69010574                7.90525696               23.00026879                0.00010000               -2.62726629                0.94035776               -0.09641986               -0.24853794               17.08024092                0.70889825
               8.66400916                7.80944694               23.04511531                0.01030302               -2.50955022                0.57310866               -0.02645379               -0.71195724               17.45100246                1.22418073
               9.63991473                7.71482283               23.09424780                0.30363978               -1.18259810               -0.03616279                0.02045876               -0.51316180                8.85781522                2.01964165
              10.64035720                7.63023245               22.96734553                0.70619339                0.11779736                0.11621017               -0.42647235               -0.01100392                0.04057761                0.73217797
              11.64227068                7.54616681               22.83986086                1.00000000                0.19134795                0.29381865               -0.87720755               -0.01015019                0.02088462               -0.66828820
               1.88201658                9.48260588               23.09315861                1.00000000               -0.00388826               -0.06060111                0.18575576               -0.02198279               -0.00789116                0.72551884
               2.88197770                9.37915837               22.95703046                0.59054599                0.04564854                0.05049724               -0.16068229                0.00050349                0.07630675               -0.53894789
               3.88292955                9.27534308               22.82253442                0.02652600               -0.91690206                0.15788849               -0.50707471                0.86661980                8.94813779               -1.48720128
               4.86363966                9.18837923               22.86383901                0.00010000               -2.24056096                1.03530382               -0.45421494                0.94363084               18.03717599                0.02347652
               5.83811833                9.10174283               22.91158231                0.00010000               -2.61242806                1.13345498               -0.31413348                0.54719537               18.38239177                0.08957673
               6.81139109                9.01060813               22.96042837                0.00010000               -2.76772529                1.16647180               -0.17931800                0.14198557               18.56248586                0.21792036
               7.78276383                8.91619385               23.01240440                0.00010000               -2.99352103                1.15189605               -0.05637487               -0.31958152               18.95483178                0.40061940
               8.75152067                8.81635533               23.06978196                0.03041811               -2.96491619                1.02893296                0.05572310               -0.94748619               19.57784634                0.71775893
               9.72346550                8.71435739               23.13496775                0.33363815               -1.39267173               -0.03819811                0.13366467               -0.95558141               10.10312320                1.34474030
              10.72366724                8.63123391               23.00327714                0.73512534                0.09400077                0.08880017               -0.32749893               -0.02602312                0.11987465                0.59292210
              11.72534552                8.54892766               22.86850706                0.98220061                0.16782775                0.25927808               -0.80111039               -0.00971807               -0.02295009               -0.61359511
               1.98469133               10.48219467               23.05968543                1.00000000                0.03784903               -0.04112102                0.05452873                0.03590681                0.39763235                0.60516130
               2.98506982               10.37987899               22.92031375                0.83103443                0.08694149                0.07206192               -0.29703997                0.05550377                0.76385041               -0.45027938
               3.98643016               10.27712049               22.78821506                0.51339398               -1.46426084                0.17774150               -0.63726199                1.42334998               10.69496831               -0.94139031
               4.95578461               10.20134476               22.84746248                0.36530329               -2.81267884                1.29655348               -0.47906622                1.03748139               20.04185769                0.08998822
               5.93017659               10.11358022               22.90249578                0.35629988               -2.54207130                1.18373943               -0.33838257                0.27434537               19.92185593                0.05417087
               6.90494318               10.02271516               22.95978428                0.37401002               -2.61048435                1.21070348               -0.18421631                0.09094151               20.18383289                0.12612591
               7.87796690                9.92829488               23.02059068                0.41655293               -2.90236396                1.21010324               -0.03620535               -0.11417074               20.64196142                0.22722101
               8.84689590                9.83002560               23.08772344                0.52441496               -3.60211854                1.36702641                0.11029476               -1.17427775               21.41554578                0.41496495
               9.80592453                9.71405887               23.16505768                0.68411795               -2.08147171               -0.02985154                0.20316626               -1.65495469               11.57035594                0.83063777
              10.80526647                9.63200845               23.03684554                0.89259603                0.03821482                0.07745400               -0.24478005                0.02459781                0.82017489                0.48852629
              11.80668882                9.55135237               22.89891360                0.98681306                0.14223575                0.24247133               -0.72935079                0.06872284                0.34711324               -0.51478199
               0.98217558                0.54435178               24.36206433                1.00000000               -0.34783932               -0.37715192                1.31577887               -0.06582410               -0.81988553                0.85088901
               1.97869719                0.42468825               24.28102885                1.00000000               -0.29140775               -0.29885143                1.05581050               -0.05206548               -1.04916871                0.07073665
               2.97634742                0.30477038               24.19537824                1.00000000               -0.16282133               -0.22062705                0.78187156               -0.04126598               -1.00158591               -0.21010882
               3.97544076                0.18572708               24.11530292                0.62599479                0.28790211               -0.17354869                0.51807719                0.43703700               -0.08302288               -0.68295227
               4.98210547                0.07782231               24.04808082                0.71532906                0.43470449               -0.05618451                0.22383791               -0.08050481                0.36056208                0.19077351
               5.98413485               -0.02170061               23.97737101                0.79872274                0.14880575                0.02725254               -0.05322830               -0.00573343                0.00522006                0.10811765
               6.98508158               -0.11959656               23.90308555                0.77524759                0.08648398                0.10083295               -0.32795756                0.00677333               -0.19543703               -0.06684142
               7.98586453               -0.21766796               23.82827732                0.86996552                0.10483588                0.18858659               -0.61411782                0.01943411               -0.44255674                0.08665546
               8.98717830               -0.31776907               23.74883037                1.00000000                0.20164317                0.27830358               -0.89982648                0.00695046               -0.78362084                0.47985214
               9.98989739               -0.41940994               23.66702743                1.00000000                0.32734929                0.34863342               -1.17956195               -0.04045305               -0.82178352                0.00690315
              10.99372529               -0.52128540               23.58680010                1.00000000                0.38278926                0.42880659               -1.44597214               -0.05429079               -0.74592220               -0.75431102
               1.10118087                1.54058026               24.32986902                1.00000000               -0.32136410               -0.35835711                1.19247578               -0.02544685               -0.11221794                1.15671404
               2.09796723                1.42169973               24.24846807                1.00000000               -0.28827608               -0.27795398                0.93388322               -0.00812097               -0.09095144                0.09921841
               3.09541535                1.30256411               24.16745069                0.84596754               -0.23410329               -0.19809971                0.66676114                0.01674748                0.11601715               -0.57887840
               4.09328516                1.18399159               24.09014803                0.18518831               -0.52005425               -0.16131992                0.39430644                0.61929631                1.64438760               -1.08862799
               5.08501426                1.07726047               24.03962620                0.34983032               -0.52491057                0.06538928                0.15042681               -0.10753790                2.36881758                0.98634999
               6.08278695                0.97857191               23.97626873                0.44963233               -0.09406387                0.08777292               -0.10586126                0.13673576                1.50631528                0.40310290
               7.08313299                0.88141177               23.90838146                0.34161216                0.11790870                0.07380411               -0.36260712                0.18699830                1.40951262               -0.37040885
               8.08514513                0.78421791               23.84313118                0.48328897                0.24929046                0.18737570               -0.61336906                0.19640902                1.40818299                0.60185156
               9.08811880                0.68501396               23.77540854                1.00000000                0.30529480                0.26735884               -0.86540536                0.08775196                0.71798482                0.70224649
              10.09125102                0.58407639               23.69653125                1.00000000                0.34695172                0.34065571               -1.13025731                0.00247265                0.09208487                0.09674205
              11.09505783                0.48300267               23.61633707                1.00000000                0.38068078                0.42073994               -1.39575771               -0.01233270                0.02408868               -0.89452252
               1.21942770                2.53718464               24.30375391                1.00000000               -0.28767825               -0.32687262                1.08061444               -0.01800409                0.04094700                1.47066731
               2.21655092                2.41912917               24.21644041                1.00000000               -0.25185907               -0.24216504                0.81520963                0.00671709                0.19251861                0.07343687
               3.21439052                2.30080839               24.13211212                0.49085821               -0.17102929               -0.16505914                0.55971438                0.03912035                0.79647970               -1.33151086
               4.21313033                2.18250068               24.05685059                0.00010000               -1.45080640               -0.14491981                0.27834762                0.86444443                4.52537327               -1.99343710
               5.18537439                2.07913010               24.04708315                0.00010000               -1.52060319                0.14473277                0.07552264                1.61778637                5.07716622               -1.26630848
               6.18271827                1.98005484               23.98107543                0.00010000               -0.10994183               -0.07168906               -0.15058235                1.35835857                1.89022418               -0.37586566
               7.18317555                1.88187952               23.90762971                0.00010000                0.17361254               -0.14414437               -0.37984496                1.11957093                3.21857868                0.39968946
               8.18619052                1.78607956               23.86833077                0.00010000                0.29496516               -0.10396177               -0.61912031                0.75153566                3.76239270                0.93789455
               9.18907485                1.68757810               23.80650718                0.49937746                0.28838104                0.25958144               -0.81730453                0.14186726                1.78780804                1.40257211
              10.19195814                1.58740317               23.72789393                1.00000000                0.32756101                0.32645991               -1.07521937                0.01716607                0.64093648                0.62028640
              11.19562608                1.48712940               23.64312610                1.00000000                0.36679378                0.41030716               -1.35580667               -0.00818965                0.33243945               -0.90861346
               1.33693173                3.53404281               24.27781387                1.00000000               -0.24539083               -0.30298952                0.96684792               -0.01448819                0.06748321                1.42137103
               2.33447782                3.41685643               24.18333011                1.00000000               -0.20527422               -0.21132977                0.69359887                0.00704737                0.08217843               -0.03779800
               3.33282625                3.29926293               24.08908775                0.29391118               -0.11127395               -0.12652196                0.42448700                0.00113345                1.02932310               -1.61360106
               4.33225234                3.18109319               24.01352749                0.00010000               -0.65052090               -0.10055615                0.15379634                0.88382143                4.75140293               -2.66639625
               5.31981583                3.08015512               23.99368256                0.00010000               -1.25238195                0.03903395               -0.00023552                2.33319674                7.07912629               -3.10539474
               6.30720470                2.97713813               23.96445416                0.00010000               -1.01580661               -0.07837554               -0.16314582                1.92369709                6.27104065               -1.10402572
               7.29949969                2.87852888               23.92810118                0.00010000               -0.63637221               -0.15738698               -0.33666211                1.59938632                5.82577612                0.98677370
               8.29447726                2.78213867               23.88990683                0.00010000               -0.49335844               -0.17923001               -0.52164451                1.22156313                5.50742046                1.22254087
               9.28963253                2.69020559               23.84711262                0.24791234               -0.12171074                0.20024235               -0.73361522                0.41244227                3.46184655                2.63171248
              10.29204304                2.59060559               23.76790926                1.00000000                0.29045249                0.30034681               -0.99200338               -0.00001294                0.82870896                1.00021311
              11.29544158                2.49120881               23.67237090                1.00000000                0.33985316                0.40859462               -1.30903991               -0.01309349                0.01410373               -0.63455776
               1.45351069                4.53112485               24.25070001                1.00000000               -0.20389449               -0.27533707                0.84425449               -0.02028438                0.09180789                1.27788229
               2.45147174                4.41490257               24.14904163                0.90501483               -0.16671317               -0.17303156                0.56354694                0.00043568                0.12724770               -0.17570478
               3.45017642                4.29827795               24.04803814                0.17879447               -0.07785890               -0.07214332                0.29343993               -0.03802249                1.14520885               -1.52249483
               4.44991456                4.18048956               23.96672365                0.00010000               -0.70915176                0.06130065                0.00245223                0.68863349                6.09904071               -2.39510069
               5.43599339                4.07991078               23.96467893                0.00010000               -1.35480560                0.08389451               -0.09719670                1.33224807                9.66499710               -1.43190762
               6.42281845                3.97848733               23.95469783                0.00010000               -1.29153258                0.19395025               -0.18631339                1.19831361                8.98771038               -0.47571856
               7.41016274                3.87873178               23.93911987                0.00010000               -1.19366908                0.14030694               -0.29713472                1.04088246                8.57039414                0.62848586
               8.39894507                3.78249496               23.92065366                0.00010000               -1.06529767                0.11699933               -0.43405123                0.96337497                8.47163618                1.74604582
               9.38885678                3.69158295               23.90289574                0.22461762               -0.39952069                0.10599825               -0.60533201                0.40698981                4.61795954                3.13685952
              10.39095466                3.59341011               23.80696200                0.87287400                0.26504882                0.26093019               -0.91751590                0.00375074                0.39778318                1.00119602
              11.39415776                3.49530129               23.70456826                1.00000000                0.32031033                0.40662772               -1.24686880               -0.01888649                0.07922565               -0.45989738
               1.56897059                5.52853607               24.22187896                1.00000000               -0.16371592               -0.23637619                0.71264294               -0.02476073                0.12317256                1.10854329
               2.56733343                5.41339580               24.11313444                0.73316719               -0.12458902               -0.12645772                0.41519310               -0.00591887                0.24551643               -0.38162068
               3.56647881                5.29782006               24.00677986                0.12156470               -0.14706248               -0.01833675                0.13174370                0.02069724                1.78653228               -1.73852478
               4.56439218                5.18231921               23.92884725                0.00010000               -0.90079002                0.31210613               -0.25747967                0.46364031                7.92407523               -1.02898207
               5.54846301                5.08183301               23.94480328                0.00010000               -1.60211051                0.30637289               -0.20613773                1.02471531               12.10235475               -0.61573988
               6.53234997                4.98101714               23.95080624                0.00010000               -1.60766443                0.34916590               -0.20985950                0.77748460               11.38433525                0.02567153
               7.51630972                4.88133502               23.95258832                0.00010000               -1.57281909                0.33325351               -0.25733733                0.63534333               11.10066298                0.84013946
               8.50089359                4.78447866               23.95285516                0.00010000               -1.47262761                0.23437425               -0.33858496                0.62647099               11.08746945                1.78449339
               9.48685717                4.69232556               23.95406602                0.23146941               -0.62469386                0.05647091               -0.44947633                0.27481815                5.75072636                2.74540557
              10.48839971                4.59582419               23.84704149                0.77466339                0.22121508                0.22411134               -0.79790180                0.01080421                0.21124503                1.02518383
              11.49128147                4.49934137               23.73721900                1.00000000                0.28817582                0.39406121               -1.16757632               -0.02032746                0.07698283               -0.45691128
               1.68329600                6.52639732               24.19135875                1.00000000               -0.12266359               -0.18981363                0.57567020               -0.02470728                0.06801563                0.96156335
               2.68206937                6.41237342               24.07467925                0.62495769               -0.08145212               -0.07929778                0.26510961               -0.00570542                0.23791670               -0.56101262
               3.68166696                6.29791121               23.96134141                0.09159915               -0.34474747                0.03273289               -0.03362581                0.18239356                3.48676197               -2.07346876
               4.67517442                6.18673168               23.90963857                0.00010000               -1.19385975                0.48959864               -0.48862007                0.42273543               10.31268837                0.09514818
               5.65778977                6.08603824               23.93216626                0.00010000               -1.81541399                0.52271705               -0.28884920                0.77725703               13.81366731               -0.03525551
               6.63886614                5.98547065               23.95117109                0.00010000               -1.91908435                0.55181082               -0.22169388                0.51613569               13.51478314                0.35290740
               7.61940808                5.88539685               23.96801669                0.00010000               -1.91910923                0.48837487               -0.21257412                0.28893683               13.39633596                0.96101019
               8.60048395                5.78718244               23.98461821                0.00010000               -1.82002342                0.30546032               -0.24001446                0.21781590               13.46072780                1.70847090
               9.58300761                5.69271237               24.00242972                0.24935002               -0.81645129                0.02219310               -0.29372134                0.05574593                6.86823461                2.50876008
              10.58415493                5.59789233               23.88662111                0.71729230                0.18546259                0.18948396               -0.68178983                0.00921054                0.12431185                0.95213147
              11.58671686                5.50318252               23.76929344                1.00000000                0.25619345                0.36975605               -1.07555376               -0.01602070                0.05525401               -0.51413056
               1.79652426                7.52473979               24.15956770                1.00000000               -0.08188243               -0.14264286                0.43913799               -0.02350454                0.02865900                0.87441123
               2.79570543                7.41180985               24.03512432                0.57016959               -0.03779180               -0.03444081                0.11863105               -0.00302467                0.16215930               -0.62787865
               3.79576842                7.29847472               23.91329489                0.07467278               -0.54927816                0.07726323               -0.19814536                0.37155419                5.44627463               -2.25173637
               4.78471987                7.19211118               23.89453549                0.00010000               -1.52496214                0.57330609               -0.51083744                0.61802570               13.02203654                0.15136979
               5.76526918                7.09228736               23.92392381                0.00010000               -2.07028994                0.73004009               -0.32017009                0.68493363               15.42675459                0.22643084
               6.74331407                6.99205335               23.95388530                0.00010000               -2.24462543                0.78410202               -0.21570605                0.31862870               15.45241679                0.48398205
               7.72037667                6.89110252               23.98405651                0.00010000               -2.26898391                0.67959144               -0.16381350               -0.05241162               15.52928708                0.94139372
               8.69793439                6.79058787               24.01553923                0.00010000               -2.15572377                0.39783608               -0.14518960               -0.25691901               15.71326579                1.56997793
               9.67726219                6.69276942               24.04912210                0.27330581               -0.99103100               -0.00806477               -0.15149607               -0.21753319                7.97001083                2.34114666
              10.67811377                6.59961387               23.92526715                0.68940356                0.15592470                0.15504843               -0.56805258                0.00137824                0.07069634                0.85591252
              11.68038069                6.50673649               23.80058432                1.00000000                0.22669159                0.33898340               -0.98568254               -0.01237014                0.03743692               -0.58813199
               1.90868581                8.52354447               24.12726120                1.00000000               -0.04118632               -0.09810670                0.30481021               -0.02252000                0.01059219                0.85139475
               2.90827395                8.41168460               23.99527116                0.56371111                0.00554495                0.00922681               -0.02499075               -0.00057682                0.05937964               -0.64104402
               3.90879671                8.29945648               23.86420055                0.06028783               -0.72758248                0.11850193               -0.35801546                0.57407374                7.27685294               -2.18243030
               4.89372230                8.19819780               23.87655700                0.00010000               -1.86252210                0.69446335               -0.46133982                0.88753343               15.82381447                0.04670420
               5.87154627                8.10063904               23.91654057                0.00010000               -2.36493732                0.96152302               -0.31303318                0.66226292               17.20217699                0.23239402
               6.84642355                8.00115269               23.95691841                0.00010000               -2.58604671                1.02028664               -0.19959672                0.18344717               17.30770479                0.43073878
               7.81982533                7.89898868               23.99921128                0.00010000               -2.63724389                0.94657326               -0.11553482               -0.33045824               17.55975276                0.76327379
               8.79367867                7.79513916               24.04469528                0.01170577               -2.50971969                0.57642760               -0.05846598               -0.80461084               17.92786997                1.29573976
               9.76963094                7.69255107               24.09422792                0.30168021               -1.17316258               -0.02847623               -0.02563027               -0.56439314                9.10178423                2.10083611
              10.77021542                7.60099330               23.96289922                0.69002573                0.12966446                0.12408526               -0.46331615               -0.01148943                0.04270339                0.77323830
              11.77222423                7.50996219               23.83095640                1.00000000                0.20088068                0.30460563               -0.90336648               -0.00893657                0.02162774               -0.67281487
               2.01979359                9.52277766               24.09495412                1.00000000               -0.00117026               -0.05698987                0.17300810               -0.02193432               -0.00870713                0.73081534
               3.01978188                9.41199438               23.95539898                0.58813225                0.04715554                0.05234997               -0.16607464                0.00062046                0.07573901               -0.55012583
               4.02073670                9.30084476               23.81747590                0.02575053               -0.92469522                0.15810246               -0.50507326                0.83957092                9.14853770               -1.50754251
               5.00128798                9.20600045               23.85936865                0.00010000               -2.25885758                1.03975826               -0.43583766                0.89768381               18.48913000                0.11353513
               5.97555955                9.11151782               23.90844685                0.00010000               -2.63273035                1.13908234               -0.31143358                0.50991756               18.89181428                0.13337954
               6.94863337                9.01245908               23.95858304                0.00010000               -2.78892553                1.17709477               -0.18959568                0.09910126               19.08719619                0.24694636
               7.91978104                8.91003398               24.01173627                0.00010000               -3.01767940                1.16713478               -0.07751028               -0.37454332               19.49171274                0.43042498
               8.88827978                8.80211642               24.07018708                0.03331014               -2.98304219                1.04669209                0.02555746               -1.01668109               20.11186380                0.76588158
               9.86012019                8.69219989               24.13604194                0.33194632               -1.39034575               -0.02354854                0.07951041               -1.00473832               10.37655309                1.39468151
              10.86047287                8.60209558               23.99978723                0.71603657                0.10719991                0.10089357               -0.37145317               -0.02746552                0.12690869                0.61979900
              11.86226419                8.51282860               23.86033742                0.98258978                0.17913202                0.26995184               -0.83280047               -0.00835996               -0.02137379               -0.62624579
               2.12981368               10.52240467               24.06016822                1.00000000                0.04055752               -0.03729916                0.04161311                0.03470281                0.40085311                0.61077756
               3.13021926               10.41273160               23.91731977                0.83047853                0.08841900                0.07372196               -0.30232443                0.05443033                0.77300819               -0.45864517
               4.13158206               10.30261853               23.78185726                0.51273764               -1.46081698                0.17737685               -0.63492883                1.39760474               10.95741652               -0.95244241
               5.10100292               10.21899297               23.84268888                0.36569392               -2.81480401                1.29925184               -0.47485114                1.01160168               20.57347158                0.13590586
               6.07528598               10.12342069               23.89909566                0.35649084               -2.55567536                1.19028688               -0.34092437                0.25772470               20.47089170                0.07220781
               7.04988941               10.02469459               23.95787136                0.37382040               -2.63044236                1.22355029               -0.19861138                0.07113837               20.75628799                0.13635234
               8.02267714                9.92233138               24.02010830                0.41588875               -2.93551346                1.22973939               -0.06062807               -0.14146920               21.23224255                0.23814410
               8.99117914                9.81607300               24.08867401                0.52653996               -3.65600610                1.39565869                0.08094583               -1.22262804               21.99271287                0.43946507
               9.94955701                9.69208010               24.16679212                0.68374032               -2.10708690               -0.01197913                0.14170453               -1.70940935               11.87920008                0.85976837
              10.94903740                9.60301117               24.03414807                0.88184866                0.05169855                0.09155965               -0.29601435                0.02050952                0.85202482                0.50787406
              11.95059098                9.51536122               23.89143141                0.98671385                0.15535802                0.25326228               -0.76727057                0.06768434                0.36174313               -0.52978423
               1.05623273                0.58574560               25.37518837                1.00000000               -0.34653084               -0.37540696                1.30930070               -0.06517687               -0.83561296                0.86528688
               2.05276742                0.45858906               25.29155779                1.00000000               -0.29116519               -0.29709520                1.05041274               -0.05114377               -1.07211161                0.07537172
               3.05040943                0.33116885               25.20317503                1.00000000               -0.16498648               -0.21887593                0.77810631               -0.04134690               -1.02717512               -0.21038117
               4.04946769                0.20455647               25.12046695                0.62669718                0.27269966               -0.17196481                0.51550200                0.41684880               -0.11976970               -0.70415396
               5.05586342                0.08860132               25.05031179                0.71564863                0.41969664               -0.05636922                0.22316395               -0.08102693                0.31324379                0.20070672
               6.05786163               -0.01922186               24.97684522                0.79853594                0.14926365                0.02674357               -0.05171291               -0.00833275               -0.03413152                0.11446525
               7.05884869               -0.12539766               24.89982492                0.77496246                0.09407825                0.09971924               -0.32465334                0.00530911               -0.23981275               -0.06889240
               8.05974319               -0.23162885               24.82216996                0.86962938                0.11493589                0.18660595               -0.60837395                0.01524724               -0.49196864                0.09219290
               9.06114741               -0.33965936               24.73987895                1.00000000                0.20681085                0.27487576               -0.89165304                0.00373947               -0.82909210                0.49192252
              10.06387941               -0.44909129               24.65529226                1.00000000                0.32673508                0.34576876               -1.16870870               -0.03955089               -0.85692724                0.00675388
              11.06768211               -0.55874593               24.57240974                1.00000000                0.38027050                0.42626845               -1.43341304               -0.05221209               -0.77382055               -0.77965007
               1.18273751                1.58199153               25.34175941                1.00000000               -0.31931473               -0.35696228                1.18568895               -0.02469579               -0.11536756                1.17655055
               2.17954436                1.45561810               25.25777717                1.00000000               -0.28626270               -0.27628793                0.92819015               -0.00726612               -0.09830778                0.10536576
               3.17701225                1.32898009               25.17409629                0.85418016               -0.23122065               -0.19612405                0.66244105                0.01483762                0.10197587               -0.57543764
               4.17491995                1.20283682               25.09408193                0.19188171               -0.50349691               -0.15869061                0.39187355                0.59139386                1.64140867               -1.10685550
               5.16694231                1.08803763               25.04111165                0.35586341               -0.50710796                0.06282882                0.14692500               -0.10898997                2.37823877                0.99493801
               6.16477779                0.98104558               24.97520148                0.45626182               -0.09185163                0.08596466               -0.10744822                0.12460371                1.51153988                0.41333260
               7.16510528                0.87559954               24.90475806                0.34948574                0.11243649                0.07864016               -0.36225855                0.17613019                1.41799117               -0.36373887
               8.16702652                0.77023721               24.83700804                0.48888285                0.24053723                0.18653647               -0.61177334                0.17904945                1.41972425                0.60430115
               9.16991603                0.66308940               24.76677543                1.00000000                0.30003320                0.26516468               -0.86178484                0.08039477                0.72324630                0.72122771
              10.17302718                0.55436639               24.68525782                1.00000000                0.34492992                0.33823509               -1.12507285                0.00301871                0.09099606                0.10006720
              11.17681462                0.44551676               24.60241806                1.00000000                0.37874438                0.41974511               -1.38873623               -0.01041795                0.02314671               -0.92411753
               1.30848567                2.57860635               25.31452268                1.00000000               -0.28521300               -0.32609511                1.07303256               -0.01718611                0.04236619                1.49479833
               2.30563354                2.45306330               25.22456223                1.00000000               -0.24991019               -0.24050892                0.80928153                0.00743388                0.19889927                0.07962959
               3.30348746                2.32724637               25.13768149                0.50260576               -0.16977523               -0.16214163                0.55470530                0.03588950                0.79476437               -1.33739181
               4.30223803                2.20138265               25.05960940                0.00010000               -1.40063004               -0.14171755                0.27336818                0.82747755                4.54972111               -2.01210912
               5.27547486                2.08985790               25.04780336                0.00010000               -1.47231204                0.13409984                0.06873395                1.53696338                5.14995242               -1.25694382
               6.27279179                1.98249743               24.97954658                0.00010000               -0.11475979               -0.07273543               -0.15486671                1.28618903                1.95153655               -0.34525691
               7.27317967                1.87617515               24.90381464                0.00010000                0.15212644               -0.13882092               -0.38280584                1.05235029                3.27314265                0.44412087
               8.27583432                1.77210188               24.86212442                0.00010000                0.27232257               -0.09983340               -0.62271405                0.70195532                3.83444746                0.98911938
               9.27862612                1.66564393               24.79832150                0.50263904                0.28390486                0.25646331               -0.81994695                0.12473214                1.85013704                1.44599996
              10.28151242                1.55767341               24.71714089                1.00000000                0.32734530                0.32307538               -1.07537607                0.01338686                0.66252802                0.64062524
              11.28517302                1.44964898               24.62958090                1.00000000                0.36606062                0.41225578               -1.35320314               -0.00774078                0.34279976               -0.93961584
               1.43347990                3.57546963               25.28744078                1.00000000               -0.24268779               -0.30248092                0.95836411               -0.01394737                0.07214959                1.43973101
               2.43105302                3.45080792               25.19023643                1.00000000               -0.20346067               -0.20944874                0.68765221                0.00762776                0.08924487               -0.03739553
               3.42941068                3.32573726               25.09331837                0.30326179               -0.10975252               -0.12318493                0.42179997               -0.00311298                1.03663046               -1.63063416
               4.42885797                3.20000247               25.01504463                0.00010000               -0.64219411               -0.09828446                0.15121276                0.83756889                4.81542542               -2.69873134
               5.41656680                3.09071963               24.99366163                0.00010000               -1.23368261                0.02970974               -0.00360607                2.21237672                7.20424457               -3.10561510
               6.40418432                2.97959087               24.96279565                0.00010000               -1.00094786               -0.08223213               -0.16849325                1.81622174                6.39615896               -1.05966371
               7.39654785                2.87282312               24.92469632                0.00010000               -0.62937392               -0.16162303               -0.34447098                1.49784664                5.94734926                1.06249285
               8.39159684                2.76824054               24.88464254                0.00010000               -0.48543541               -0.17956433               -0.53135875                1.14972563                5.61711439                1.32175547
               9.38683914                2.66821866               24.83972994                0.24593322               -0.11534832                0.18530281               -0.74250230                0.37822762                3.54339372                2.71379270
              10.38928987                2.56082790               24.75795462                1.00000000                0.29347680                0.29662858               -0.99815285               -0.00744512                0.85832254                1.02914397
              11.39270867                2.45376187               24.65926491                1.00000000                0.34188001                0.41216393               -1.31138399               -0.01193426                0.01438908               -0.65526239
               1.55753013                4.57255674               25.25909538                1.00000000               -0.20116645               -0.27460596                0.83467489               -0.02009926                0.09980577                1.28711197
               2.55551846                4.44887432               25.15464683                0.89608238               -0.16497321               -0.17074129                0.55738550                0.00036169                0.14071481               -0.18864508
               3.55423066                4.32478267               25.05096094                0.18410097               -0.07557083               -0.06875738                0.29107738               -0.04418963                1.15458971               -1.55282875
               4.55400704                4.19941697               24.96677573                0.00010000               -0.70483320                0.05640530                0.00747072                0.64536535                6.18887505               -2.48613818
               5.54013400                4.09045209               24.96371643                0.00010000               -1.34971547                0.08173565               -0.09544989                1.24586669                9.86228429               -1.44654120
               6.52701274                3.98085279               24.95281265                0.00010000               -1.28235337                0.18683369               -0.19101356                1.11097087                9.19018659               -0.43736397
               7.51448693                3.87294269               24.93609648                0.00010000               -1.17897222                0.13100839               -0.30790698                0.95457240                8.76124760                0.70254902
               8.50343329                3.76851059               24.91623583                0.00010000               -1.04418110                0.10566375               -0.44973930                0.88049292                8.64449386                1.84274421
               9.49360331                3.66934999               24.89673864                0.22130687               -0.38064937                0.08234348               -0.62553876                0.36886402                4.71766691                3.25149187
              10.49582030                3.56360598               24.79770713                0.85308605                0.27315433                0.25783492               -0.93230860                0.00216293                0.42185159                1.04792175
              11.49906639                3.45789225               24.69205155                1.00000000                0.32460914                0.41288171               -1.25524857               -0.02039479                0.09465197               -0.46515809
               1.68044274                5.56997751               25.22895243                1.00000000               -0.16084214               -0.23516550                0.70195872               -0.02475137                0.12491411                1.11058169
               2.67883432                5.44739310               25.11725392                0.72540949               -0.12292452               -0.12361822                0.40848172               -0.00639431                0.25449446               -0.40425880
               3.67798425                5.32436211               25.00808877                0.12525335               -0.13692307               -0.01405728                0.12964199                0.00553937                1.75550064               -1.78537699
               4.67609586                5.20113057               24.92640120                0.00010000               -0.89679691                0.29884701               -0.23225598                0.42023394                8.05084701               -1.15418012
               5.66004831                5.09235434               24.94278879                0.00010000               -1.60913578                0.30425724               -0.19686004                0.94137366               12.42474755               -0.62305436
               6.64391314                4.98332754               24.94869248                0.00010000               -1.60334076                0.34390570               -0.21316908                0.69279146               11.67310527                0.06783796
               7.62798149                4.87544329               24.94995149                0.00010000               -1.55568715                0.32312847               -0.27054063                0.54863361               11.36693898                0.91401356
               8.61279940                4.77035381               24.94936490                0.00010000               -1.44302339                0.22025929               -0.35991022                0.53773410               11.33804055                1.88356590
               9.59912103                4.66986553               24.94942509                0.22797531               -0.60042666                0.03781353               -0.47864771                0.23442708                5.88743462                2.87070283
              10.60079086                4.56598460               24.83895858                0.75692173                0.23036001                0.22101683               -0.81765260                0.01389513                0.22338063                1.09116274
              11.60372823                4.46201951               24.72547345                1.00000000                0.29373632                0.40358704               -1.18013063               -0.02108162                0.07785308               -0.44736412
               1.80220392                6.56785343               25.19705771                1.00000000               -0.11979453               -0.18804869                0.56403114               -0.02464250                0.06717106                0.96119951
               2.80100597                6.44640196               25.07729826                0.61873591               -0.07999713               -0.07615135                0.25845585               -0.00616961                0.24314778               -0.58229781
               3.80060397                6.32450153               24.96099992                0.09407669               -0.32932376                0.03759553               -0.03508643                0.15664636                3.42904697               -2.12102810
               4.79441950                6.20539391               24.90495719                0.00010000               -1.19197358                0.47826893               -0.44503533                0.35769779               10.49190637                0.08425258
               5.77676450                6.09653724               24.92935022                0.00010000               -1.83199394                0.51956267               -0.27331921                0.69109858               14.25413717               -0.00753085
               6.75777962                5.98773091               24.94894185                0.00010000               -1.91655859                0.54644777               -0.22420161                0.42512922               13.88069539                0.40532390
               7.73843333                5.87940526               24.96581590                0.00010000               -1.90069446                0.47883427               -0.22816933                0.19654902               13.73512809                1.03474560
               8.71976573                5.77291578               24.98209091                0.00010000               -1.78861338                0.29309209               -0.26610029                0.12135095               13.78759135                1.80316451
               9.70266106                5.67010626               24.99932066                0.24623342               -0.79107496                0.01199215               -0.32842756                0.00880272                7.03727257                2.62413912
              10.70394423                5.56802632               24.87967430                0.70107169                0.19569414                0.18826224               -0.70691540                0.01249394                0.12868977                1.01247119
              11.70657495                5.46596400               24.75845182                1.00000000                0.26307171                0.38030909               -1.09158446               -0.01606086                0.05669009               -0.50009730
               1.92285282                7.56621653               25.16389822                1.00000000               -0.07899995               -0.14026294                0.42683041               -0.02344776                0.02793541                0.87533879
               2.92206282                7.44587007               25.03627936                0.56540215               -0.03637981               -0.03142263                0.11209605               -0.00316449                0.16343471               -0.64563048
               3.92212523                7.32511402               24.91131134                0.07598867               -0.54243618                0.08157919               -0.19891420                0.33958768                5.46088491               -2.29572549
               4.91121410                7.21069595               24.88964224                0.00010000               -1.52959729                0.56728542               -0.46162196                0.53300400               13.27923034                0.27165149
               5.89153328                7.10274559               24.92080002                0.00010000               -2.08331976                0.72493618               -0.30270794                0.59698719               15.89380820                0.29091011
               6.86954771                6.99425650               24.95171091                0.00010000               -2.24028383                0.77859240               -0.21906182                0.22663183               15.87408216                0.54295962
               7.84672761                6.88501997               24.98233077                0.00010000               -2.25111454                0.67187088               -0.18192215               -0.14751231               15.93112967                1.01073696
               8.82452541                6.77621566               25.01393966                0.00010000               -2.12705323                0.38990539               -0.17550317               -0.35651997               16.10746825                1.65425318
               9.80418654                6.67010537               25.04740708                0.27077640               -0.96712047               -0.00932664               -0.19198987               -0.26901998                8.17052358                2.43889221
              10.80518301                6.56974984               24.91943122                0.67379262                0.16725556                0.15754138               -0.59897302                0.00294375                0.07157701                0.90838485
              11.80753165                6.46962569               24.79062257                1.00000000                0.23486465                0.34967105               -1.00591412               -0.01171869                0.03811692               -0.58003918
               2.04242789                8.56504817               25.13024612                1.00000000               -0.03826924               -0.09506851                0.29194706               -0.02247180                0.01008352                0.85458115
               3.04204519                8.44577351               24.99499101                0.56044857                0.00709806                0.01185822               -0.03139382               -0.00035942                0.05742704               -0.65576265
               4.04256985                8.32613311               24.86062238                0.06037336               -0.72985938                0.12107510               -0.35793317                0.53857589                7.39656684               -2.21661781
               5.02744801                8.21673961               24.87214530                0.00010000               -1.87130731                0.69110466               -0.41481091                0.80700288               16.17689701                0.17857178
               6.00514370                8.11103596               24.91346771                0.00010000               -2.37050656                0.95548676               -0.29988812                0.58850400               17.66928543                0.30237339
               6.98003788                8.00330275               24.95489142                0.00010000               -2.58098872                1.01688032               -0.20574226                0.10523013               17.76944698                0.48224182
               7.95352393                7.89284267               24.99795810                0.00010000               -2.62439744                0.94426793               -0.13548824               -0.41612187               18.01709297                0.81965200
               8.92754993                7.78071388               25.04394599                0.01324511               -2.48887264                0.57392882               -0.09201548               -0.89980389               18.38084074                1.37141673
               9.90374647                7.66991973               25.09373520                0.29969133               -1.15335691               -0.02092774               -0.07377783               -0.61634301                9.33208186                2.17863029
              10.90448279                7.57117714               24.95807920                0.67366164                0.14212041                0.13156026               -0.50106464               -0.01176924                0.04388338                0.81339805
              11.90658888                7.47295742               24.82179353                1.00000000                0.21060941                0.31510248               -0.92894046               -0.00767268                0.02221349               -0.67528443
               2.16095271                9.56431516               25.09661878                1.00000000                0.00179818               -0.05330799                0.15959613               -0.02192227               -0.00949591                0.73550495
               3.16097069                9.44610724               24.95370896                0.58559955                0.04889629                0.05454951               -0.17239402                0.00080603                0.07528804               -0.56085790
               4.16193064                9.32753552               24.81243296                0.02443957               -0.92596924                0.15879130               -0.50384159                0.80251732                9.35583282               -1.52614425
               5.14245131                9.22451805               24.85512226                0.00010000               -2.25952069                1.03413986               -0.41073473                0.84437138               18.93441399                0.18933613
               6.11674022                9.12185533               24.90535364                0.00010000               -2.63028563                1.13453949               -0.30645906                0.46721483               19.37703986                0.17446167
               7.08984560                9.01459410               24.95663646                0.00010000               -2.78730922                1.17814073               -0.19987481                0.05342149               19.59060548                0.27596478
               8.06099404                8.90390533               25.01085420                0.00010000               -3.01966546                1.17355168               -0.09899371               -0.43073515               20.00898031                0.46194606
               9.02945229                8.78769423               25.07029310                0.03657297               -2.97988092                1.05635778               -0.00333945               -1.08510483               20.61696354                0.82056926
              10.00139642                8.66968682               25.13655796                0.33049151               -1.37711784               -0.00829243                0.02231984               -1.05125895               10.62952207                1.44088448
              11.00190993                8.57238105               24.99584808                0.69692428                0.12106168                0.11335551               -0.41726538               -0.02870965                0.13293558                0.64507422
              12.00381765                8.47592774               24.85185105                0.98273304                0.19077242                0.28056506               -0.86461505               -0.00692484               -0.01958898               -0.63762294
               2.27840530               10.56398201               25.06051770                1.00000000                0.04356579               -0.03331577                0.02788135                0.03350745                0.40372758                0.61587825
               3.27884095               10.44686450               24.91426726                0.82983002                0.09020442                0.07572587               -0.30876512                0.05337267                0.78185207               -0.46664656
               4.28020938               10.32930894               24.77551649                0.51186270               -1.44126619                0.17734116               -0.63360171                1.35577065               11.21736742               -0.96225937
               5.25001563               10.23742241               24.83796546                0.36606469               -2.78987226                1.29043658               -0.46981437                0.97732304               21.09484458                0.16852671
               6.22441194               10.13372675               24.89567730                0.35668100               -2.54796642                1.18714231               -0.34266549                0.23932955               21.00167794                0.08882781
               7.19905630               10.02686557               24.95581205                0.37362777               -2.63014218                1.22714644               -0.21374547                0.05041857               21.30842519                0.14686350
               8.17180910                9.91631371               25.01937812                0.41520156               -2.94949809                1.24083773               -0.08554240               -0.16972067               21.80572169                0.25051554
               9.14006634                9.80184104               25.08934236                0.52892092               -3.68873099                1.41468074                0.05494639               -1.26658609               22.53810048                0.47007630
              10.09803448                9.66975388               25.16789177                0.68354610               -2.11993329                0.00670574                0.07640559               -1.75603359               12.16129380                0.88545063
              11.09766767                9.57344425               25.03092525                0.87113479                0.06612654                0.10632040               -0.34985897                0.01651662                0.88197988                0.52557496
              12.09935701                9.47856872               24.88356819                0.98658272                0.16893322                0.26409782               -0.80579045                0.06638171                0.37631465               -0.54369468
               1.13272448                0.62851544               26.38825034                1.00000000               -0.34561903               -0.37384813                1.30343381               -0.06450036               -0.85065823                0.87895314
               2.12926829                0.49375692               26.30203711                1.00000000               -0.29148603               -0.29543127                1.04583963               -0.05017001               -1.09408654                0.07995716
               3.12689476                0.35872024               26.21094037                1.00000000               -0.16798428               -0.21713352                0.77538185               -0.04160871               -1.05163046               -0.21046909
               4.12590861                0.22441405               26.12561296                0.62723530                0.25486543               -0.17020162                0.51412854                0.39476122               -0.15508653               -0.72415740
               5.13199207                0.10023673               26.05254410                0.71555809                0.40152431               -0.05690606                0.22409848               -0.08015214                0.26735156                0.21025937
               6.13393909               -0.01612382               25.97633675                0.79778552                0.14842592                0.02610325               -0.04963290               -0.01064499               -0.07272791                0.12079414
               7.13496059               -0.13084068               25.89659249                0.77429851                0.10160158                0.09879493               -0.32220429                0.00374389               -0.28333559               -0.07065640
               8.13597113               -0.24550026               25.81610984                0.86871293                0.12567818                0.18497386               -0.60462524                0.01096634               -0.53973486                0.09720002
               9.13747415               -0.36172358               25.73099731                1.00000000                0.21284678                0.27195490               -0.88590081                0.00069420               -0.87240042                0.50414594
              10.14022806               -0.47920597               25.64365326                1.00000000                0.32698880                0.34350775               -1.16042450               -0.03854735               -0.89021286                0.00682050
              11.14401393               -0.59689504               25.55813184                1.00000000                0.37858683                0.42441996               -1.42355841               -0.05027154               -0.80037631               -0.80342689
               1.26683800                1.62477696               26.35358280                1.00000000               -0.31738066               -0.35581007                1.17912954               -0.02386277               -0.11852508                1.19539266
               2.26366419                1.49080261               26.26703187                1.00000000               -0.28439434               -0.27472108                0.92295738               -0.00631240               -0.10571364                0.11154618
               3.26115011                1.35654891               26.18069951                0.86242478               -0.22831076               -0.19408842                0.65830105                0.01266476                0.08788089               -0.57137060
               4.25909798                1.22271203               26.09798551                0.19821685               -0.48453132               -0.15591282                0.38856478                0.56065174                1.63760824               -1.12434226
               5.25145949                1.09966767               26.04256470                0.36117479               -0.48633143                0.06022586                0.14413762               -0.10653181                2.38739862                1.00308513
               6.24937135                0.98413721               25.97411976                0.46202267               -0.08866186                0.08396778               -0.10862711                0.11391077                1.51778518                0.42377190
               7.24968625                0.87014727               25.90113629                0.35687158                0.10754449                0.08321769               -0.36234173                0.16561208                1.42704408               -0.35682017
               8.25152224                0.75634947               25.83089571                0.49387546                0.23238495                0.18638571               -0.61134231                0.16250923                1.43162096                0.60549233
               9.25433395                0.64099597               25.75817284                1.00000000                0.29530386                0.26335853               -0.85942744                0.07333002                0.72888801                0.73948799
              10.25742832                0.52422911               25.67402979                1.00000000                0.34331677                0.33624194               -1.12129238                0.00372173                0.09018243                0.10396078
              11.26120028                0.40734916               25.58856235                1.00000000                0.37719675                0.41926385               -1.38318263               -0.00858800                0.02258530               -0.95131075
               1.40019593                2.62139924               26.32521456                1.00000000               -0.28258315               -0.32561152                1.06529584               -0.01640336                0.04368178                1.51773799
               2.39737010                2.48826250               26.23262604                1.00000000               -0.24786474               -0.23893445                0.80356622                0.00800817                0.20480594                0.08609841
               3.39523863                2.35483847               26.14320622                0.51501389               -0.16836075               -0.15890549                0.55053494                0.03169165                0.79131347               -1.34109196
               4.39400288                2.22129579               26.06231795                0.00010000               -1.34011880               -0.13798978                0.26817370                0.78611910                4.57079215               -2.02743298
               5.36843626                2.10144124               26.04845783                0.00010000               -1.41325869                0.12310398                0.06310536                1.44749740                5.22099659               -1.24556931
               6.36573771                1.98555553               25.97797809                0.00010000               -0.11878465               -0.07292131               -0.15818771                1.20521348                2.01330241               -0.31381366
               7.36606057                1.87082367               25.89997360                0.00010000                0.13174503               -0.13251805               -0.38538580                0.97927340                3.32629062                0.48780828
               8.36837261                1.75822745               25.85587649                0.00010000                0.25002771               -0.09435517               -0.62801900                0.64918030                3.90431344                1.03840530
               9.37106112                1.64354359               25.79010824                0.50504447                0.27883457                0.25341703               -0.82300801                0.10728919                1.91189892                1.48793846
              10.37394930                1.52751887               25.70638641                1.00000000                0.32704719                0.31965606               -1.07557696                0.00964332                0.68426076                0.66174009
              11.37760206                1.41149024               25.61606204                1.00000000                0.36527625                0.41418737               -1.35060812               -0.00743758                0.35327644               -0.96734221
               1.53278341                3.61826473               26.29698115                1.00000000               -0.23982888               -0.30219029                0.94956420               -0.01368223                0.07686449                1.45688524
               2.53038512                3.48602392               26.19708316                1.00000000               -0.20163787               -0.20751589                0.68167853                0.00782267                0.09672038               -0.03663979
               3.52875065                3.35337080               26.09752374                0.31237498               -0.10837664               -0.11937513                0.41944128               -0.00855000                1.04377965               -1.64529085
               4.52821759                3.21995224               26.01655174                0.00010000               -0.63004796               -0.09427851                0.15098741                0.78463169                4.87667458               -2.72399906
               5.51614969                3.10212975               25.99361043                0.00010000               -1.20621987                0.02057754               -0.00632273                2.07462198                7.32537028               -3.10039746
               6.50409319                2.98267878               25.96108429                0.00010000               -0.97749479               -0.08561528               -0.17370757                1.69357947                6.51607551               -1.01344976
               7.49659980                2.86749691               25.92121176                0.00010000               -0.61536324               -0.16480368               -0.35279397                1.38437670                6.06361649                1.13729312
               8.49178593                2.75446237               25.87927965                0.00010000               -0.47057433               -0.17999874               -0.54162049                1.06937891                5.72331151                1.41910446
               9.48718831                2.64606431               25.83226258                0.24349634               -0.10556976                0.16870246               -0.75059716                0.34187768                3.62356009                2.79201563
              10.48967453                2.53062223               25.74794620                1.00000000                0.29602409                0.29228577               -1.00244419               -0.01509644                0.88742856                1.05730160
              11.49310879                2.41563291               25.64614322                1.00000000                0.34342620                0.41496750               -1.31191845               -0.01093736                0.01423092               -0.67324214
               1.66440390                4.61535543               26.26739351                1.00000000               -0.19834198               -0.27396775                0.82479728               -0.02020106                0.10792509                1.29507071
               2.66242048                4.48411218               26.16018934                0.88718391               -0.16322929               -0.16823617                0.55103834               -0.00013052                0.15452090               -0.20151673
               3.66113932                4.35245097               26.05385969                0.18891433               -0.07419579               -0.06486296                0.28867933               -0.05055368                1.16604820               -1.58188425
               4.66093657                4.21941022               25.96687306                0.00010000               -0.69685827                0.05509555                0.01188637                0.59466698                6.27907032               -2.56412298
               5.64720215                4.10185280               25.96276993                0.00010000               -1.33472144                0.08041967               -0.09400549                1.14749949               10.05192654               -1.45341724
               6.63424214                3.98384323               25.95087756                0.00010000               -1.26188206                0.17829550               -0.19630069                1.01154963                9.38240267               -0.39569481
               7.62196451                3.86752760               25.93296173                0.00010000               -1.15246766                0.11994807               -0.31950918                0.85802671                8.94225917                0.77695535
               8.61119279                3.75462747               25.91165887                0.00010000               -1.01128481                0.09162643               -0.46594735                0.78924550                8.80826119                1.93742092
               9.60173882                3.64691764               25.89038497                0.21762231               -0.35570074                0.05466395               -0.64448945                0.32804888                4.81318654                3.36048222
              10.60407877                3.53336458               25.78831583                0.83330328                0.28115715                0.25290277               -0.94426485                0.00081931                0.44652558                1.09381957
              11.60736196                3.41978959               25.67946329                1.00000000                0.32831871                0.41804536               -1.26063224               -0.02249953                0.11054099               -0.46758554
               1.79486589                5.61278538               26.23591813                1.00000000               -0.15789179               -0.23399586                0.69106135               -0.02489681                0.12640788                1.11137315
               2.79328697                5.48265920               26.12130407                0.71766945               -0.12121758               -0.12050814                0.40138353               -0.00711053                0.26353119               -0.42668655
               3.79244154                5.35207354               26.00937270                0.12834522               -0.12889346               -0.00914399                0.12687345               -0.00776976                1.73617069               -1.83076832
               4.79070911                5.22105415               25.92420213                0.00010000               -0.88874303                0.28827338               -0.20852406                0.36951399                8.17959096               -1.25841069
               5.77466668                5.10373814               25.94086608                0.00010000               -1.60298615                0.30117983               -0.18788216                0.84381180               12.72847016               -0.62123914
               6.75864938                4.98624469               25.94654286                0.00010000               -1.58452981                0.33577392               -0.21715253                0.59649769               11.94540883                0.11362224
               7.74297608                4.86989587               25.94717750                0.00010000               -1.52342926                0.30924437               -0.28481646                0.45236421               11.61845727                0.98852421
               8.72818080                4.75629490               25.94565696                0.00010000               -1.39819518                0.20217494               -0.38209190                0.43999759               11.57436591                1.98110293
               9.71501218                4.64715759               25.94449306                0.22410485               -0.56809148                0.01477638               -0.50768414                0.19081198                6.01812923                2.99278855
              10.71681897                4.53568028               25.83068844                0.73910531                0.23983079                0.21522662               -0.83504779                0.01775108                0.23675348                1.15723357
              11.71980880                4.42399381               25.71361639                1.00000000                0.29898289                0.41209347               -1.18951567               -0.02196416                0.07834809               -0.43426772
               1.92415832                6.61067552               26.20263937                1.00000000               -0.11682130               -0.18636093                0.55218535               -0.02460962                0.06626439                0.95975344
               2.92299011                6.48170202               26.07984837                0.61240248               -0.07846756               -0.07273550                0.25135992               -0.00666921                0.24840637               -0.60302927
               3.92258897                6.35226809               25.96063969                0.09586611               -0.31639318                0.04321087               -0.03732620                0.13276829                3.39298441               -2.16680112
               4.91666225                6.22517569               25.90073786                0.00010000               -1.18505640                0.46509754               -0.39715561                0.28574933               10.67432150                0.08961934
               5.89888784                6.10787639               25.92669988                0.00010000               -1.83239403                0.51249625               -0.25643385                0.58965058               14.66470078                0.02676388
               6.88001437                5.99055870               25.94668706                0.00010000               -1.89631276                0.53591418               -0.22707655                0.32258388               14.22438416                0.46033776
               7.86096159                5.87371248               25.96345330                0.00010000               -1.86416738                0.46395966               -0.24497353                0.09533494               14.05505722                1.10923400
               8.84273102                5.75867097               25.97929621                0.00010000               -1.73959594                0.27614704               -0.29338944                0.01636654               14.09701435                1.89714658
               9.82616967                5.64721316               25.99586116                0.24274978               -0.75667275               -0.00124288               -0.36368002               -0.04164688                7.19802854                2.73807935
              10.82759756                5.53766912               25.87248280                0.68465218                0.20629716                0.18481895               -0.73064941                0.01645743                0.13343326                1.07243870
              11.83029561                5.42803146               25.74746175                1.00000000                0.26980498                0.39000921               -1.10530466               -0.01618870                0.05789212               -0.48284009
               2.05232069                7.60905816               26.16810430                1.00000000               -0.07596783               -0.13799901                0.41422599               -0.02339756                0.02718686                0.87537140
               3.05156102                7.48120449               26.03736625                0.56048083               -0.03487285               -0.02811368                0.10501818               -0.00321388                0.16471674               -0.66284259
               4.05162324                7.35293776               25.90931661                0.07654358               -0.53726120                0.08672052               -0.20040965                0.30681973                5.50095962               -2.33781618
               5.04081579                7.23035610               25.88530305                0.00010000               -1.52732802                0.55567665               -0.40215398                0.44014817               13.54015960                0.39630541
               6.02107668                7.11398806               25.91786965                0.00010000               -2.07754124                0.71282465               -0.28259990                0.49524438               16.32575628                0.35641250
               6.99926497                6.99696298               25.94950406                0.00010000               -2.21530815                0.76566371               -0.22259771                0.12473686               16.27023207                0.60296417
               7.97677051                6.87917506               25.98041807                0.00010000               -2.21287598                0.65729023               -0.20124664               -0.24970524               16.31127574                1.08152015
               8.95500745                6.76181784               26.01202917                0.00010000               -2.07947069                0.37715378               -0.20719658               -0.46274805               16.48119862                1.73892804
               9.93518110                6.64713273               26.04528231                0.26799414               -0.93388119               -0.01201841               -0.23319268               -0.32357403                8.36015174                2.53419461
              10.93632982                6.53937666               25.91328769                0.65793666                0.17896208                0.15876454               -0.62952112                0.00492325                0.07179442                0.96005261
              11.93876034                6.43179400               25.78046604                1.00000000                0.24305179                0.35982769               -1.02485688               -0.01105453                0.03857334               -0.56958369
               2.17939771                8.60791554               26.13310014                1.00000000               -0.03514771               -0.09209853                0.27861374               -0.02244893                0.00959172                0.85694826
               3.17904623                8.48113975               25.99464328                0.55688687                0.00880223                0.01482401               -0.03849450               -0.00002931                0.05558663               -0.67001960
               4.17957376                8.35400250               25.85704189                0.05966213               -0.73156660                0.12450048               -0.35845454                0.49831496                7.53970779               -2.24873577
               5.16441490                8.23628922               25.86826078                0.00010000               -1.86939503                0.68054556               -0.35892668                0.71850823               16.53108817                0.29870202
               6.14218585                8.12213288               25.91054281                0.00010000               -2.35463967                0.94047015               -0.28472963                0.50461103               18.10094867                0.36851640
               7.11732211                8.00587198               25.95280357                0.00010000               -2.55366171                1.00473879               -0.21223614                0.02026812               18.20640347                0.53375822
               8.09111262                7.88685829               25.99650152                0.00010000               -2.59018594                0.93389095               -0.15620864               -0.50622247               18.45147538                0.87854890
               9.06551839                7.76621405               26.04285497                0.01487727               -2.44866268                0.56567994               -0.12656142               -0.99888225               18.80878029                1.45304558
              10.04213937                7.64697280               26.09275236                0.29762821               -1.12418159               -0.01358579               -0.12322346               -0.66975424                9.54771574                2.25216407
              11.04303476                7.54084441               25.95287793                0.65709716                0.15502419                0.13871761               -0.53945597               -0.01180620                0.04393085                0.85182085
              12.04523985                7.43522801               25.81237759                1.00000000                0.22050930                0.32537417               -0.95419228               -0.00633360                0.02260898               -0.67621321
               2.30542330                9.60721619               26.09814604                1.00000000                0.00501680               -0.04955718                0.14552546               -0.02195244               -0.01024760                0.73952598
               3.30547347                9.48150097               25.95195110                0.58261922                0.05083817                0.05711597               -0.17964861                0.00114272                0.07524355               -0.57129237
               4.30644006                9.35542777               25.80739907                0.02246580               -0.92089453                0.16018888               -0.50323219                0.75617513                9.57348458               -1.54308047
               5.28705557                9.24396701               25.85115395                0.00010000               -2.24269595                1.01939348               -0.38256878                0.78469004               19.37540055                0.24477017
               6.26158614                9.13279747               25.90231767                0.00010000               -2.60553245                1.12085236               -0.30114935                0.41889192               19.83626348                0.21172236
               7.23494493                9.01705775               25.95458555                0.00010000               -2.76410737                1.17043472               -0.21091335                0.00451960               20.07225821                0.30488820
               8.20630399                8.89785288               26.00975640                0.00010000               -3.00148150                1.17177756               -0.12058236               -0.48888363               20.50748903                0.49578220
               9.17491530                8.77313144               26.07012029                0.04018767               -2.95741683                1.05809880               -0.02946579               -1.15413744               21.09084771                0.88481675
              10.14715566                8.64686101               26.13648833                0.32925422               -1.35384048                0.00743513               -0.03724769               -1.09598978               10.85865541                1.48247893
              11.14783849                8.54215102               25.99144192                0.67779296                0.13554028                0.12619625               -0.46480686               -0.02968539                0.13765683                0.66812968
              12.14986646                8.43830148               25.84304512                0.98260677                0.20279772                0.29125260               -0.89703744               -0.00537563               -0.01760457               -0.64786682
               2.43038910               10.60692439               26.06072585                1.00000000                0.04684100               -0.02917922                0.01336119                0.03234741                0.40619117                0.62044185
               3.43085751               10.48228207               25.91114447                0.82893077                0.09210584                0.07810984               -0.31643022                0.05249868                0.79072115               -0.47444125
               4.43223122               10.35720628               25.76918522                0.51068491               -1.40592541                0.17785143               -0.63323097                1.29886684               11.47574993               -0.97090076
               5.40273900               10.25667709               25.83329259                0.36641527               -2.73791321                1.27100824               -0.46583472                0.93552523               21.60676191                0.18307118
               6.37747295               10.14454993               25.89224235                0.35686744               -2.51909557                1.17524645               -0.34523197                0.21886004               21.51421148                0.10362311
               7.35235709               10.02928067               25.95359645                0.37343251               -2.61058451                1.22229214               -0.23027329                0.02841180               21.84026475                0.15784923
               8.32526126                9.91029384               26.01839745                0.41449285               -2.94647910                1.24409616               -0.11062497               -0.19950569               22.36479171                0.26497484
               9.29342751                9.78737603               26.08977294                0.53154797               -3.70306330                1.42445867                0.03442816               -1.30739587               23.04894108                0.50966013
              10.25120000                9.64712150               26.16832023                0.68354705               -2.12134638                0.02604871                0.00772973               -1.79595089               12.41137019                0.90688778
              11.25100058                9.54336833               26.02715089                0.86049200                0.08157042                0.12173174               -0.40641199                0.01278756                0.90963720                0.54114437
              12.25283140                9.44105306               25.87531560                0.98640137                0.18308239                0.27515804               -0.84562675                0.06496708                0.39086648               -0.55640832
               1.21164603                0.67265975               27.40125705                1.00000000               -0.34503676               -0.37245919                1.29820016               -0.06382710               -0.86474261                0.89167494
               2.20819567                0.53019866               27.31247458                1.00000000               -0.29225370               -0.29385755                1.04198159               -0.04915797               -1.11471828                0.08459216
               3.20580096                0.38744118               27.21868267                1.00000000               -0.17167203               -0.21543579                0.77349125               -0.04199376               -1.07454397               -0.21034411
               4.20476223                0.24532823               27.13074952                0.62759001                0.23428536               -0.16832505                0.51365677                0.37067549               -0.18839967               -0.74363358
               5.21048667                0.11276531               27.05479376                0.71519493                0.37982271               -0.05797007                0.22687263               -0.07807585                0.22271163                0.21998531
               6.21235868               -0.01237201               26.97585256                0.79684605                0.14611080                0.02516752               -0.04678872               -0.01286279               -0.11200575                0.12745850
               7.21340888               -0.13589839               26.89338083                0.77352270                0.10924953                0.09804143               -0.32040667                0.00190454               -0.32751169               -0.07226497
               8.21454367               -0.25925658               26.81007746                0.86722301                0.13735522                0.18369916               -0.60257899                0.00641625               -0.58675725                0.10137306
               9.21615599               -0.38392750               26.72216093                1.00000000                0.21984757                0.26957264               -0.88235944               -0.00219753               -0.91393781                0.51637531
              10.21894062               -0.50970796               26.63208377                1.00000000                0.32807194                0.34204172               -1.15463118               -0.03732971               -0.92194787                0.00684337
              11.22271743               -0.63567549               26.54393857                1.00000000                0.37768048                0.42358287               -1.41634899               -0.04837375               -0.82598694               -0.82611789
               1.35346885                1.66893516               27.36534200                1.00000000               -0.31554775               -0.35484938                1.17282958               -0.02299155               -0.12168222                1.21309199
               2.35031337                1.52726009               27.27623632                1.00000000               -0.28263061               -0.27323405                0.91807416               -0.00530025               -0.11327283                0.11788637
               3.34781624                1.38528682               27.18726231                0.87107123               -0.22532271               -0.19204417                0.65432661                0.01028798                0.07327857               -0.56620332
               4.34580692                1.24364498               27.10185322                0.20414682               -0.46301040               -0.15302386                0.38475062                0.52694145                1.63351311               -1.14093431
               5.33855603                1.11218561               27.04399441                0.36585956               -0.46225086                0.05677370                0.14264887               -0.10086640                2.39714601                1.01199602
               6.33656190                0.98787967               26.97302894                0.46724007               -0.08429067                0.08143194               -0.10895844                0.10399039                1.52476942                0.43517168
               7.33687022                0.86508202               26.89751122                0.36407822                0.10302437                0.08771197               -0.36291740                0.15494720                1.43619406               -0.34969960
               8.33862239                0.74258041               26.82478120                0.49839218                0.22447419                0.18713093               -0.61228686                0.14642401                1.44367353                0.60419531
               9.34135970                0.61876823               26.74958688                1.00000000                0.29094649                0.26202312               -0.85854115                0.06651204                0.73488195                0.75662214
              10.34444132                0.49371246               26.66283197                1.00000000                0.34207602                0.33498785               -1.11923236                0.00476637                0.08962320                0.10824353
              11.34820122                0.36856034               26.57475441                1.00000000                0.37599024                0.41983748               -1.37948156               -0.00671892                0.02244292               -0.97640461
               1.49453634                2.66556276               27.33582860                1.00000000               -0.27983453               -0.32533857                1.05748673               -0.01566197                0.04477395                1.53951768
               2.49173800                2.52473398               27.24063355                1.00000000               -0.24572593               -0.23741262                0.79795075                0.00844959                0.21028221                0.09298688
               3.48962182                2.38360030               27.14869219                0.52825030               -0.16678631               -0.15544222                0.54678542                0.02676129                0.78571925               -1.34209038
               4.48840227                2.24226776               27.06497287                0.00010000               -1.26935849               -0.13388042                0.26260159                0.73991685                4.58916763               -2.03758080
               5.46423466                2.11390078               27.04906546                0.00010000               -1.34301009                0.11069838                0.06053549                1.34872529                5.29114666               -1.23199352
               6.46154207                1.98925663               26.97638282                0.00010000               -0.12137846               -0.07286305               -0.15984104                1.11488364                2.07543934               -0.28152064
               7.46180709                1.86585585               26.89610693                0.00010000                0.11219392               -0.12505865               -0.38840414                0.89920008                3.37735563                0.53017056
               8.46378595                1.74448604               26.84956404                0.00010000                0.22735459               -0.08700843               -0.63618304                0.59234867                3.97206013                1.08506122
               9.46635418                1.62131296               26.78186134                0.50657200                0.27289425                0.25070088               -0.82704234                0.08949265                1.97415781                1.52808451
              10.46924383                1.49699180               26.69562935                1.00000000                0.32665551                0.31660263               -1.07635411                0.00623928                0.70656710                0.68430585
              11.47288729                1.37272126               26.60256873                1.00000000                0.36434543                0.41677201               -1.34862723               -0.00715181                0.36422997               -0.99099116
               1.63481317                3.66242839               27.30643206                1.00000000               -0.23683399               -0.30207982                0.94057524               -0.01362369                0.08144423                1.47312644
               2.63244483                3.52251184               27.20387000                1.00000000               -0.19977405               -0.20554563                0.67562834                0.00771469                0.10445052               -0.03537384
               3.63081769                3.38217798               27.10170720                0.32116612               -0.10700292               -0.11521345                0.41729017               -0.01491931                1.05122212               -1.65761009
               4.63030477                3.24096738               27.01806438                0.00010000               -0.61380143               -0.08918192                0.15181289                0.72487654                4.93518002               -2.74179959
               5.61854166                3.11439957               26.99353518                0.00010000               -1.17001332                0.01136631               -0.00857284                1.91942055                7.44133965               -3.09050623
               6.60690451                2.98642241               26.95932150                0.00010000               -0.94584241               -0.08881516               -0.17889826                1.55540997                6.63018856               -0.96651997
               7.59962481                2.86258085               26.91764044                0.00010000               -0.59461286               -0.16699008               -0.36196399                1.25807737                6.17413903                1.21029117
               8.59501225                2.74084024               26.87381013                0.00010000               -0.44905116               -0.18021666               -0.55311407                0.97953587                5.82660900                1.51480474
               9.59064379                2.62378224               26.82471800                0.24060906               -0.09272228                0.15080924               -0.75874676                0.30300906                3.70381510                2.86605984
              10.59315780                2.50004451               26.73790574                1.00000000                0.29777360                0.28741659               -1.00418035               -0.02288992                0.91701395                1.08570296
              11.59659926                2.37689578               26.63302654                1.00000000                0.34414585                0.41730540               -1.30991465               -0.01012310                0.01357464               -0.68711110
               1.77409697                4.65952117               27.27559133                1.00000000               -0.19542705               -0.27346396                0.81474459               -0.02051755                0.11604021                1.30219707
               2.77214270                4.52062307               27.16566760                0.87826527               -0.16145363               -0.16557494                0.54453470               -0.00098003                0.16850482               -0.21418735
               3.77086790                4.38129603               27.05673452                0.19312220               -0.07322468               -0.06056144                0.28611929               -0.05735183                1.17931810               -1.60988421
               4.77067821                4.24048412               26.96701346                0.00010000               -0.68499325                0.05650941                0.01551924                0.53608051                6.36829362               -2.62905944
               5.75716803                4.11412811               26.96183632                0.00010000               -1.31046077                0.08000200               -0.09302598                1.03657682               10.23336417               -1.45273407
               6.74446899                3.98748033               26.94888664                0.00010000               -1.23086176                0.16840406               -0.20227791                0.89966621                9.56401537               -0.35144225
               7.73255080                3.86251605               26.92970629                0.00010000               -1.11468596                0.10706743               -0.33218564                0.75065518                9.11325985                0.85112307
               8.72217527                3.74088170               26.90691688                0.00010000               -0.96703564                0.07491475               -0.48316064                0.68860040                8.96390876                2.02959414
               9.71321009                3.62432915               26.88384885                0.21356967               -0.32513883                0.02314316               -0.66228533                0.28333841                4.90671655                3.46288937
              10.71567250                3.50274013               26.77882184                0.81357679                0.28861017                0.24588911               -0.95173824               -0.00084870                0.47276806                1.13823462
              11.71898229                3.38106737               26.66683891                1.00000000                0.33097933                0.42199532               -1.26123438               -0.02527483                0.12634404               -0.46706576
               1.91219901                5.65695911               27.24277365                1.00000000               -0.15486427               -0.23294224                0.68001652               -0.02516494                0.12755117                1.11129396
               2.91065037                5.51920034               27.12528159                0.70992814               -0.11947034               -0.11719348                0.39401235               -0.00806361                0.27244130               -0.44881481
               3.90980960                5.38096675               27.01062624                0.13076705               -0.12280323               -0.00372144                0.12360740               -0.01982511                1.72774336               -1.87486174
               4.90819430                5.24209756               26.92223072                0.00010000               -0.87663085                0.28006261               -0.18720556                0.31001963                8.31057717               -1.33838109
               5.89227699                5.11599961               26.93903115                0.00010000               -1.58422073                0.29704178               -0.17937512                0.73171067               13.01440526               -0.60971792
               6.87650989                4.98979049               26.94434943                0.00010000               -1.55202232                0.32480654               -0.22207308                0.48837352               12.20103128                0.16275356
               7.86123654                4.86472220               26.94425516                0.00010000               -1.47693663                0.29166626               -0.30033822                0.34612864               11.85517809                1.06322601
               8.84697116                4.74233854               26.94172306                0.00010000               -1.33922061                0.18023961               -0.40520606                0.33228921               11.79686626                2.07664589
               9.83445213                4.62424511               26.93927141                0.21982959               -0.52842759               -0.01252736               -0.53660894                0.14243576                6.14382275                3.11066314
              10.83640260                4.50496230               26.82225763                0.72121924                0.24935804                0.20678519               -0.84956041                0.02151958                0.25201618                1.22164402
              11.83943929                4.38533569               26.70168314                1.00000000                0.30366845                0.41950873               -1.19542521               -0.02303106                0.07842951               -0.41884270
               2.04911121                6.65486232               27.20810142                1.00000000               -0.11374262               -0.18479565                0.54015182               -0.02462873                0.06529529                0.95740795
               3.04797379                6.51827920               27.08232546                0.60604144               -0.07685219               -0.06910152                0.24389752               -0.00731184                0.25361735               -0.62314695
               4.04757417                6.38122160               26.96025340                0.09694765               -0.30640259                0.04943734               -0.04022017                0.11020890                3.38060545               -2.21069451
               5.04184574                6.24608537               26.89701408                0.00010000               -1.17324240                0.45007897               -0.34692956                0.20586461               10.86209358                0.11629622
               6.02410932                6.12006894               26.92422154                0.00010000               -1.81659300                0.50156475               -0.23925557                0.47307517               15.04414633                0.06846799
               7.00551388                5.99397646               26.94440032                0.00010000               -1.85919994                0.52043913               -0.23086643                0.20872348               14.54525586                0.51779827
               7.98692532                5.86834937               26.96091643                0.00010000               -1.81078633                0.44399786               -0.26313179               -0.01492464               14.35597728                1.18422833
               8.96929815                5.74448650               26.97622312                0.00010000               -1.67451410                0.25484592               -0.32174329               -0.09783907               14.38922233                1.99025838
               9.95343504                5.62407860               26.99204706                0.23885279               -0.71429218               -0.01735192               -0.39914625               -0.09658692                7.35115287                2.85055441
              10.95501231                5.50687584               26.86506131                0.66805410                0.21699211                0.17967352               -0.75298628                0.02057516                0.13903044                1.13103826
              11.95777488                5.38945755               26.73634573                1.00000000                0.27625780                0.39912444               -1.11725266               -0.01647212                0.05876861               -0.46346934
               2.18487268                7.65326319               27.17218274                1.00000000               -0.07278237               -0.13584626                0.40129904               -0.02337758                0.02643102                0.87452182
               3.18414485                7.51781831               27.03837972                0.55537767               -0.03325328               -0.02454707                0.09744939               -0.00331533                0.16601197               -0.67953124
               4.18420761                7.38195550               26.90730314                0.07633137               -0.53403005                0.09271676               -0.20259134                0.27265866                5.57106501               -2.37797339
               5.17346425                7.25109914               26.88159916                0.00010000               -1.51801051                0.53886923               -0.33692359                0.33992621               13.80763088                0.52604437
               6.15384740                7.12603091               26.91514802                0.00010000               -2.05301625                0.69446638               -0.26191558                0.38053464               16.71936920                0.42259888
               7.13240393                7.00019927               26.94725895                0.00010000               -2.17096955                0.74599862               -0.22712040                0.01323043               16.63998158                0.66371607
               8.11042801                6.87360216               26.97830583                0.00010000               -2.15593903                0.63629744               -0.22195146               -0.35935539               16.66951963                1.15393819
               9.08928515                6.74743546               27.00979573                0.00010000               -2.01484808                0.35985863               -0.23997534               -0.57637754               16.83466678                1.82433075
              10.07013105                6.62389807               27.04274322                0.26488010               -0.89249928               -0.01608097               -0.27459361               -0.38184513                8.53916920                2.62725737
              11.07143516                6.50855577               26.90684080                0.64183524                0.19076901                0.15917497               -0.65948016                0.00719898                0.07145011                1.01042600
              12.07394643                6.39331818               26.77012543                1.00000000                0.25112676                0.36982632               -1.04296547               -0.01041608                0.03876378               -0.55731802
               2.31953344                8.65214540               27.13581840                1.00000000               -0.03182584               -0.08916096                0.26476468               -0.02246565                0.00913361                0.85845598
               3.31921518                8.51778826               26.99422112                0.55295811                0.01065342                0.01809476               -0.04625766                0.00041084                0.05402795               -0.68392977
               4.31974651                8.38307593               26.85345329                0.05811542               -0.73231662                0.12875428               -0.35968734                0.45321793                7.71002773               -2.27895205
               5.30456885                8.25686276               26.86496677                0.00010000               -1.85633101                0.66412458               -0.30066458                0.62294010               16.88927707                0.40254113
               6.28261989                8.13395827               26.90777312                0.00010000               -2.31808058                0.91796617               -0.27021048                0.41100872               18.49503496                0.42947295
               7.25820724                8.00889643               26.95064670                0.00010000               -2.50589276                0.98498562               -0.22003799               -0.07174237               18.61829603                0.58502741
               8.23250203                7.88107532               26.99483392                0.00010000               -2.53662749                0.91614414               -0.17782072               -0.60158520               18.86289531                0.94069000
               9.20747469                7.75168367               27.04141477                0.01653689               -2.39121023                0.55185697               -0.16170979               -1.10330914               19.21135099                1.54319928
              10.18467783                7.62375698               27.09127073                0.29543768               -1.08692552               -0.00647688               -0.17305450               -0.72537392                9.74818139                2.32114304
              11.18573618                7.51005934               26.94729008                0.64032633                0.16819568                0.14574603               -0.57825092               -0.01158952                0.04265216                0.88804168
              12.18804174                7.39685407               26.80270968                1.00000000                0.23055645                0.33571098               -0.97966593               -0.00488986                0.02278810               -0.67591435
               2.45313764                9.65147998               27.09952929                1.00000000                0.00848946               -0.04570882                0.13076089               -0.02205526               -0.01096014                0.74290419
               3.45322253                9.51818020               26.95011599                0.57895203                0.05299181                0.06003341               -0.18782779                0.00157158                0.07591432               -0.58166070
               4.45419747                9.38453058               26.80236831                0.01972894               -0.90909067                0.16213407               -0.50323581                0.70155931                9.80260944               -1.55889027
               5.43504072                9.26438163               26.84747088                0.00010000               -2.20817876                0.99718990               -0.35692850                0.71922698               19.81353770                0.27540185
               6.41003390                9.14439023               26.89933065                0.00010000               -2.55943454                1.09957866               -0.29791074                0.36448868               20.26941745                0.24424043
               7.38385203                9.01989898               26.95241819                0.00010000               -2.72124149                1.15521544               -0.22372245               -0.04829651               20.53267919                0.33365275
               8.35560907                8.89192504               27.00844255                0.00010000               -2.96573619                1.16278876               -0.14235739               -0.54999904               20.98925268                0.53265417
               9.32453731                8.75847259               27.06970379                0.04410721               -2.91805832                1.05226391               -0.05161039               -1.22544052               21.53189708                0.96253028
              10.29724790                8.62376853               27.13581300                0.32822560               -1.32155127                0.02354293               -0.09833060               -1.13978999               11.06059509                1.51879659
              11.29810628                8.51147069               26.98655194                0.65868825                0.15056289                0.13949342               -0.51397365               -0.03036292                0.14079949                0.68847951
              12.30025916                8.40003240               26.83391031                0.98221668                0.21528813                0.30227616               -0.93081656               -0.00367025               -0.01546249               -0.65711378
               2.58569188               10.65123122               27.06078492                1.00000000                0.05041254               -0.02487554               -0.00195460                0.03119500                0.40818790                0.62456321
               3.58619601               10.51898893               26.90793866                0.82743460                0.09421899                0.08087258               -0.32536899                0.05171708                0.79984709               -0.48232586
               4.58757626               10.38631862               26.76285187                0.50912110               -1.35511342                0.17880340               -0.63403861                1.22875987               11.73249775               -0.97897449
               5.55909374               10.27680655               26.82864877                0.36674497               -2.65919745                1.24249187               -0.46534059                0.88686316               22.10920416                0.17683102
               6.53439231               10.15594984               26.88877266                0.35705435               -2.46936198                1.15596113               -0.35070679                0.19555057               22.00886343                0.11631631
               7.50970650               10.03200074               26.95120658                0.37323534               -2.57319357                1.21017571               -0.24914864                0.00450961               22.35255054                0.16948813
               8.48292844                9.90433110               27.01716562                0.41376612               -2.92920567                1.24060569               -0.13596749               -0.23165264               22.91310674                0.28222916
               9.45112238                9.77272895               27.09003092                0.53440231               -3.70222529                1.42563527                0.02098332               -1.34665489               23.52291715                0.56183009
              10.40888393                9.62422784               27.16804636                0.68373019               -2.11286667                0.04593083               -0.06374047               -1.83038401               12.62377510                0.92338582
              11.40886505                9.51284920               27.02279701                0.84993981                0.09804911                0.13785173               -0.46585123                0.00946498                0.93462312                0.55413413
              12.41084492                9.40289960               26.86665565                0.98617757                0.19798651                0.28671981               -0.88781513                0.06361459                0.40541398               -0.56787972
               1.29299456                0.71817904               28.41421434                1.00000000               -0.34462561               -0.37117875                1.29340889               -0.06325805               -0.87766740                0.90333283
               2.28954830                0.56792530               28.32287674                1.00000000               -0.29328079               -0.29239299                1.03864540               -0.04823618               -1.13365642                0.08934065
               3.28712895                0.41735408               28.22641019                1.00000000               -0.17593911               -0.21387485                0.77247572               -0.04258239               -1.09535682               -0.20998597
               4.28602952                0.26733398               28.13588610                0.62761083                0.21071578               -0.16639827                0.51461149                0.34471602               -0.21874587               -0.76288197
               5.29134326                0.12623515               28.05708155                0.71467926                0.35411927               -0.05992598                0.23170163               -0.07472599                0.17943697                0.23058121
               6.29311191               -0.00792740               27.97540097                0.79622216                0.14211021                0.02377839               -0.04330584               -0.01529382               -0.15301591                0.13479663
               7.29418546               -0.14054676               27.89018435                0.77304088                0.11719856                0.09739385               -0.31885196               -0.00040351               -0.37318257               -0.07396352
               8.29545588               -0.27288028               27.80405826                0.86518615                0.15018063                0.18270834               -0.60135858                0.00135648               -0.63370573                0.10434489
               9.29718908               -0.40624797               27.71335012                1.00000000                0.22777943                0.26759735               -0.88017092               -0.00508681               -0.95428303                0.52840810
              10.30001147               -0.54056549               27.62056064                1.00000000                0.32977618                0.34138915               -1.15055662               -0.03587635               -0.95270934                0.00627594
              11.30378460               -0.67504907               27.52980486                1.00000000                0.37731333                0.42399735               -1.41108326               -0.04639096               -0.85125407               -0.84876181
               1.44261572                1.71446725               28.37703939                1.00000000               -0.31372966               -0.35397498                1.16676676               -0.02224120               -0.12488407                1.22960563
               2.43947842                1.56500137               28.28539336                1.00000000               -0.28084697               -0.27183699                0.91336248               -0.00440345               -0.12111896                0.12447184
               3.43699878                1.41521533               28.19378604                0.88037979               -0.22211381               -0.19011458                0.65041798                0.00766922                0.05787715               -0.55964134
               4.43503615                1.26567000               28.10568052                0.20935018               -0.43860454               -0.15004791                0.38054872                0.49019976                1.63014755               -1.15655203
               5.42822669                1.12563589               28.04541768                0.36998350               -0.43431126                0.05127279                0.14369742               -0.09268151                2.40890119                1.02377279
               6.42634992                0.99231038               27.97194059                0.47244575               -0.07844090                0.07799771               -0.10788768                0.09422086                1.53224406                0.44825169
               7.42665787                0.86042718               27.89387794                0.37154549                0.09850637                0.09223089               -0.36379794                0.14387076                1.44469593               -0.34295048
               8.42832005                0.72894680               27.81864997                0.50255295                0.21614707                0.18900143               -0.61462014                0.13021726                1.45554344                0.59898149
               9.43098081                0.59642800               27.74100202                1.00000000                0.28666024                0.26110643               -0.85920180                0.05957412                0.74096579                0.77214051
              10.43405325                0.46284840               27.65164515                1.00000000                0.34117280                0.33483536               -1.11912734                0.00623403                0.08901245                0.11223749
              11.43780427                0.32919090               27.56097272                1.00000000                0.37510149                0.42236764               -1.37810169               -0.00458449                0.02257157               -1.00063901
               1.59148150                2.71109954               28.34636430                1.00000000               -0.27693434               -0.32513583                1.04982124               -0.01506338                0.04543579                1.56027233
               2.58871216                2.56248856               28.24858506                1.00000000               -0.24339000               -0.23594830                0.79215789                0.00864090                0.21515087                0.10045860
               3.58661370                2.41355178               28.15414193                0.54253400               -0.16495997               -0.15195340                0.54305613                0.02132001                0.77770021               -1.33999934
               4.58541296                2.26433302               28.06756999                0.00010000               -1.18822295               -0.12971670                0.25690226                0.68829399                4.60721853               -2.04182108
               5.56284924                2.12726060               28.04966854                0.00010000               -1.26039632                0.09564379                0.06322626                1.23961037                5.36262417               -1.21584093
               6.56020503                1.99363255               27.97478127                0.00010000               -0.12113886               -0.07329070               -0.16031127                1.01395162                2.13769294               -0.24839599
               7.56042646                1.86129786               27.89220552                0.00010000                0.09271844               -0.11619082               -0.39241576                0.81016374                3.42564188                0.57037311
               8.56205940                1.73089974               27.84315283                0.00010000                0.20262473               -0.07705885               -0.64795865                0.52984007                4.03786965                1.12857166
               9.56447896                1.59897416               27.77356739                0.50719005                0.26569240                0.24849955               -0.83282901                0.07098287                2.03819257                1.56597984
              10.56737325                1.46613121               27.68485932                1.00000000                0.32644717                0.31477031               -1.07925514                0.00385717                0.72979770                0.70894704
              11.57100790                1.33339828               27.58908949                1.00000000                0.36346542                0.42148037               -1.34942822               -0.00657198                0.37631810               -1.01008753
               1.73953641                3.70796453               28.31579265                1.00000000               -0.23374179               -0.30208778                0.93176939               -0.01367980                0.08568695                1.48875506
               2.73719899                3.56028240               28.21059572                1.00000000               -0.19778472               -0.20358541                0.66942252                0.00734776                0.11223866               -0.03335887
               3.73558072                3.41217626               28.10586955                0.32958588               -0.10528928               -0.11087713                0.41479372               -0.02203098                1.05905401               -1.66748045
               4.73509321                3.26307566               28.01958800                0.00010000               -0.59306775               -0.08351636                0.15208609                0.65800931                4.99089970               -2.75184283
               5.72371936                3.12754876               27.99343898                0.00010000               -1.12507557                0.00207704               -0.01091867                1.74579616                7.55111774               -3.07675951
               6.71259170                2.99084457               27.95750633                0.00010000               -0.90627033               -0.09230508               -0.18451907                1.40010230                6.73782061               -0.91982982
               7.70559396                2.85810336               27.91397248                0.00010000               -0.56755730               -0.16812577               -0.37220664                1.11670264                6.27839143                1.28108466
               8.70124055                2.72740562               27.86821737                0.00010000               -0.42124783               -0.17966614               -0.56623026                0.87818185                5.92656101                1.60953628
               9.69716900                2.60139799               27.81708764                0.23732002               -0.07671388                0.13239278               -0.76975256                0.26137077                3.78523738                2.93580428
              10.69970627                2.46914381               27.72786260                1.00000000                0.29848469                0.28230878               -1.00373098               -0.03033301                0.94910835                1.11562437
              11.70313869                2.33762051               27.61994493                1.00000000                0.34324200                0.41966944               -1.30396405               -0.00998986                0.01326708               -0.69435853
               1.88657217                4.70505778               28.28368840                1.00000000               -0.19247820               -0.27316826                0.80487841               -0.02086150                0.12404931                1.30877394
               2.88464739                4.55841685               28.17108003                0.86933779               -0.15961737               -0.16286793                0.53792598               -0.00196615                0.18247839               -0.22644234
               3.88337982                4.41133424               28.05958207                0.19664578               -0.07233726               -0.05594149                0.28304301               -0.06437986                1.19373482               -1.63668263
               4.88320064                4.26266269               27.96718345                0.00010000               -0.66917820                0.06051239                0.01642282                0.46952182                6.45418459               -2.67869569
               5.86999626                4.12730214               27.96090941                0.00010000               -1.27740822                0.08048990               -0.09272539                0.91202350               10.40561362               -1.44387470
               6.85765248                3.99178645               27.94683200                0.00010000               -1.18983958                0.15707548               -0.20942874                0.77437509                9.73449055               -0.30500988
               7.84619947                3.85793534               27.92631802                0.00010000               -1.06620352                0.09234429               -0.34621225                0.63160141                9.27397763                0.92472973
               8.83632841                3.72730642               27.90199566                0.00010000               -0.91156371                0.05579798               -0.50206187                0.57739954                9.11181621                2.11950221
               9.82796819                3.60162201               27.87713926                0.20915982               -0.28921671               -0.01126804               -0.68145151                0.23280205                5.00088888                3.55903852
              10.83054407                3.47177739               27.76928106                0.79394736                0.29432518                0.23649430               -0.95087252               -0.00445265                0.50225129                1.17987570
              11.83385469                3.34179167               27.65423860                1.00000000                0.33106226                0.42448144               -1.25397441               -0.02918832                0.14129274               -0.46348258
               2.03240105                5.70250117               28.24951846                1.00000000               -0.15178359               -0.23215970                0.66906751               -0.02541366                0.12833164                1.11050498
               3.03088321                5.55702504               28.12918432                0.70216868               -0.11768853               -0.11379509                0.38650096               -0.00903242                0.28116055               -0.47054491
               4.03004728                5.41105743               28.01184485                0.13250604               -0.11837341                0.00215310                0.11992433               -0.03032450                1.72902254               -1.91756973
               5.02851574                5.26428591               27.92045802                0.00010000               -0.86056018                0.27352398               -0.16791257                0.24182315                8.44292860               -1.38963341
               6.01283607                5.12915856               27.93727857                0.00010000               -1.55348725                0.29133679               -0.17155383                0.60442189               13.28314864               -0.58780153
               6.99744600                4.99398608               27.94210140                0.00010000               -1.50650288                0.31093483               -0.22837939                0.36819046               12.43964490                0.21498639
               7.98270602                4.85995025               27.94117074                0.00010000               -1.41720635                0.27055158               -0.31747546                0.22971887               12.07724347                1.13801052
               8.96910187                4.72852158               27.93755284                0.00010000               -1.26759720                0.15485284               -0.42955592                0.21394057               12.00627923                2.17057296
               9.95735407                4.60117263               27.93376088                0.21511375               -0.48271540               -0.04347878               -0.56543540                0.08692269                6.26613275                3.22493953
              10.95944756                4.47387369               27.81369723                0.70319548                0.25861466                0.19646583               -0.86194366                0.02364696                0.26997661                1.28295000
              11.96252636                4.34611014               27.68970789                1.00000000                0.30788014                0.42640535               -1.20016077               -0.02398268                0.07813300               -0.40268275
               2.17701615                6.70041459               28.21344241                1.00000000               -0.11056693               -0.18347779                0.52802152               -0.02464860                0.06427973                0.95418086
               3.17591048                6.55614095               28.08472632                0.59962645               -0.07518407               -0.06534197                0.23619052               -0.00798194                0.25876714               -0.64261477
               4.17551246                6.41137730               27.95983528                0.09735812               -0.29872515                0.05604850               -0.04346800                0.08850234                3.39296647               -2.25276370
               5.16993597                6.26813317               27.89379927                0.00010000               -1.15639696                0.43191935               -0.29487498                0.11796813               11.05554747                0.16817895
               6.15238452                6.13312888               27.92191476                0.00010000               -1.78556879                0.48649518               -0.22249911                0.34200867               15.39147050                0.11772313
               7.13422460                5.99800515               27.94206973                0.00010000               -1.80630920                0.50024210               -0.23620268                0.08391425               14.84285155                0.57755323
               8.11625834                5.86334638               27.95819066                0.00010000               -1.74198820                0.41930401               -0.28301233               -0.13417761               14.63820167                1.25979431
               9.09938483                5.73040348               27.97286134                0.00010000               -1.59519027                0.22956124               -0.35120831               -0.22162071               14.66514304                2.08292720
              10.08435454                5.60075244               27.98787824                0.23447261               -0.66526637               -0.03592115               -0.43456663               -0.15657171                7.49802966                2.96261616
              11.08607951                5.47570671               27.85742308                0.65113934                0.22738049                0.17413580               -0.77404572                0.02481987                0.14633118                1.18871252
              12.08890214                5.35031978               27.72511670                1.00000000                0.28226392                0.40867730               -1.12868668               -0.01669298                0.05939419               -0.44200472
               2.32045536                7.69883161               28.17613028                1.00000000               -0.06944991               -0.13382358                0.38803373               -0.02340105                0.02568263                0.87271612
               3.31976086                7.55571820               28.03931523                0.55020664               -0.03151287               -0.02080310                0.08947149               -0.00358922                0.16731850               -0.69567897
               4.31982510                7.41217840               27.90526478                0.07539456               -0.53186633                0.09904942               -0.20527537                0.23611460                5.67324827               -2.41624371
               5.30912353                7.27292430               27.87856458                0.00010000               -1.50104144                0.51675780               -0.26996881                0.23273501               14.08274825                0.65901738
               6.28980427                7.13888846               27.91263134                0.00010000               -2.01083718                0.67054165               -0.24243320                0.25443610               17.07267406                0.48832712
               7.26890679                7.00399092               27.94496165                0.00010000               -2.10900678                0.72040708               -0.23354069               -0.10747526               16.98299003                0.72500050
               8.24762413                6.86833633               27.97597904                0.00010000               -2.08216964                0.60944985               -0.24445773               -0.47669978               17.00627141                1.22843958
               9.22726339                6.73311281               28.00722966                0.00010000               -1.93523628                0.33832469               -0.27377834               -0.69791722               17.16893660                1.91120897
              10.20891941                6.60045421               28.03979044                0.26133915               -0.84433864               -0.02132811               -0.31554871               -0.44416291                8.70864964                2.71913947
              11.21037662                6.47735641               27.90009809                0.62541056                0.20234767                0.15936962               -0.68851338                0.00994072                0.07100372                1.05977948
              12.21296636                6.35428369               27.75960673                1.00000000                0.25897411                0.38025346               -1.06098064               -0.00955860                0.03888781               -0.54306412
               2.46277494                8.69773812               28.13839544                1.00000000               -0.02830382               -0.08619322                0.25031755               -0.02255658                0.00870106                0.85906491
               3.46249190                8.55572488               27.99371813                0.54869059                0.01268602                0.02160047               -0.05461028                0.00060219                0.05268123               -0.69756394
               4.46302866                8.41335829               27.84984814                0.05580613               -0.73056478                0.13364901               -0.36164472                0.40278519                7.90715556               -2.30755797
               5.44788061                8.27846833               27.86224749                0.00010000               -1.83110205                0.64343759               -0.24828143                0.52109382               17.25314846                0.48495019
               6.42640662                8.14653971               27.90513860                0.00010000               -2.26266910                0.88971384               -0.25866322                0.30839364               18.85197554                0.48378062
               7.40262723                8.01241329               27.94840281                0.00010000               -2.44020807                0.95900004               -0.23027433               -0.17122568               19.00559003                0.63579296
               8.37760246                7.87553537               27.99294510                0.00010000               -2.46593097                0.89189674               -0.20085169               -0.70320018               19.25200554                1.00695118
               9.35330861                7.73716997               28.03962077                0.01813816               -2.31873922                0.53265416               -0.19742905               -1.21450530               19.58932028                1.64505721
              10.33122768                7.60032588               28.08929127                0.29304223               -1.04298807                0.00035496               -0.22233617               -0.78379380                9.93381502                2.38599284
              11.33244885                7.47889410               27.94131291                0.62335866                0.18143706                0.15286356               -0.61725591               -0.01102373                0.03993611                0.92193842
              12.33485642                7.35792485               27.79278427                1.00000000                0.24075713                0.34647755               -1.00619941               -0.00321882                0.02272740               -0.67444684
               2.60403069                9.69710775               28.10076126                1.00000000                0.01220392               -0.04168635                0.11519065               -0.02223169               -0.01166471                0.74573799
               3.60415272                9.55615021               27.94819454                0.57415610                0.05533368                0.06326622               -0.19684585                0.00196160                0.07748973               -0.59218795
               4.60513736                9.41485138               27.79733435                0.01632754               -0.88943691                0.16506942               -0.50460781                0.63926193               10.04105858               -1.57447386
               5.58636399                9.28579305               27.84401538                0.00010000               -2.15550895                0.96948072               -0.33996159                0.64765240               20.24860179                0.27925697
               6.56202718                9.15668274               27.89635945                0.00010000               -2.49386871                1.07262709               -0.29902088                0.30318273               20.67819265                0.27130697
               7.53648661                9.02317092               27.95011110                0.00010000               -2.66118655                1.13401796               -0.23958353               -0.10602842               20.97289944                0.36211085
               8.50880345                8.88617426               28.00690925                0.00010000               -2.91519144                1.14784546               -0.16505140               -0.61542166               21.45720907                0.57331123
               9.47818278                8.74376589               28.06908809                0.04827023               -2.86420219                1.03941964               -0.06954175               -1.30082244               21.93963451                1.05828523
              10.45151941                8.60046131               28.13452172                0.32735499               -1.28128042                0.03983138               -0.15985671               -1.18352398               11.23250832                1.54951035
              11.45255718                8.48041368               27.98116245                0.63963841                0.16605419                0.15333899               -0.56464970               -0.03065845                0.14212951                0.70587927
              12.45484049                8.36121324               27.82442879                0.98152020                0.22833140                0.31399629               -0.96690341               -0.00174504               -0.01321065               -0.66529201
               2.74424538               10.69690439               28.06068676                1.00000000                0.05421254               -0.02033585               -0.01820691                0.03005133                0.40967319                0.62845499
               3.74478750               10.55699021               27.90463709                0.82481866                0.09628436                0.08399973               -0.33542717                0.05124244                0.80949439               -0.49068996
               4.74617107               10.41665968               27.75650445                0.50716684               -1.28926044                0.18083006               -0.63713904                1.14675726               11.98688972               -0.98793263
               5.71900229               10.29785794               27.82398578                0.36706520               -2.55393318                1.20648947               -0.47036194                0.83045949               22.60052603                0.15046577
               6.69509240               10.16799225               27.88522822                0.35723181               -2.39935800                1.13095126               -0.36120972                0.16830752               22.48590312                0.12661142
               7.67101513               10.03509365               27.94861348                0.37303532               -2.51966711                1.19227277               -0.27168041               -0.02214637               22.84623687                0.18183374
               8.64469906                9.89849228               28.01567810                0.41301608               -2.90050113                1.23180174               -0.16248291               -0.26720321               23.45512327                0.30297090
               9.61300511                9.75795836               28.09019261                0.53746232               -3.68948264                1.41924755                0.01460025               -1.38625602               23.95856290                0.63071391
              10.57090941                9.60112250               28.16704542                0.68409179               -2.09606810                0.06611939               -0.13733343               -1.86087415               12.79321703                0.93444248
              11.57108375                9.48196088               28.01783386                0.83952671                0.11564967                0.15472005               -0.52837347                0.00677096                0.95669020                0.56425439
              12.57322240                9.36420477               27.85755929                0.98591393                0.21386500                0.29915369               -0.93363699                0.06258052                0.42002480               -0.57789751
               1.37676790                0.76507632               29.42712523                1.00000000               -0.34412055               -0.36990032                1.28868449               -0.06287453               -0.88949237                0.91412605
               2.37332669                0.60695224               29.33324749                1.00000000               -0.29417169               -0.29110360                1.03545939               -0.04756337               -1.15060971                0.09411977
               3.37088446                0.44848976               29.23413219                1.00000000               -0.18053733               -0.21275029                0.77211407               -0.04330861               -1.11320721               -0.20918131
               4.36971595                0.29048176               29.14104175                0.62697886                0.18380348               -0.16516991                0.51758786                0.31697470               -0.24513552               -0.78115514
               5.37456053                0.14070468               29.05942780                0.71450181                0.32398080               -0.06306007                0.23726335               -0.07050911                0.13663599                0.24265648
               6.37619556               -0.00275532               28.97498645                0.79664657                0.13637035                0.02197185               -0.03968593               -0.01838014               -0.19600616                0.14240474
               7.37728794               -0.14476484               28.88700379                0.77330361                0.12541142                0.09666925               -0.31649733               -0.00320740               -0.41983849               -0.07593861
               8.37870379               -0.28635310               28.79805028                0.86269394                0.16400084                0.18185758               -0.59945290               -0.00437485               -0.68074151                0.10587922
               9.38056796               -0.42866313               28.70455752                1.00000000                0.23639544                0.26568921               -0.87786276               -0.00832993               -0.99385463                0.54018253
              10.38343170               -0.57175146               28.60907264                1.00000000                0.33179709                0.34099838               -1.14684885               -0.03424914               -0.98285794                0.00474027
              11.38720390               -0.71498644               28.51571690                1.00000000                0.37722004                0.42493681               -1.40665731               -0.04413689               -0.87654511               -0.87227921
               1.53426323                1.76137731               29.38867734                1.00000000               -0.31188919               -0.35306863                1.16102044               -0.02182909               -0.12819532                1.24517005
               2.53114434                1.60404120               29.29450357                1.00000000               -0.27883058               -0.27057253                0.90877475               -0.00391848               -0.12946679                0.13115372
               3.52868662                1.44636225               29.20027067                0.89131307               -0.21830537               -0.18864763                0.64639160                0.00476468                0.04128472               -0.55140629
               4.52677823                1.28883006               29.10946420                0.21317328               -0.41063205               -0.14789519                0.37751867                0.45079577                1.62884507               -1.16968733
               5.52047398                1.14007408               29.04686835                0.37422367               -0.40158564                0.04289930                0.14904029               -0.08251683                2.42466044                1.04034096
               6.51874652                0.99746440               28.97087118                0.47855678               -0.07096107                0.07391479               -0.10522698                0.08455830                1.53871682                0.46153499
               7.51905476                0.85620185               28.89023526                0.37974365                0.09313332                0.09668085               -0.36422599                0.13307527                1.45080149               -0.33732787
               8.52060919                0.71546548               28.81248879                0.50646126                0.20645416                0.19215835               -0.61803647                0.11347932                1.46650295                0.58882449
               9.52318384                0.57399377               28.73240284                1.00000000                0.28208398                0.26050297               -0.86127943                0.05183088                0.74684800                0.78593651
              10.52625086                0.43165852               28.64044942                1.00000000                0.34068353                0.33523775               -1.12077663                0.00775738                0.08791227                0.11513795
              11.52999751                0.28926293               28.54719237                1.00000000                0.37466460                0.42668738               -1.37884767               -0.00208912                0.02272305               -1.02566327
               1.69100354                2.75801494               29.35682503                1.00000000               -0.27401552               -0.32489646                1.04300087               -0.01453880                0.04542111                1.58025852
               2.68826338                2.60154079               29.25647671                1.00000000               -0.24063174               -0.23457585                0.78618060                0.00851137                0.21883014                0.10855083
               3.68619090                2.44471680               29.15955331                0.55810291               -0.16216733               -0.14870137                0.53766092                0.01514672                0.76660018               -1.33433287
               4.68502004                2.28752385               29.07011092                0.00010000               -1.09575264               -0.12565011                0.25075915                0.63104826                4.62714356               -2.03787292
               5.66427585                2.14156266               29.05032999                0.00010000               -1.16305428                0.07747154                0.07011669                1.11854203                5.43940215               -1.19683057
               6.66175895                1.99872298               28.97317660                0.00010000               -0.11637408               -0.07446597               -0.16266310                0.89935068                2.19730848               -0.21598575
               7.66194837                1.85716878               28.88825861                0.00010000                0.07112564               -0.10559048               -0.39599060                0.70969640                3.46789341                0.60753753
               8.66318146                1.71749007               28.83660486                0.00010000                0.17315808               -0.06386726               -0.66281351                0.45986362                4.10051798                1.16898453
               9.66541153                1.57654693               28.76520476                0.50692248                0.25681106                0.24663467               -0.84129327                0.04913483                2.10472455                1.60083863
              10.66831769                1.43495329               28.67404425                1.00000000                0.32708890                0.31383715               -1.08580008                0.00160975                0.75310264                0.73629263
              11.67195331                1.29354731               28.57558017                1.00000000                0.36356238                0.42982901               -1.35573387               -0.00547708                0.38890120               -1.02366938
               1.84692077                3.75487939               29.32506745                1.00000000               -0.23080601               -0.30220547                0.92373691               -0.01341195                0.08949670                1.50386551
               2.84461271                3.59934969               29.21725845                1.00000000               -0.19571385               -0.20175813                0.66327413                0.00720274                0.11982644               -0.03032919
               3.84300649                3.44338823               29.11000307                0.33724638               -0.10296854               -0.10648664                0.41105878               -0.02921787                1.06649299               -1.67433060
               4.84255334                3.28631705               29.02110610                0.00010000               -0.56803997               -0.07418328                0.14864583                0.58249032                5.03809260               -2.74645346
               5.83164569                3.14162351               28.99331680                0.00010000               -1.07129592               -0.00758238               -0.01463850                1.55069665                7.65233750               -3.06199964
               6.82112742                2.99597508               28.95563112                0.00010000               -0.85820482               -0.09689593               -0.19143850                1.22288920                6.83865396               -0.87395944
               7.81448159                2.85409004               28.91019631                0.00010000               -0.53495577               -0.16781993               -0.38392792                0.95656864                6.37605924                1.34905559
               8.81042830                2.71418813               28.86248552                0.00010000               -0.38891409               -0.17768927               -0.58043055                0.76226500                6.02137340                1.70382377
               9.80670331                2.57892646               28.80932295                0.23370971               -0.05728082                0.11448718               -0.78510681                0.21390320                3.86671107                3.00118503
              10.80928269                2.43793527               28.71783112                0.99463932                0.29983160                0.27748586               -1.00879902               -0.03832267                0.98636195                1.15103519
              11.81269994                2.29785951               28.60694726                1.00000000                0.34172583                0.42437262               -1.29934022               -0.01058810                0.01963957               -0.69092681
               2.00179470                4.75197084               29.29168890                1.00000000               -0.18961006               -0.27320931                0.79558939               -0.02086311                0.13205932                1.31466674
               2.99989860                4.59750563               29.17642612                0.86040290               -0.15777598               -0.16032674                0.53141055               -0.00246418                0.19645449               -0.23816156
               3.99863918                4.44258707               29.06239538                0.19926648               -0.07320179               -0.05130398                0.27946855               -0.06777877                1.20775997               -1.66196833
               4.99843456                4.28604019               28.96734191                0.00010000               -0.65037114                0.06860101                0.01634927                0.39448815                6.53468086               -2.70636808
               5.98563176                4.14141102               28.95998181                0.00010000               -1.23421808                0.08073612               -0.09388964                0.76978838               10.56974757               -1.42769846
               6.97375020                3.99678506               28.94469806                0.00010000               -1.13825319                0.14387028               -0.21871621                0.63422828                9.89380620               -0.25702129
               7.96286669                3.85381238               28.92278205                0.00010000               -1.00799253                0.07598588               -0.36220590                0.49997992                9.42473836                0.99746038
               8.95359035                3.71393628               28.89687564                0.00010000               -0.84621144                0.03480902               -0.52238775                0.45512952                9.25123045                2.20721169
               9.94594246                3.57883668               28.87021982                0.20442029               -0.24860824               -0.04607690               -0.70550545                0.17469001                5.09831121                3.65313945
              10.94861818                3.44050301               28.75980439                0.77439811                0.29753011                0.22720087               -0.94374097               -0.01147356                0.53874009                1.21821030
              11.95189307                3.30203476               28.64175942                1.00000000                0.32748808                0.42722142               -1.24585477               -0.03279045                0.15806896               -0.45667912
               2.15543393                5.74941520               29.25615500                1.00000000               -0.14867365               -0.23183602                0.65839538               -0.02549016                0.12888510                1.10874618
               3.15394719                5.59614315               29.13301161                0.69457284               -0.11587851               -0.11048166                0.37902670               -0.00976950                0.28986770               -0.49187691
               4.15311636                5.44236215               29.01302473                0.13349331               -0.11640171                0.00796618                0.11611592               -0.03663527                1.73988228               -1.95859646
               5.15161915                5.28768907               28.91887247                0.00010000               -0.84098855                0.26511012               -0.14714377                0.16593629                8.57724049               -1.40874837
               6.13629658                5.14323823               28.93560007                0.00010000               -1.51042667                0.28298119               -0.16482795                0.45999663               13.53515947               -0.55595739
               7.12141062                4.99885249               28.93978184                0.00010000               -1.44833071                0.29411042               -0.23688914                0.23581692               12.66120227                0.27022625
               8.10732997                4.85560976               28.93790565                0.00010000               -1.34520123                0.24622899               -0.33690241                0.10314380               12.28532999                1.21291257
               9.09450660                4.71488431               28.93313194                0.00010000               -1.18497914                0.12659655               -0.45578749                0.08591219               12.20410951                2.26380045
              10.08363039                4.57800492               28.92796270                0.20994494               -0.43257316               -0.07676524               -0.59418160                0.02432043                6.38788421                3.33831880
              11.08585513                4.44247928               28.80501875                0.68485363                0.26751272                0.18731093               -0.87495805                0.02406495                0.29265634                1.34101078
              12.08898064                4.30640393               28.67767992                1.00000000                0.31255079                0.43419254               -1.20772739               -0.02341217                0.07712203               -0.38620607
               2.30782899                6.74733412               29.21866185                1.00000000               -0.10727304               -0.18253537                0.51581898               -0.02468687                0.06332452                0.94979471
               3.30675626                6.59529599               29.08704927                0.59327520               -0.07342203               -0.06151172                0.22834095               -0.00890914                0.26403538               -0.66139311
               4.30636055                6.44274639               28.95938404                0.09708082               -0.29395281                0.06278075               -0.04674025                0.06766350                3.43144019               -2.29269625
               5.30087720                6.29134239               28.89111658                0.00010000               -1.13461377                0.40710992               -0.24004478                0.02288771               11.25482458                0.24488637
               6.28366827                6.14707064               28.91977156                0.00010000               -1.73910980                0.46676918               -0.20697472                0.19660552               15.70471932                0.17393679
               7.26609501                6.00266727               28.93967627                0.00010000               -1.73852657                0.47568570               -0.24402463               -0.05141375               15.11682079                0.63958894
               8.24889774                5.85873696               28.95525618                0.00010000               -1.65907868                0.39033736               -0.30541932               -0.26217975               14.90256984                1.33634172
               9.23291343                5.71646822               28.96919895                0.00010000               -1.50319200                0.20079451               -0.38229464               -0.35448508               14.92674261                2.17592591
              10.21883390                5.57730137               28.98335573                0.22953756               -0.61064821               -0.05685477               -0.47012480               -0.22068804                7.64111521                3.07549984
              11.22070047                5.44424923               28.84958039                0.63378765                0.23708077                0.16911181               -0.79271719                0.03005229                0.15665500                1.24697458
              12.22357552                5.31071861               28.71377200                1.00000000                0.28750485                0.41926938               -1.14001969               -0.01674868                0.06051917               -0.41627022
               2.45901643                7.74576449               29.17994342                1.00000000               -0.06597064               -0.13191966                0.37436165               -0.02350341                0.02495371                0.86975437
               3.45835673                7.59491292               29.04016915                0.54503547               -0.02966019               -0.01691612                0.08117374               -0.00434450                0.16863625               -0.71119355
               4.45842323                7.44361776               28.90319764                0.07384846               -0.53020318                0.10544044               -0.20808982                0.19590338                5.80766283               -2.45222675
               5.44775266                7.29583127               28.87619979                0.00010000               -1.47597077                0.48842847               -0.20401025                0.12100037               14.36393272                0.78906690
               6.42890381                7.15257361               28.91029936                0.00010000               -1.95183178                0.64175625               -0.22609800                0.11853667               17.38401249                0.55232795
               7.40871603                7.00836620               28.94258814                0.00010000               -2.03091925                0.68977884               -0.24307745               -0.23697897               17.29913835                0.78672017
               8.38828543                6.86341651               28.97341668                0.00010000               -1.99317724                0.57735867               -0.26968455               -0.60197826               17.32255942                1.30570686
               9.36885248                6.71890020               29.00432016                0.00010000               -1.84249082                0.31290865               -0.30908019               -0.82735971               17.48635535                2.00061112
              10.35143561                6.57686782               29.03643225                0.25727537               -0.79067704               -0.02779101               -0.35555171               -0.51052994                8.87093460                2.81143109
              11.35303894                6.44586152               28.89307053                0.60860967                0.21356483                0.15922605               -0.71650076                0.01314629                0.07120210                1.10847194
              12.35570691                6.31478932               28.74890582                1.00000000                0.26679672                0.39122342               -1.07999732               -0.00831716                0.03888321               -0.52616778
               2.60906207                8.74469572               29.14082475                1.00000000               -0.02459718               -0.08305399                0.23515803               -0.02273826                0.00827857                0.85865871
               3.60881610                8.59495767               28.99312891                0.54427981                0.01490948                0.02522825               -0.06345213                0.00009932                0.05143199               -0.71080716
               4.60936026                8.44485520               28.84622039                0.05297831               -0.72373705                0.13835169               -0.36399645                0.34639329                8.12608006               -2.33445128
               5.59434136                8.30111096               28.86000114                0.00010000               -1.79280914                0.61986034               -0.20822329                0.41427772               17.61983964                0.54049045
               6.57350408                8.15990577               28.90259986                0.00010000               -2.19144124                0.85765695               -0.25224479                0.19750568               19.17426941                0.53012388
               7.55051253                8.01646285               28.94604121                0.00010000               -2.35899510                0.92821635               -0.24443031               -0.27887198               19.36883441                0.68587502
               8.52632418                7.87028413               28.99081689                0.00010000               -2.37988055                0.86208780               -0.22654738               -0.81228128               19.62009885                1.07824068
               9.50291492                7.72272639               29.03746618                0.01955605               -2.23310937                0.50831305               -0.23441338               -1.33367696               19.94497630                1.76194218
              10.48166199                7.57674555               29.08682400                0.29031576               -0.99365123                0.00683824               -0.27030983               -0.84522700               10.10622693                2.44790612
              11.48304190                7.44743375               28.93494497                0.60618024                0.19457897                0.16029020               -0.65652281               -0.00998062                0.03581974                0.95372770
              12.48555357                7.31854308               28.78258569                1.00000000                0.25116699                0.35811065               -1.03503090               -0.00129957                0.02239349               -0.67149463
               2.75803777                9.74410341               29.10183310                1.00000000                0.01614603               -0.03732033                0.09863106               -0.02246253               -0.01245396                0.74800515
               3.75819923                9.59541748               28.94617907                0.56884432                0.05800179                0.06661816               -0.20648813                0.00167437                0.07914439               -0.60279196
               4.75919781                9.44638480               28.79227616                0.01331829               -0.86057880                0.16822829               -0.50845599                0.57080506               10.28328725               -1.59072626
               5.74098766                9.30822848               28.84067165                0.00010000               -2.08478839                0.93820562               -0.33562517                0.56905449               20.67767689                0.25829933
               6.71750204                9.16972675               28.89335024                0.00010000               -2.41137174                1.04193887               -0.30646852                0.23403244               21.06498138                0.29204432
               7.69276022                9.02693053               28.94762652                0.00010000               -2.58628892                1.10849023               -0.26021818               -0.16998360               21.39385209                0.39006033
               8.66577626                8.88065826               29.00514152                0.00010000               -2.85213480                1.12843388               -0.19047390               -0.68682323               21.91484877                0.61840134
               9.63571752                8.72906646               29.06831295                0.05257264               -2.79762753                1.02038970               -0.08494255               -1.38211362               22.31556301                1.17659524
              10.60982371                8.57700459               29.13261587                0.32657400               -1.23378607                0.05618695               -0.22070641               -1.22770552               11.37303499                1.57496779
              11.61104180                8.44906732               28.97525895                0.62066809                0.18192768                0.16788544               -0.61675575               -0.03049858                0.14149973                0.72049287
              12.61346226                8.32195154               28.81457224                1.00000000                0.24204606                0.32687775               -1.00647942                0.00047025               -0.01088645               -0.67204720
               2.90598468               10.74394932               29.06042078                1.00000000                0.05835223               -0.01540965               -0.03574551                0.02876279                0.41052510                0.63215243
               3.90656820               10.59629003               28.90123012                0.82170095                0.09903415                0.08725515               -0.34605969                0.05041988                0.81833303               -0.49955163
               4.90796536               10.44821977               28.75010909                0.50510318               -1.20938563                0.18349737               -0.64318228                1.05600757               12.23665767               -0.99948314
               5.88238049               10.31987507               28.81924153                0.36736152               -2.42413434                1.16465906               -0.48156534                0.76552221               23.07798810                0.10897917
               6.85948268               10.18074454               28.88154846                0.35740689               -2.30995702                1.10177897               -0.37871024                0.13594283               22.94451416                0.13382087
               7.83618135               10.03863265               28.94577298                0.37282733               -2.45154507                1.17021213               -0.29974078               -0.05247365               23.32194054                0.19475939
               8.81045178                9.89285281               29.01391596                0.41224316               -2.86275128                1.21945457               -0.19239416               -0.30737190               23.99536067                0.32775850
               9.77892632                9.74313418               29.09032293                0.54067023               -3.66723779                1.40677175                0.01223701               -1.42829598               24.35624208                0.72030007
              10.73710702                9.57786929               29.16529969                0.68459429               -2.07206717                0.08647001               -0.21221337               -1.88880516               12.91622354                0.93988232
              11.73748498                9.45079146               29.01222954                0.82926192                0.13437642                0.17241361               -0.59412271                0.00488491                0.97581556                0.57146877
              12.73979455                9.32508063               28.84798291                0.98560174                0.23095672                0.31290967               -0.98452744                0.06214576                0.43477133               -0.58617155
               1.46296018                0.81335734               30.43998803                1.00000000               -0.34310315               -0.36864868                1.28363229               -0.06226316               -0.90119083                0.92518803
               2.45952915                0.64729554               30.34358593                1.00000000               -0.29448210               -0.29003186                1.03203801               -0.04653328               -1.16644273                0.09876559
               3.45707054                0.48089347               30.24185247                1.00000000               -0.18489745               -0.21273951                0.77103979               -0.04214705               -1.12825512               -0.20934617
               4.45583120                0.31486599               30.14623786                0.62607574                0.15303715               -0.16589046                0.51814070                0.28410069               -0.26974057               -0.79948302
               5.46013128                0.15620716               30.06182682                0.71572129                0.28922918               -0.06666447                0.24029862               -0.06757562                0.09206345                0.25551396
               6.46161579                0.00315122               29.97460725                0.79860183                0.12967874                0.01997116               -0.03609049               -0.02262483               -0.23862070                0.14891253
               7.46272486               -0.14852847               29.88385441                0.77470791                0.13357705                0.09542721               -0.31175473               -0.00640368               -0.46520692               -0.07767351
               8.46428733               -0.29963972               29.79206921                0.86004118                0.17823836                0.18084278               -0.59508115               -0.01080555               -0.72740462                0.10616084
               9.46628963               -0.45113498               29.69579287                1.00000000                0.24537966                0.26344674               -0.87368794               -0.01247469               -1.03267737                0.55185164
              10.46919492               -0.60322425               29.59762366                1.00000000                0.33377744                0.34037976               -1.14205998               -0.03282546               -1.01249064                0.00258856
              11.47296518               -0.75544559               29.50167171                1.00000000                0.37702548                0.42599626               -1.40206095               -0.04136854               -0.90206382               -0.89599128
               1.62839935                1.80967085               30.40025980                1.00000000               -0.31035993               -0.35213703                1.15543467               -0.02124472               -0.13156189                1.26102235
               2.62529575                1.64439522               30.30356885                1.00000000               -0.27677515               -0.26954242                0.90475323               -0.00367231               -0.13804295                0.13722200
               3.62286385                1.47876608               30.20671387                0.90289868               -0.21401916               -0.18803727                0.64317426                0.00264092                0.02440070               -0.54283882
               4.62101537                1.31320708               30.11323089                0.21638788               -0.37754684               -0.14661647                0.38148430                0.40611904                1.62909435               -1.17771255
               5.61531291                1.15554051               30.04839849                0.38042025               -0.36290086                0.03341915                0.15790389               -0.07079135                2.44158966                1.05622358
               6.61375735                1.00335093               29.96983605                0.48618771               -0.06283088                0.07008399               -0.10177765                0.07460413                1.53975160                0.46987890
               7.61405629                0.85242580               29.88659342                0.38879142                0.08625879                0.10080145               -0.36290293                0.12244918                1.45165625               -0.33177377
               8.61548253                0.70216871               29.80628924                0.51009451                0.19504256                0.19612130               -0.62196501                0.09549860                1.47553897                0.57407250
               9.61795714                0.55149949               29.72377643                1.00000000                0.27697230                0.26029022               -0.86454279                0.04276390                0.75300349                0.79836445
              10.62102197                0.40017955               29.62922961                1.00000000                0.34078441                0.33498086               -1.12406064                0.00899265                0.08680885                0.11734887
              11.62477283                0.24881437               29.53339576                1.00000000                0.37508597                0.43078005               -1.38208143                0.00092800                0.02317778               -1.05167205
               1.79308655                2.80631460               30.36722432                1.00000000               -0.27260719               -0.32464396                1.03708424               -0.01374124                0.04498077                1.59989941
               2.79036048                2.64190469               30.26430867                1.00000000               -0.23875256               -0.23344045                0.78181784                0.00911395                0.22103476                0.11645793
               3.78831150                2.47713273               30.16489515                0.57230702               -0.15906642               -0.14592531                0.52760616                0.01140236                0.75104725               -1.32532377
               4.78717915                2.31193366               30.07258517                0.00010000               -0.98699465               -0.11457426                0.24153556                0.56343859                4.64199985               -2.01909371
               5.76857161                2.15687554               30.05107087                0.00010000               -1.04782861                0.05582152                0.07237212                0.97737130                5.51506693               -1.18417085
               6.76622258                2.00455290               29.97152801                0.00010000               -0.11077692               -0.07535084               -0.16935855                0.76699703                2.24613919               -0.18986265
               7.76635607                1.85348756               29.88428570                0.00010000                0.04505179               -0.09323822               -0.39646740                0.59671276                3.49679956                0.64126247
               8.76712361                1.70428271               29.82989656                0.00010000                0.13889981               -0.04786955               -0.67912366                0.38210609                4.15601803                1.20759609
               9.76913406                1.55407083               29.75674153                0.50580405                0.24681389                0.24535732               -0.85348202                0.01965699                2.17353085                1.63364577
              10.77205989                1.40347537               29.66314332                1.00000000                0.32900130                0.31124121               -1.09624533               -0.00567917                0.77513797                0.76517512
              11.77571409                1.25317001               29.56197482                1.00000000                0.36541985                0.44041755               -1.36675055               -0.00421669                0.39896410               -1.03037407
               1.95694434                3.80317797               30.33426739                1.00000000               -0.22844393               -0.30255193                0.91668913               -0.01253792                0.09364552                1.51778966
               2.95465990                3.63972641               30.22386121                1.00000000               -0.19407048               -0.20021150                0.65762804                0.00895562                0.12755465               -0.02675179
               3.95306293                3.47584757               30.11409072                0.34283096               -0.10592855               -0.10297562                0.40697551               -0.02515449                1.07205597               -1.67782647
               4.95254133                3.31091560               30.02256092                0.00010000               -0.54109183               -0.05823470                0.14767126                0.49690239                5.07952081               -2.72681818
               5.94224109                3.15665694               29.99314621                0.00010000               -1.00280286               -0.02053171               -0.02202563                1.31958873                7.74914332               -3.05262112
               6.93248527                3.00184392               29.95367756                0.00010000               -0.79901747               -0.10287988               -0.20091707                1.02049435                6.93265356               -0.82976959
               7.92626074                2.85056104               29.90629392                0.00010000               -0.49719442               -0.16561740               -0.39824610                0.77639929                6.46717010                1.41192278
               8.92254138                2.70121132               29.85660876                0.00010000               -0.35515604               -0.17392377               -0.59639601                0.63186144                6.11103202                1.79838489
               9.91915762                2.55640664               29.80138551                0.22989297               -0.03660884                0.09871115               -0.80081754                0.15323329                3.94746520                3.06315156
              10.92180921                2.40640437               29.70768662                0.97156257                0.30707967                0.27392972               -1.03390281               -0.05322662                1.02976127                1.20431698
              11.92529921                2.25762272               29.59395812                1.00000000                0.34900096                0.43777060               -1.31746634               -0.00856926                0.03750296               -0.67609618
               2.11973891                4.80026356               30.29960019                1.00000000               -0.18689221               -0.27374152                0.78679530               -0.02024953                0.14056642                1.31911912
               3.11786999                4.63790046               30.18170824                0.85168657               -0.15598439               -0.15810290                0.52519508               -0.00197007                0.21112281               -0.24985579
               4.11661922                4.47507322               30.06517145                0.20082112               -0.07810815               -0.04753635                0.27586059               -0.06051824                1.22348452               -1.68576607
               5.11630783                4.31076896               29.96751043                0.00010000               -0.62920818                0.07103418                0.02233043                0.31677867                6.61645267               -2.72069600
               6.10403506                4.15646491               29.95903162                0.00010000               -1.17897294                0.07963614               -0.09774900                0.60575681               10.72730865               -1.40649223
               7.09272837                4.00249530               29.94245768                0.00010000               -1.07592042                0.12842409               -0.23122862                0.47947517               10.04290150               -0.20788061
               8.08251665                3.85017521               29.91907390                0.00010000               -0.94065613                0.05866626               -0.38148416                0.35553508                9.56716621                1.06924219
               9.07391525                3.70080423               29.89154791                0.00010000               -0.77554894                0.01314828               -0.54514671                0.32277323                9.38261177                2.29223355
              10.06700567                3.55604505               29.86302915                0.19936344               -0.20679868               -0.08017695               -0.72906350                0.11085288                5.20408748                3.74541823
              11.06977927                3.40895396               29.75040624                0.75461854                0.30501660                0.22567621               -0.95638165               -0.01726813                0.58994727                1.26804219
              12.07310601                3.26192542               29.62932151                1.00000000                0.33267335                0.43753593               -1.26613662               -0.03049141                0.17544142               -0.44698398
               2.28126554                5.79770314               30.26268637                1.00000000               -0.14547028               -0.23207455                0.64781003               -0.02543477                0.12951947                1.10537647
               3.27981084                5.63656435               30.13676485                0.68713268               -0.11407405               -0.10724606                0.37170121               -0.01036466                0.29899318               -0.51303868
               4.27898406                5.47489685               30.01416717                0.13375004               -0.11628145                0.01386287                0.11269688               -0.03866686                1.76278349               -1.99808458
               5.27748521                5.31233628               29.91751515                0.00010000               -0.81770873                0.24673095               -0.12218275                0.08449675                8.71671158               -1.40590339
               6.26262989                5.15824967               29.93398201                0.00010000               -1.45603720                0.27217115               -0.15978333                0.29801382               13.76841945               -0.51497413
               7.24836447                5.00441240               29.93736361                0.00010000               -1.37836855                0.27476644               -0.24873718                0.09163608               12.86570933                0.32892414
               8.23506252                4.85173436               29.93443269                0.00010000               -1.26187287                0.21934833               -0.36006829               -0.03338556               12.48055440                1.28848038
               9.22312701                4.70147428               29.92843709                0.00010000               -1.09187845                0.09647749               -0.48504154               -0.05131869               12.39363740                2.35608508
              10.21322495                4.55480310               29.92187725                0.20423356               -0.37717698               -0.11260814               -0.62583176               -0.03833317                6.51222186                3.45280328
              11.21558347                4.41091790               29.79619807                0.66567362                0.27607606                0.18202272               -0.88631865                0.02937063                0.32287413                1.39606731
              12.21874647                4.26637344               29.66555334                1.00000000                0.31629983                0.44215285               -1.21492275               -0.02327958                0.07840129               -0.36543492
               2.44150779                6.79562207               30.22375879                1.00000000               -0.10387992               -0.18196723                0.50338143               -0.02478187                0.06247450                0.94383973
               3.44046899                6.63575554               30.08929314                0.58698806               -0.07169157               -0.05748332                0.22037555               -0.01015344                0.26955971               -0.67947052
               4.44007396                6.47535047               29.95890048                0.09612228               -0.29120257                0.07003320               -0.04990853                0.04558513                3.49765597               -2.33010087
               5.43464494                6.31570358               29.88899837                0.00010000               -1.10773708                0.37423961               -0.18348610               -0.08134468               11.45901327                0.34068335
               6.41791922                6.16190833               29.91777527                0.00010000               -1.67842752                0.44285304               -0.19406848                0.03766650               15.98066163                0.23539408
               7.40107639                6.00799063               29.93718924                0.00010000               -1.65660815                0.44739915               -0.25576010               -0.19691921               15.36669006                0.70424145
               8.38478706                5.85456218               29.95208228                0.00010000               -1.56281260                0.35776972               -0.33185821               -0.39880319               15.15036642                1.41463605
               9.36982014                5.70273378               29.96521545                0.00010000               -1.39958304                0.16917556               -0.41662627               -0.49606854               15.17693592                2.27035632
              10.35679539                5.55379289               29.97847574                0.22392355               -0.55118996               -0.07942692               -0.50687089               -0.28882921                7.78563093                3.18981366
              11.35879634                5.41259442               29.84156873                0.61568802                0.24669652                0.16216881               -0.80900440                0.03596097                0.17308401                1.30621751
              12.36172933                5.27076848               29.70231631                1.00000000                0.29329858                0.42865947               -1.15228097               -0.01624416                0.06197203               -0.38493211
               2.60050296                7.79406380               30.18361752                1.00000000               -0.06235960               -0.13002289                0.36015627               -0.02369125                0.02425690                0.86540927
               3.59987937                7.63541469               30.04093871                0.53978647               -0.02776197               -0.01283589                0.07259513               -0.00551898                0.17007317               -0.72591713
               4.59994772                7.47629751               29.90110299                0.07170245               -0.52894518                0.11201357               -0.21078316                0.15052319                5.97319563               -2.48524116
               5.58930046                7.31982107               29.87448438                0.00010000               -1.44257778                0.45513465               -0.14204496                0.00311064               14.64985288                0.90757600
               6.57109617                7.16710673               29.90810938                0.00010000               -1.87641148                0.60914908               -0.21506146               -0.02639873               17.65218477                0.61296767
               7.55177223                7.01336038               29.94010010                0.00010000               -1.93764315                0.65508891               -0.25745876               -0.37532384               17.58874462                0.84902237
               8.53234330                6.85888976               29.97058535                0.00010000               -1.88986506                0.54065815               -0.29929851               -0.73550889               17.61994945                1.38667166
               9.51397493                6.70485779               30.00104806                0.00010000               -1.73777886                0.28411196               -0.34725499               -0.96471594               17.79066775                2.09390933
              10.49758773                6.55321456               30.03267940                0.25254465               -0.73239171               -0.03462546               -0.39535192               -0.58092414                9.02986008                2.90652487
              11.49932710                6.41416127               29.88576808                0.59134006                0.22428676                0.15929100               -0.74444936                0.01696412                0.07317033                1.15564188
              12.50207346                6.27494663               29.73800678                1.00000000                0.27463648                0.40300273               -1.10214885               -0.00678902                0.03873954               -0.50719984
               2.75833219                8.79302161               30.14309860                1.00000000               -0.02072855               -0.07959902                0.21920689               -0.02294396                0.00785045                0.85704117
               3.75812490                8.63549882               29.99244909                0.53969220                0.01729267                0.02892409               -0.07272227               -0.00088377                0.05021391               -0.72335998
               4.75867804                8.47759074               29.84256821                0.04988916               -0.71134818                0.14253250               -0.36683803                0.28351301                8.35942059               -2.35967007
               5.74389794                8.32480627               29.85808302                0.00010000               -1.74130518                0.59487863               -0.18380809                0.30217740               17.98490308                0.56455549
               6.72385194                8.17409131               29.90009370                0.00010000               -2.10555275                0.82341475               -0.25318063                0.07809528               19.46541791                0.56797825
               7.70178688                8.02109241               29.94351420                0.00010000               -2.26362352                0.89399918               -0.26448841               -0.39579162               19.70887945                0.73525388
               8.67857946                7.86537534               29.98841416                0.00010000               -2.27929307                0.82767289               -0.25713595               -0.93028514               19.96907450                1.15535057
               9.65620102                7.70841602               30.03493251                0.02064676               -2.13530162                0.47916292               -0.27445787               -1.46150993               20.28248176                1.89659853
              10.63587343                7.55310038               30.08388508                0.28712764               -0.93987353                0.01352092               -0.31667020               -0.90946994               10.26865886                2.50914244
              11.63740355                7.41578024               29.92818246                0.58876386                0.20746992                0.16888432               -0.69667800               -0.00840685                0.03059371                0.98426307
              12.64002283                7.27882853               29.77208365                0.99553325                0.26192811                0.37142212               -1.06804324                0.00096579                0.02186289               -0.66628534
               2.91508966                9.79247182               30.10273388                1.00000000                0.02028971               -0.03247698                0.08095734               -0.02261338               -0.01340669                0.74934815
               3.91529255                9.63599317               29.94406478                0.56419758                0.06104356                0.06991341               -0.21649253                0.00086516                0.07931063               -0.61284324
               4.91631053                9.47914816               29.78716523                0.01142675               -0.82245555                0.17067057               -0.51463663                0.49701229               10.52175410               -1.60675686
               5.89884344                9.33171864               29.83730288                0.00010000               -1.99692965                0.90457471               -0.34432105                0.48258036               21.09573565                0.21737517
               6.87637194                9.18357502               29.89023008                0.00010000               -2.31355381                1.00904544               -0.32211065                0.15605103               21.43180890                0.30609186
               7.85257237                9.03124036               29.94490673                0.00010000               -2.49789727                1.08017578               -0.28788911               -0.24161212               21.79623809                0.41731892
               8.82641399                8.87544322               30.00309977                0.00010000               -2.77763356                1.10616136               -0.22185541               -0.76612268               22.36562802                0.66832461
               9.79701970                8.71444105               30.06738924                0.05688664               -2.71899402                0.99642013               -0.10237377               -1.47065169               22.66402267                1.32060487
              10.77203411                8.55348498               30.13010759                0.32576896               -1.17944466                0.07260646               -0.27991854               -1.27241316               11.48356105                1.59636420
              11.77343080                8.41753896               29.96882733                0.60179313                0.19810372                0.18344158               -0.67029676               -0.02983062                0.13890973                0.73312890
              12.77599618                8.28237507               29.80429920                0.97871867                0.25653811                0.34157281               -1.05083615                0.00302402               -0.00854631               -0.67645089
               3.07083721               10.79237207               30.05997185                1.00000000                0.06286478               -0.00997461               -0.05486822                0.02725741                0.41072427                0.63513036
               4.07146586               10.63689709               29.89771590                0.81963951                0.10277983                0.09039210               -0.35665491                0.04893479                0.82447386               -0.50799259
               5.07289281               10.48100416               29.74364080                0.50337032               -1.11715892                0.18559966               -0.65025765                0.95826190               12.47673117               -1.01158104
               6.04912268               10.34289777               29.81435448                0.36764854               -2.27207862                1.11791241               -0.49863184                0.69132689               23.53709048                0.05993751
               7.02745124               10.19427222               29.87765401                0.35757381               -2.20181187                1.06971975               -0.40498822                0.09783786               23.38266679                0.13730329
               8.00508644               10.04269593               29.94261866                0.37262137               -2.36974565                1.14555616               -0.33584987               -0.08727487               23.77974839                0.20804486
               8.98005632                9.88749857               30.01183022                0.41145484               -2.81701090                1.20553527               -0.22961986               -0.35334191               24.53728752                0.35688325
               9.94874623                9.72834442               30.09043735                0.54397261               -3.63645309                1.39033705                0.00646352               -1.47465020               24.71946139                0.83319507
              10.90732726                9.55455251               30.16280115                0.68521432               -2.04146927                0.10675300               -0.28728901               -1.91545258               12.99320152                0.94004238
              11.90791684                9.41944907               30.00595141                0.81917894                0.15419115                0.19101088               -0.66298433                0.00397785                0.99221271                0.57612467
              12.91041108                9.28565999               29.83786875                0.98528119                0.24942438                0.32849165               -1.04164074                0.06258207                0.44969072               -0.59210149
               1.55154830                0.86303655               31.45279787                1.00000000               -0.34148966               -0.36750734                1.27837201               -0.06092645               -0.91461524                0.93781638
               2.54813340                0.68896170               31.35388825                1.00000000               -0.29404322               -0.28988023                1.02900815               -0.04322584               -1.18500298                0.10351142
               3.54566743                0.51458003               31.24955298                1.00000000               -0.18933073               -0.21172290                0.76800906               -0.03826758               -1.14895565               -0.21419067
               4.54434678                0.34050602               31.15140457                0.62476770                0.11824864               -0.15775303                0.51279857                0.23745223               -0.29906176               -0.81769592
               5.54803240                0.17267163               31.06423377                0.71823307                0.25243877               -0.07171289                0.24013556               -0.07021395                0.05146279                0.26613038
               6.54939556                0.00976533               30.97426464                0.80127433                0.12447225                0.01758895               -0.03166376               -0.02829317               -0.27499245                0.15334208
               7.55052185               -0.15179634               30.88076870                0.77749064                0.14108395                0.09314237               -0.30331101               -0.01047988               -0.50583907               -0.07764232
               8.55221724               -0.31266995               30.78614866                0.85802344                0.19190546                0.17895307               -0.58643843               -0.01787154               -0.77240218                0.10560577
               9.55435996               -0.47359322               30.68708376                1.00000000                0.25429003                0.26056092               -0.86541696               -0.01772472               -1.07035243                0.56333137
              10.55730304               -0.63491160               30.58623144                1.00000000                0.33532781                0.33974390               -1.13469615               -0.03159141               -1.04159744               -0.00029791
              11.56106651               -0.79635437               30.48767568                1.00000000                0.37634748                0.42807527               -1.39652544               -0.03805167               -0.92790068               -0.92060474
               1.72501388                1.85936148               31.41178603                1.00000000               -0.30844807               -0.35156057                1.14972045               -0.02055068               -0.13441857                1.27830517
               2.72192940                1.68606290               31.31259863                1.00000000               -0.27506449               -0.26920529                0.90114578               -0.00094164               -0.14605367                0.14404230
               3.71951259                1.51246280               31.21313416                0.89592437               -0.21269477               -0.18732743                0.64503505                0.00667589                0.01292137               -0.54420438
               4.71767551                1.33892849               31.11709388                0.22098914               -0.34059921               -0.13470363                0.39572946                0.34146139                1.63452453               -1.20399702
               5.71270061                1.17195450               31.05002643                0.38882877               -0.31644474                0.02299491                0.16193096               -0.06926629                2.45092413                1.05961622
               6.71134661                1.00994122               30.96883563                0.49432233               -0.05329579                0.06594449               -0.09924258                0.06259639                1.53265286                0.46959779
               7.71163469                0.84913508               30.88297720                0.39829434                0.07951744                0.10449370               -0.35954352                0.10861605                1.44653248               -0.32338359
               8.71293696                0.68911958               30.80004949                0.51323317                0.18344219                0.19962120               -0.62522201                0.07530361                1.48193823                0.55636224
               9.71530354                0.52901239               30.71511199                1.00000000                0.27153714                0.26019925               -0.86893618                0.03208396                0.76031278                0.80943107
              10.71836770                0.36848583               30.61796821                1.00000000                0.34126148                0.33556994               -1.12918175                0.00990507                0.08627130                0.11981359
              11.72212877                0.20792638               30.51955074                1.00000000                0.37610626                0.43659204               -1.38902565                0.00420886                0.02366341               -1.07686775
               1.89773444                2.85600534               31.37756671                1.00000000               -0.27211983               -0.32510863                1.03085819               -0.01316644                0.04727782                1.61989353
               2.89501325                2.68357759               31.27211307                1.00000000               -0.23995455               -0.23239090                0.77902499                0.01196020                0.22192252                0.12354973
               3.89293535                2.51083348               31.17010543                0.58124577               -0.16644664               -0.14536984                0.52051936                0.02348307                0.73583360               -1.32182284
               4.89168431                2.33781195               31.07494163                0.00010000               -0.86505027               -0.10365346                0.24203452                0.48554043                4.66990417               -2.02452307
               5.87563435                2.17313153               31.05177743                0.00010000               -0.91087047                0.03279196                0.05636916                0.80417920                5.57573172               -1.19306256
               6.87346690                2.01108422               30.96978943                0.00010000               -0.10592663               -0.07455995               -0.17800900                0.62240869                2.28131440               -0.17464271
               7.87351582                1.85029353               30.88032926                0.00010000                0.01895487               -0.07973890               -0.39641155                0.47486731                3.50998229                0.67098440
               8.87384600                1.69132247               30.82302239                0.00010000                0.10597833               -0.03075487               -0.69548756                0.29688151                4.20081998                1.24604164
               9.87563538                1.53161077               30.74813512                0.50388235                0.23705769                0.24447348               -0.86992407               -0.01257260                2.24423820                1.66926557
              10.87858715                1.37179979               30.65211934                1.00000000                0.33171103                0.31364255               -1.11277428               -0.01478541                0.79844774                0.78841331
              11.88226960                1.21237747               30.54824516                1.00000000                0.36824474                0.45322574               -1.38511429               -0.00332131                0.40928573               -1.03998122
               2.06960605                3.85285931               31.34340123                1.00000000               -0.22655802               -0.30355502                0.90949984               -0.01164885                0.09893152                1.53033635
               3.06734047                3.68141508               31.23041101                1.00000000               -0.19290751               -0.19863662                0.65261087                0.01163248                0.13762304               -0.02516978
               4.06574790                3.50955540               31.11814258                0.34641737               -0.11260989               -0.10190881                0.40413677               -0.00941653                1.08308818               -1.67926076
               5.06508827                3.33685542               31.02405953                0.00010000               -0.51179887               -0.05699557                0.15452445                0.41370320                5.12960737               -2.72661196
               6.05551192                3.17261034               30.99287629                0.00010000               -0.92277453               -0.03430804               -0.03266327                1.05954702                7.84296718               -3.04723075
               7.04663278                3.00845002               30.95161278                0.00010000               -0.73090641               -0.10714164               -0.21520582                0.80145079                7.01968711               -0.78777164
               8.04089379                2.84754030               30.90223139                0.00010000               -0.45377116               -0.16175414               -0.41714903                0.58292145                6.55042804                1.46712263
               9.03755736                2.68850448               30.85055760                0.00010000               -0.31595145               -0.16849211               -0.61712505                0.49014426                6.19896675                1.89381505
              10.03457476                2.53390186               30.79330660                0.22578420               -0.01260293                0.08212630               -0.81578449                0.08923496                4.01916987                3.12742862
              11.03730530                2.37475869               30.69715306                0.94998811                0.31661158                0.27763018               -1.06792810               -0.06866720                1.06590743                1.26119518
              12.04090699                2.21699089               30.58059793                1.00000000                0.36016973                0.45611961               -1.35233124               -0.01169090                0.05501327               -0.66433680
               2.24038992                4.84993424               31.30742480                1.00000000               -0.18401210               -0.27475884                0.77770354               -0.01987305                0.15013819                1.32142282
               3.23854980                4.67960486               31.18693002                0.84355961               -0.15416212               -0.15587983                0.51898307               -0.00165763                0.22708223               -0.26224651
               4.23730668                4.50879530               31.06791259                0.20163680               -0.08231789               -0.04419891                0.27257076               -0.05294922                1.24619680               -1.70924770
               5.23690344                4.33667204               30.96778852                0.00010000               -0.60379952                0.06138217                0.03395326                0.23501674                6.71074111               -2.75527455
               6.22523069                4.17244536               30.95802683                0.00010000               -1.11687445                0.07923801               -0.10371280                0.42869683               10.87344747               -1.37801785
               7.21456595                4.00894139               30.94007349                0.00010000               -1.00554499                0.11246935               -0.24780491                0.31272188               10.18151941               -0.15647075
               8.20511979                3.84705845               30.91515236                0.00010000               -0.86393119                0.04153421               -0.40664691                0.19925160                9.70088817                1.14123347
               9.19728733                3.68795263               30.88597271                0.00010000               -0.69769554               -0.00830055               -0.57340925                0.17861366                9.51329615                2.37548846
              10.19116588                3.53325329               30.85563855                0.19386373               -0.15812747               -0.11437333               -0.75258574                0.04694222                5.31193038                3.82971349
              11.19412478                3.37735240               30.74067675                0.73327335                0.32027451                0.22397267               -0.98625491               -0.02111017                0.63646625                1.34177380
              12.19757137                3.22149986               30.61643669                1.00000000                0.34465879                0.45547703               -1.30024559               -0.03869688                0.18067394               -0.41618802
               2.40986734                5.84736413               31.26911121                1.00000000               -0.14210921               -0.23272390                0.63677763               -0.02567144                0.13042936                1.10005488
               3.40844625                5.67829748               31.14044563                0.67993205               -0.11228044               -0.10360660                0.36437268               -0.01183678                0.30875129               -0.53409562
               4.40762173                5.50867142               31.01527867                0.13325543               -0.11538543                0.02066293                0.10959443               -0.04563295                1.79948158               -2.03574373
               5.40613854                5.33808307               30.91642881                0.00010000               -0.79026149                0.22573924               -0.10062030               -0.00985452                8.85750882               -1.39212331
               6.39181650                5.17419510               30.93240441                0.00010000               -1.39322058                0.26028969               -0.15740907                0.12381517               13.97796574               -0.46488630
               7.37827413                5.01069941               30.93480710                0.00010000               -1.29744599                0.25371093               -0.26540274               -0.06341300               13.05170815                0.39228262
               8.36586758                4.84837099               30.93070428                0.00010000               -1.16696735                0.19092866               -0.38938461               -0.18009356               12.66354407                1.36630145
               9.35493478                4.68833847               30.92343111                0.00010000               -0.98768730                0.06558703               -0.52062812               -0.19926177               12.57639868                2.44842280
              10.34611384                4.53161440               30.91544607                0.19785984               -0.31491278               -0.14789002               -0.66362293               -0.10364838                6.64632766                3.56198638
              11.34863653                4.37923814               30.78729238                0.64478657                0.28621471                0.17255885               -0.89568627                0.03414239                0.36726464                1.46114186
              12.35183813                4.22610044               30.65338147                1.00000000                0.32016047                0.45333310               -1.22278669               -0.02634830                0.08407816               -0.32547793
               2.57800978                6.84527976               31.22872947                1.00000000               -0.10040152               -0.18156287                0.49043054               -0.02511088                0.06167959                0.93626431
               3.57700577                6.67753273               31.09145678                0.58065474               -0.07006748               -0.05294284                0.21225240               -0.01223644                0.27526564               -0.69679517
               4.57660843                6.50920856               30.95838587                0.09450622               -0.29115458                0.07868894               -0.05295858                0.01869170                3.59156549               -2.36496067
               5.57118268                6.34118682               30.88744685                0.00010000               -1.07588938                0.34075393               -0.12839990               -0.19763082               11.66675609                0.45028332
               6.55509065                6.17765116               30.91589019                0.00010000               -1.60304377                0.41597172               -0.18603945               -0.13279675               16.21651128                0.30065761
               7.53912180                6.01401561               30.93456107                0.00010000               -1.56058943                0.41611364               -0.27331403               -0.35166581               15.59171184                0.77222220
               8.52387886                5.85087702               30.94861902                0.00010000               -1.45315577                0.32235371               -0.36474966               -0.54411808               15.38246676                1.49632201
               9.51005869                5.68926437               30.96086642                0.00010000               -1.28428085                0.13614319               -0.45730892               -0.64722644               15.41896899                2.36816131
              10.49819324                5.53029549               30.97321831                0.21749264               -0.48685489               -0.10127029               -0.54861101               -0.36309193                7.93729238                3.30957192
              11.50032159                5.38080358               30.83340031                0.59658007                0.25632844                0.15612459               -0.82723052                0.04047327                0.19871074                1.36296365
              12.50331981                5.23056652               30.69072638                1.00000000                0.29982212                0.43887707               -1.17013819               -0.01539770                0.06283790               -0.35371005
               2.74485919                7.84373287               31.18714654                1.00000000               -0.05864683               -0.12797883                0.34533469               -0.02400877                0.02356459                0.85969223
               3.74427272                7.67723863               31.04162106                0.53423995               -0.02588585               -0.00841657                0.06368595               -0.00713371                0.17163540               -0.73973938
               4.74434147                7.51024520               30.89898197                0.06909009               -0.52646964                0.11954962               -0.21365850                0.09829128                6.16682277               -2.51581376
               5.73374333                7.34489815               30.87335889                0.00010000               -1.40048447                0.41983704               -0.08807838               -0.11997090               14.93741801                1.00692830
               6.71633178                7.18251453               30.90599813                0.00010000               -1.78641896                0.57467329               -0.21142326               -0.17929248               17.87714961                0.66930136
               7.69801495                7.01902168               30.93743896                0.00010000               -1.82976608                0.61728417               -0.27886058               -0.52242992               17.85232042                0.91246655
               8.67973646                6.85481806               30.96743071                0.00010000               -1.77215830                0.49998476               -0.33576064               -0.87759229               17.90024639                1.47262694
               9.66257178                6.69106133               30.99737506                0.00010000               -1.62118333                0.25264052               -0.39088255               -1.10970602               18.08619753                2.19335819
              10.64731280                6.52958899               31.02852521                0.24697792               -0.66984089               -0.03976435               -0.43745487               -0.65543639                9.19025824                3.00908584
              11.64917497                6.38236063               30.87818155                0.57350007                0.23457449                0.16280906               -0.77540725                0.02112962                0.07863698                1.20278269
              12.65200429                6.23487798               30.72686284                0.99392805                0.28293192                0.41792159               -1.13171368               -0.00483442                0.03874564               -0.48539006
               2.91051810                8.84272018               31.14520889                1.00000000               -0.01673364               -0.07578742                0.20251977               -0.02314662                0.00737047                0.85407950
               3.91035076                8.67736440               30.99167447                0.53506424                0.01983202                0.03275909               -0.08246187               -0.00196318                0.04860720               -0.73488224
               4.91091474                8.51159955               30.83888363                0.04684508               -0.69184167                0.14659320               -0.37145797                0.21362427                8.59860086               -2.38411939
               5.89651393                8.34958356               30.85632498                0.00010000               -1.67667407                0.57031922               -0.17659795                0.18196301               18.34381393                0.55555276
               6.87738126                8.18914462               30.89753624                0.00010000               -2.00721284                0.78868747               -0.26330468               -0.05098457               19.72946840                0.59732000
               7.85636967                8.02636129               30.94075144                0.00010000               -2.15469480                0.85753807               -0.29285643               -0.52337814               20.02675393                0.78426311
               8.83428736                7.86087672               30.98567417                0.00010000               -2.16380169                0.78953147               -0.29583336               -1.05871279               20.30127701                1.23881784
               9.81309364                7.69431718               31.03197703                0.02122287               -2.02510729                0.44561928               -0.32048183               -1.59790684               20.60799018                2.05026645
              10.79378522                7.52950021               31.08049060                0.28332237               -0.88192221                0.02134031               -0.36202083               -0.97566920               10.42617743                2.57382968
              11.79545519                7.38405976               30.92101141                0.57106003                0.22016068                0.18001589               -0.73896966               -0.00609142                0.02481569                1.01610765
              12.79818843                7.23892495               30.76122483                0.97994899                0.27332357                0.38797248               -1.10758728                0.00368549                0.02130675               -0.65644118
               3.07510783                9.84221712               31.10345225                1.00000000                0.02462569               -0.02721017                0.06228858               -0.02268294               -0.01451428                0.74927841
               4.07535409                9.67789381               30.94184922                0.56123453                0.06434795                0.07317757               -0.22677048               -0.00010464                0.07677185               -0.62150941
               5.07639479                9.51317707               30.78198342                0.01021229               -0.77582849                0.17187263               -0.52076349                0.41786970               10.74914935               -1.62029764
               6.05983752                9.35630453               30.83378523                0.00010000               -1.89302134                0.86935319               -0.36449664                0.38531896               21.49700873                0.16318146
               7.03853436                9.19828828               30.88690802                0.00010000               -2.20111131                0.97490625               -0.34756536                0.06792422               21.77975442                0.31363895
               8.01581529                9.03617245               30.94186874                0.00010000               -2.39640228                1.05041970               -0.32524150               -0.32245746               22.18046446                0.44387491
               8.99060632                8.87060869               31.00070442                0.00010000               -2.69125676                1.08264313               -0.26378116               -0.85536232               22.81199290                0.72301931
               9.96199016                8.69997372               31.06626548                0.06104141               -2.62747413                0.96923385               -0.13006125               -1.56709572               22.99288299                1.49035388
              10.93805684                8.53001580               31.12701750                0.32481345               -1.11808831                0.08914050               -0.33668578               -1.31704981               11.56968301                1.61562453
              11.93962839                8.38596095               30.96185301                0.58303067                0.21453824                0.20030203               -0.72529148               -0.02859605                0.13453869                0.74547010
              12.94234760                8.24263743               30.79355551                0.96451650                0.27192092                0.35872779               -1.10095939                0.00591071               -0.00628300               -0.67665821
               3.23871107               10.84217598               31.05932342                1.00000000                0.06776552               -0.00411413               -0.07534196                0.02552057                0.41036714                0.63660206
               4.23938873               10.67882795               30.89409702                0.81878965                0.10751699                0.09341416               -0.36727829                0.04651491                0.82697613               -0.51466833
               5.24086141               10.51503701               30.73710393                0.50213543               -1.01398165                0.18599402               -0.65537170                0.85379589               12.70039850               -1.01834452
               6.21910909               10.36697063               30.80926889                0.36791169               -2.09947921                1.06660988               -0.52172934                0.60744446               23.97228862                0.01049367
               7.19887183               10.20864275               30.87344870                0.35773973               -2.07544904                1.03544674               -0.44136456                0.05369906               23.79772876                0.13694832
               8.17760011               10.04736969               30.93905598                0.37240592               -2.27464923                1.11972411               -0.38291904               -0.12717655               24.21905672                0.22148691
               9.15337884                9.88252958               31.00932357                0.41065091               -2.76277462                1.19208885               -0.27962681               -0.40613919               25.08175371                0.39017865
              10.12234462                9.71370186               31.09045220                0.54728291               -3.59609253                1.37281381               -0.01550028               -1.52688203               25.05596325                0.96898201
              11.08145699                9.53128302               31.15955391                0.68587192               -2.00414881                0.12672209               -0.36122699               -1.94178757               13.03078661                0.93571153
              12.08226164                9.38806580               30.99896986                0.80928632                0.17483490                0.21048485               -0.73426590                0.00414976                1.00625706                0.57894361
              13.08495369                9.24609951               30.82715010                0.98129662                0.26920456                0.34620833               -1.10527083                0.06398003                0.46475032               -0.59473670
               1.64248712                0.91413735               32.46555547                1.00000000               -0.34131361               -0.36692340                1.27425257               -0.05936907               -0.92950497                0.95166730
               2.63907398                0.73194501               32.36416609                1.00000000               -0.29560023               -0.28937564                1.02746723               -0.03924563               -1.20846657                0.10701236
               3.63657511                0.54944731               32.25721265                1.00000000               -0.19524009               -0.21177649                0.76664703               -0.03538746               -1.17958591               -0.21594443
               4.63516918                0.36713343               32.15649383                0.62440957                0.08626764               -0.15433578                0.51246377                0.18929685               -0.33356092               -0.82629636
               5.63830047                0.18994444               32.06662953                0.71892040                0.22059121               -0.07552618                0.23919508               -0.07395028                0.01994156                0.27077012
               6.63958101                0.01707608               31.97397398                0.80314564                0.12117938                0.01420234               -0.02540551               -0.03427493               -0.30154603                0.15701369
               7.64072406               -0.15449832               31.87778819                0.78146640                0.14716102                0.08958910               -0.29096606               -0.01536470               -0.53840231               -0.07539539
               8.64252423               -0.32532927               31.78034044                0.85833665                0.20378705                0.17514920               -0.57143864               -0.02509652               -0.81267751                0.10494127
               9.64479980               -0.49592481               31.67848453                1.00000000                0.26234086                0.25615634               -0.84972091               -0.02423497               -1.10586805                0.57323115
              10.64777104               -0.66670374               31.57492974                1.00000000                0.33594403                0.33916609               -1.12248675               -0.03038933               -1.07031780               -0.00426764
              11.65151868               -0.83760780               31.47374120                1.00000000                0.37476335                0.43153456               -1.38835897               -0.03417038               -0.95420349               -0.94688760
               1.82408577                1.91046812               32.42325421                1.00000000               -0.30592239               -0.35200410                1.14418256               -0.01907321               -0.13812373                1.29629474
               2.82102655                1.72905125               32.32159177                1.00000000               -0.27293737               -0.26908497                0.89790738                0.00238244               -0.15189430                0.15155687
               3.81862703                1.54732954               32.21961458                0.88845951               -0.21064820               -0.18797288                0.64850535                0.00816615                0.00968120               -0.55154098
               4.81681359                1.36559008               32.12114548                0.22916536               -0.30186909               -0.13279417                0.40222787                0.27978427                1.63947529               -1.24557755
               5.81258964                1.18918917               32.05163710                0.39532689               -0.26769744                0.01099965                0.15298896               -0.07170009                2.45013586                1.04548629
               6.81145964                1.01721810               31.96785120                0.50130022               -0.04082816                0.06034106               -0.10069551                0.04622098                1.52631239                0.46552669
               7.81177308                0.84639757               31.87940255                0.40757628                0.07634350                0.10756935               -0.35594141                0.09014090                1.43912839               -0.31235632
               8.81298651                0.67642222               31.79378480                0.51574761                0.17358010                0.20123501               -0.62529613                0.05245572                1.48598734                0.53759982
               9.81524468                0.50663675               31.70639770                1.00000000                0.26610689                0.25931716               -0.87372931                0.01938872                0.76870128                0.81879202
              10.81830864                0.33668792               31.60664598                1.00000000                0.34181755                0.33812608               -1.13612465                0.01092787                0.08666415                0.12054281
              11.82208103                0.16670754               31.50561525                1.00000000                0.37723898                0.44655009               -1.40040678                0.00843734                0.02441161               -1.10482790
               2.00493939                2.90709727               32.38784148                1.00000000               -0.26791815               -0.32707547                1.02372592               -0.01251464                0.05097949                1.64011823
               3.00226021                2.72656331               32.27988917                1.00000000               -0.23698894               -0.23225919                0.77449823                0.01175192                0.22441855                0.13129277
               4.00019961                2.54568785               32.17530554                0.58875077               -0.16774867               -0.14371736                0.52558811                0.01816988                0.73240302               -1.32825577
               4.99890523                2.36447755               32.07742586                0.00010000               -0.74805835               -0.10268065                0.25900717                0.40313800                4.70500011               -2.07228012
               5.98523844                2.19016443               32.05219825                0.00010000               -0.78041009                0.01368750                0.02209470                0.63814415                5.61892427               -1.20630996
               6.98329703                2.01828290               31.96796783                0.00010000               -0.09578467               -0.07068399               -0.18995902                0.47764571                2.32173071               -0.16443443
               7.98332275                1.84765306               31.87635747                0.00010000                0.00185631               -0.06585877               -0.40277728                0.34819681                3.51454539                0.69654306
               8.98333416                1.67869543               31.81598680                0.00010000                0.07995623               -0.01424618               -0.70996811                0.20337341                4.23786922                1.28508967
               9.98492187                1.50926153               31.73934305                0.49899609                0.22923240                0.24075151               -0.89260148               -0.04678895                2.31488778                1.71190859
              10.98791881                1.34005878               31.64088784                1.00000000                0.33631507                0.31914743               -1.13756249               -0.02054752                0.82250200                0.81227372
              11.99164818                1.17132320               31.53427253                1.00000000                0.37293693                0.47184571               -1.41569913               -0.00212217                0.42104169               -1.04918731
               2.18490340                3.90392661               32.35245739                1.00000000               -0.22323965               -0.30576145                0.90083722               -0.01246152                0.10492703                1.54251777
               3.18267101                3.72440607               32.23691342                1.00000000               -0.19136130               -0.19711981                0.64760124                0.00961108                0.14913923               -0.02470259
               4.18107618                3.54445519               32.12217346                0.35128294               -0.11356214               -0.09678364                0.40257673               -0.01922774                1.10033182               -1.68300001
               5.18039976                3.36353646               32.02565141                0.00010000               -0.47644986               -0.05916840                0.15731243                0.32554527                5.18750276               -2.75624919
               6.17154718                3.18946292               31.99249294                0.00010000               -0.84379244               -0.03939968               -0.04302614                0.81242780                7.92362586               -3.02601966
               7.16352392                3.01580442               31.94937344                0.00010000               -0.66113488               -0.10556649               -0.23581613                0.57768310                7.09688220               -0.74555922
               8.15832448                2.84508039               31.89795094                0.00010000               -0.40392038               -0.15630380               -0.44250611                0.38226631                6.62464087                1.51757450
               9.15544551                2.67613730               31.84426626                0.00010000               -0.26894639               -0.16274720               -0.64707250                0.33661072                6.28324819                1.98943803
              10.15294556                2.51145178               31.78506982                0.22091309                0.01952570                0.06191608               -0.83107412                0.02759657                4.08329862                3.19253755
              11.15583602                2.34307087               31.68632805                0.92759589                0.32820979                0.27956714               -1.09716332               -0.07578356                1.09713841                1.32254466
              12.15950975                2.17614446               31.56691150                1.00000000                0.36737286                0.47474620               -1.38480766               -0.01506912                0.07324652               -0.63883367
               2.36373124                4.90098204               32.31515426                1.00000000               -0.18073992               -0.27635202                0.76759918               -0.02101930                0.15991832                1.32263802
               3.36192384                4.72262091               32.19208791                0.83582062               -0.15232922               -0.15251920                0.51230735               -0.00412340                0.24338807               -0.27483892
               4.36068466                4.54375218               32.07062286                0.20198785               -0.07577165               -0.03732476                0.26921446               -0.07061965                1.27508396               -1.73191425
               5.36040841                4.36329418               31.96818950                0.00010000               -0.57328071                0.06495095                0.03615351                0.13670721                6.79511006               -2.78979808
               6.34921904                4.18937644               31.95695736                0.00010000               -1.05875914                0.08128294               -0.11111187                0.25705593               10.99914845               -1.34016430
               7.33923323                4.01617157               31.93750158                0.00010000               -0.92919232                0.09830268               -0.26957208                0.13626942               10.30469333               -0.09939762
               8.33063520                3.84452699               31.91094096                0.00010000               -0.77691207                0.02566735               -0.44016604                0.03269108                9.82328757                1.21658082
               9.32369498                3.67544049               31.88007972                0.00010000               -0.60474796               -0.02941382               -0.61288881                0.02202777                9.64095675                2.46063559
              10.31854024                3.51049985               31.84797744                0.18757391               -0.09922641               -0.14943595               -0.78262073               -0.02228432                5.42378297                3.89946202
              11.32171046                3.34565012               31.73068114                0.70727020                0.33296885                0.21731564               -1.00376086               -0.02621935                0.68532260                1.42710420
              12.32519961                3.18081812               31.60331659                1.00000000                0.34891573                0.47148681               -1.31594063               -0.04619455                0.18483448               -0.36424432
               2.54120528                5.89839957               32.27542192                1.00000000               -0.13868729               -0.23350123                0.62497133               -0.02661182                0.13131519                1.09357670
               3.53981840                5.72135568               32.14405231                0.67282738               -0.11073822               -0.09883489                0.35682089               -0.01483983                0.31855204               -0.55441614
               4.53899051                5.54370870               32.01635906                0.13209569               -0.11543769                0.02978900                0.10634257               -0.06448300                1.84365957               -2.07088227
               5.53750965                5.36483548               31.91550274                0.00010000               -0.75897984                0.22424956               -0.08919425               -0.12763934                8.99658230               -1.35463876
               6.52381091                5.19108858               31.93083383                0.00010000               -1.32054486                0.24756614               -0.15949776               -0.05744101               14.16481535               -0.40541159
               7.51109875                5.01777047               31.93205556                0.00010000               -1.20507649                0.23158222               -0.28868145               -0.22731353               13.21603363                0.46142571
               8.49970938                4.84559374               31.92664500                0.00010000               -1.05927758                0.16176031               -0.42791742               -0.33628072               12.83209882                1.44965511
               9.48991320                4.67554902               31.91802452                0.00010000               -0.87095759                0.03562868               -0.56804361               -0.36127187               12.75338862                2.54476882
              10.48229023                4.50846306               31.90860479                0.19061728               -0.24599192               -0.17973352               -0.71351145               -0.18323592                6.79475080                3.66985608
              11.48499336                4.34741718               31.77828435                0.62143071                0.29798124                0.16572006               -0.91086401                0.03315833                0.42449692                1.53580285
              12.48824986                4.18557419               31.64109761                1.00000000                0.32564962                0.46973910               -1.24302822               -0.02758224                0.08955717               -0.27681732
               2.71728677                6.89631201               32.23356740                1.00000000               -0.09688615               -0.18106685                0.47689982               -0.02578252                0.06083460                0.92764964
               3.71631791                6.72064421               32.09353819                0.57420929               -0.06857896               -0.04767351                0.20384313               -0.01529083                0.28097439               -0.71313923
               4.71591520                6.54434796               31.95784131                0.09222209               -0.29210875                0.08873853               -0.05611611               -0.01546017                3.71125676               -2.39703825
               5.71047574                6.36777917               31.88643038                0.00010000               -1.03899820                0.31230167               -0.07660070               -0.32485910               11.87443460                0.57827603
               6.69513523                6.19432776               31.91405448                0.00010000               -1.51469692                0.38790589               -0.18492890               -0.31138980               16.41049976                0.37025911
               7.68018180                6.02080321               31.93172296                0.00010000               -1.45020995                0.38244304               -0.29892341               -0.51391283               15.79095300                0.84467447
               8.66613103                5.84776219               31.94478728                0.00010000               -1.32907870                0.28467033               -0.40718046               -0.69736998               15.59838042                1.58404423
               9.65360023                5.67615306               31.95606927                0.00010000               -1.15618359                0.10326661               -0.50877826               -0.80829168               15.65391727                2.47422107
              10.64300736                5.50690518               31.96750352                0.21012177               -0.41688681               -0.11695363               -0.60181776               -0.44461832                8.10049648                3.44168923
              11.64526249                5.34896452               31.82502412                0.57638036                0.26632912                0.15943233               -0.85547287                0.04382861                0.23698824                1.42352062
              12.64833394                5.19021291               31.67891354                0.99532525                0.30714536                0.45830914               -1.20309443               -0.01336529                0.06405690               -0.31891435
               2.89202523                7.89477823               32.19052421                1.00000000               -0.05485846               -0.12572583                0.33001602               -0.02451888                0.02282153                0.85294931
               3.89147665                7.72040221               32.04221243                0.52854309               -0.02394421               -0.00356012                0.05429715               -0.00951873                0.17309015               -0.75254257
               4.89154635                7.54548347               31.89682982                0.06614803               -0.52219902                0.12794747               -0.21769752                0.03818286                6.38343192               -2.54455820
               5.88103266                7.37108152               31.87272281                0.00010000               -1.34936324                0.38559075               -0.04580309               -0.24954522               15.22259400                1.08158705
               6.86455908                7.19884670               31.90388091                0.00010000               -1.68233027                0.54000289               -0.21705785               -0.33912890               18.05989659                0.72178352
               7.84738606                7.02541933               31.93452289                0.00010000               -1.70734723                0.57723435               -0.30958510               -0.67786610               18.09038157                0.97815430
               8.83041214                6.85128715               31.96387013                0.00010000               -1.63908400                0.45579000               -0.38207562               -1.02782950               18.16478919                1.56534210
               9.81460438                6.67761436               31.99323041                0.00010000               -1.49128664                0.21889343               -0.44364828               -1.26094937               18.37697755                2.30252866
              10.80058640                6.50612399               32.02393030                0.24045693               -0.60210858               -0.04102487               -0.48584891               -0.73266434                9.35713614                3.12748656
              11.80256221                6.35060583               31.87025993                0.55518385                0.24496926                0.17331994               -0.81279591                0.02597663                0.08969810                1.25607494
              12.80548579                6.19474038               31.71537251                0.97600415                0.29235807                0.43970647               -1.17270100               -0.00213628                0.03931404               -0.45548584
               3.06554843                8.89379750               32.14714899                1.00000000               -0.01261344               -0.07176884                0.18534092               -0.02343940                0.00673093                0.84986170
               4.06542230                8.72057301               31.99079985                0.53105054                0.02255573                0.03691091               -0.09278660               -0.00352124                0.04532193               -0.74505432
               5.06599955                8.54690691               31.83513905                0.04406008               -0.66503483                0.15192175               -0.37815376                0.13645725                8.83478531               -2.40549659
               6.05212160                8.37549099               31.85455106                0.00010000               -1.59923563                0.54784217               -0.18678457                0.05236320               18.69130952                0.51435937
               7.03401483                8.20512782               31.89482761                0.00010000               -1.89687845                0.75443232               -0.28418588               -0.19093286               19.97057427                0.61878542
               8.01418403                8.03234790               31.93765707                0.00010000               -2.03177067                0.81969967               -0.33189565               -0.66253082               20.32315653                0.83361145
               8.99337942                7.85687799               31.98249749                0.00010000               -2.03198187                0.74835311               -0.34657890               -1.19859991               20.61913511                1.32885636
               9.97354440                7.68053093               32.02852287                0.02109058               -1.90084101                0.40793029               -0.37618526               -1.74167092               20.92921799                2.22131674
              10.95536260                7.50608468               32.07664466                0.27868854               -0.81893813                0.03050836               -0.40797328               -1.04230875               10.58548717                2.64815485
              11.95716563                7.35243092               31.91340306                0.55319041                0.23297589                0.19420428               -0.78432419               -0.00281463                0.01927581                1.05381955
              12.96002212                7.19900704               31.74993191                0.96451304                0.28564862                0.40881320               -1.15472825                0.00659801                0.02077813               -0.63694106
               3.23800542                9.89334285               32.10397965                1.00000000                0.02913954               -0.02178660                0.04305087               -0.02279626               -0.01565194                0.74771576
               4.23829681                9.72114043               31.93952937                0.55884901                0.06760464                0.07675607               -0.23758563               -0.00091903                0.07247508               -0.62838659
               5.23935751                9.54852190               31.77674996                0.00959450               -0.72188975                0.17446700               -0.52529516                0.33136447               10.96024682               -1.62777866
               6.22385902                9.38203836               31.83001295                0.00010000               -1.77369986                0.83246637               -0.39446303                0.27577651               21.87536503                0.10200943
               7.20388351                9.21393535               31.88327878                0.00010000               -2.07368766                0.94010107               -0.38406898               -0.03105717               22.10931633                0.31537196
               8.18238527                9.04181333               31.93840190                0.00010000               -2.28132031                1.02016420               -0.37481343               -0.41362316               22.54620311                0.47000241
               9.15825711                8.86625421               31.99782415                0.00010000               -2.59104968                1.05929226               -0.32178936               -0.95623045               23.25386905                0.78190543
              10.13056427                8.68577296               32.06478801                0.06479638               -2.52084363                0.94098494               -0.17966408               -1.67146510               23.31440353                1.68038982
              11.10784023                8.50673416               32.12337388                0.32348540               -1.04903544                0.10546153               -0.39068518               -1.36101575               11.64275031                1.63570789
              12.10958356                8.35448991               31.95432150                0.56439514                0.23126446                0.21816678               -0.78143092               -0.02686760                0.12847604                0.75991464
              13.11246552                8.20291664               31.78228001                0.95036532                0.28819614                0.37845262               -1.15671485                0.00884702               -0.00434244               -0.66999863
               3.40949735               10.89336177               32.05846501                1.00000000                0.07275124                0.00189134               -0.09641089                0.02383011                0.40952341                0.63643528
               4.41022487               10.72210813               31.89037033                0.81808747                0.11157764                0.09677019               -0.37874672                0.04452923                0.82745768               -0.51922263
               5.41172891               10.55039625               31.73053337                0.50117763               -0.90005884                0.18743409               -0.65955109                0.73874886               12.90457102               -1.01736008
               6.39222369               10.39214032               31.80391989                0.36814745               -1.90550919                1.01019574               -0.55125583                0.51314668               24.37783596               -0.03445914
               7.37361872               10.22392984               31.86882672                0.35789965               -1.93154901                0.99944899               -0.48844848                0.00406424               24.18734079                0.13338241
               8.35359271               10.05275118               31.93496028                0.37219987               -2.16617718                1.09378554               -0.44374902               -0.17255553               24.63805128                0.23497704
               9.33029518                9.87806384               32.00623768                0.40982518               -2.69787816                1.18096312               -0.34891420               -0.46622055               25.62487259                0.42678503
              10.29963515                9.69935063               32.09012734                0.55048642               -3.54349226                1.35776676               -0.07114232               -1.58640884               25.37955010                1.12228738
              11.25942533                9.50819391               32.15557661                0.68647955               -1.95946753                0.14597584               -0.43263002               -1.96930859               13.04476372                0.92806085
              12.26044580                9.35679426               31.99126609                0.79960447                0.19601353                0.23043454               -0.80656031                0.00533197                1.01845143                0.58111468
              13.26334560                9.20657609               31.81576333                0.97439630                0.28998094                0.36594471               -1.17448714                0.06619095                0.47981192               -0.59287330
               1.73573697                0.96667243               33.47828292                1.00000000               -0.34300773               -0.36710672                1.27282194               -0.05825235               -0.94393751                0.96412793
               2.73230689                0.77625059               33.37443760                1.00000000               -0.29944954               -0.28796380                1.02718489               -0.03833103               -1.23084441                0.11041677
               3.72974798                0.58545729               33.26488592                1.00000000               -0.20241008               -0.21181995                0.76904773               -0.03823712               -1.20524985               -0.21246062
               4.72825869                0.39467679               33.16165384                0.62547816                0.06015544               -0.15918779                0.51974103                0.14910914               -0.36747002               -0.83431281
               5.73095108                0.20807188               33.06901767                0.71764147                0.19736483               -0.07763823                0.23720221               -0.07162930               -0.01256156                0.27423292
               6.73220598                0.02515116               32.97375653                0.80245182                0.12181298                0.01067452               -0.01894807               -0.04010040               -0.31894583                0.16015539
               7.73338734               -0.15653298               32.87494938                0.78515948                0.15306830                0.08516522               -0.27672705               -0.02091897               -0.56018417               -0.07173471
               8.73526735               -0.33745985               32.77471989                0.86264430                0.21329784                0.16850630               -0.54841990               -0.03167746               -0.84199362                0.10492595
               9.73765330               -0.51795495               32.67008934                1.00000000                0.26863288                0.24846610               -0.82427176               -0.03217115               -1.13617281                0.57952146
              10.74064001               -0.69842945               32.56378171                1.00000000                0.33531039                0.33680357               -1.10321834               -0.02992065               -1.09749066               -0.00888907
              11.74435951               -0.87904022               32.45990851                1.00000000                0.37195009                0.43387153               -1.37485167               -0.02918282               -0.97915971               -0.97393176
               1.92557629                1.96300136               33.43466968                1.00000000               -0.30451381               -0.35339546                1.13991854               -0.01695710               -0.14292080                1.31293111
               2.92253115                1.77337095               33.33055678                1.00000000               -0.27118907               -0.26843980                0.89573515                0.00342006               -0.15889461                0.15783503
               3.92015250                1.58333909               33.22610427                0.90365645               -0.20443320               -0.18739070                0.64354398                0.00063556                0.00032246               -0.54599433
               4.91844248                1.39308491               33.12513844                0.23817226               -0.25774496               -0.14081834                0.38621068                0.22946590                1.63016709               -1.25780147
               5.91499760                1.20729550               33.05308621                0.40011654               -0.21675358                0.00388027                0.13380020               -0.06536138                2.45005098                1.02367532
               6.91410741                1.02525791               32.96682172                0.50590367               -0.02569717                0.05610686               -0.10967886                0.02797434                1.53081342                0.46201393
               7.91448366                0.84431867               32.87585838                0.41555050                0.07770732                0.11044951               -0.35601527                0.06838537                1.43658905               -0.30071648
               8.91566156                0.66422521               32.78754357                0.51809638                0.16663617                0.20013309               -0.62034956                0.02807524                1.48852660                0.52005390
               9.91781638                0.48452971               32.69763740                1.00000000                0.26109403                0.25658871               -0.87616141                0.00460927                0.77623007                0.82537932
              10.92088344                0.30493859               32.59524572                1.00000000                0.34310352                0.33963209               -1.14374257                0.01182400                0.08742506                0.11984058
              11.92467846                0.12529849               32.49154261                1.00000000                0.37950165                0.45688496               -1.41430707                0.01406737                0.02531883               -1.13629871
               2.11465865                2.95960452               33.39804123                1.00000000               -0.26210914               -0.33022423                1.01667657               -0.01146147                0.05110376                1.65973073
               3.11203756                2.77088179               33.28760303                1.00000000               -0.23059624               -0.23243287                0.76920321                0.00904946                0.22808370                0.14014596
               4.11004673                2.58170948               33.18061719                0.60325796               -0.15729812               -0.13805080                0.53089727               -0.00786631                0.72903251               -1.32498434
               5.10889160                2.39186042               33.08012177                0.00010000               -0.62879329               -0.10590562                0.26183384                0.32581839                4.68996335               -2.07509559
               6.09747086                2.20814949               33.05221932                0.00010000               -0.65746489                0.00176669               -0.01741700                0.48388380                5.64768890               -1.20199136
               7.09574230                2.02627330               32.96599025                0.00010000               -0.08415564               -0.06264066               -0.21208156                0.32657682                2.37904537               -0.14926056
               8.09578775                1.84567601               32.87227372                0.00010000               -0.00622442               -0.05051822               -0.42092761                0.21398181                3.52063047                0.72073927
               9.09561781                1.66654281               32.80882303                0.00010000                0.06221783               -0.00124409               -0.72003042                0.09713503                4.26511693                1.32122207
              10.09703210                1.48717683               32.73028309                0.48734119                0.22449485                0.22942525               -0.92408364               -0.09085277                2.38168096                1.76905460
              11.10010771                1.30836320               32.62936809                1.00000000                0.34444710                0.32388418               -1.17058318               -0.02782022                0.84751047                0.84072090
              12.10392105                1.13009748               32.51993118                1.00000000                0.38133382                0.49358330               -1.45759805               -0.00024253                0.43303766               -1.05605703
               2.30279252                3.95639688               33.36141797                1.00000000               -0.21853361               -0.30910290                0.89165811               -0.01434135                0.10979752                1.55513716
               3.30060718                3.76872229               33.24336304                1.00000000               -0.18879835               -0.19562979                0.64217136                0.00462993                0.15827616               -0.02108160
               4.29901655                3.58057808               33.12619412                0.35650957               -0.10441690               -0.08690310                0.40214704               -0.05477304                1.11189619               -1.68678240
               5.29851884                3.39096680               33.02720577                0.00010000               -0.43770722               -0.04178380                0.15368972                0.21661492                5.22024427               -2.75352125
               6.29026240                3.20733084               32.99201577                0.00010000               -0.77032073               -0.04241506               -0.05565715                0.57345055                7.98346604               -2.98113320
               7.28311243                3.02400509               32.94689646                0.00010000               -0.58843083               -0.10009890               -0.26237206                0.34556975                7.16004173               -0.69611956
               8.27849379                2.84330831               32.89338127                0.00010000               -0.35044932               -0.14900024               -0.47377128                0.17074411                6.68985582                1.56829972
               9.27610344                2.66420033               32.83761615                0.00010000               -0.21574234               -0.15678646               -0.68744076                0.16310418                6.36348763                2.08948081
              10.27417894                2.48911822               32.77668512                0.21392191                0.06514721                0.02653652               -0.84299077               -0.03880231                4.11607831                3.23927951
              11.27740638                2.31141627               32.67520980                0.89383405                0.35130494                0.27874971               -1.14235862               -0.07818463                1.12177268                1.40478676
              12.28120504                2.13517016               32.55290178                1.00000000                0.37986553                0.49656936               -1.43125991               -0.02080583                0.10324240               -0.58977570
               2.48972100                4.95342246               33.32277679                1.00000000               -0.17720370               -0.27871792                0.75704694               -0.02330889                0.16839624                1.32463512
               3.48794896                4.76696920               33.19717617                0.82833337               -0.15071182               -0.14817081                0.50540730               -0.00890362                0.25792650               -0.28572675
               4.48670676                4.57997142               33.07329688                0.20193940               -0.07389109               -0.02713725                0.26516827               -0.09582529                1.29846296               -1.75165007
               5.48647114                4.39102475               32.96851159                0.00010000               -0.54025918                0.08913085                0.02763253                0.02031717                6.85883399               -2.78201766
               6.47590158                4.20730119               32.95580460                0.00010000               -0.98974582                0.08294567               -0.12320819                0.07720805               11.10848715               -1.29212933
               7.46667622                4.02427132               32.93468205                0.00010000               -0.84470907                0.08507281               -0.29781010               -0.04669863               10.40781566               -0.03494413
               8.45900740                3.84269601               32.90634904                0.00010000               -0.68031199                0.01047294               -0.48342106               -0.14087171                9.92922272                1.29749849
               9.45306998                3.66340708               32.87371493                0.00010000               -0.49836418               -0.04780154               -0.66804580               -0.15245628                9.76584768                2.55570857
              10.44904011                3.48770756               32.83998613                0.18001956               -0.02889531               -0.18163933               -0.84358701               -0.09493990                5.55312382                3.96358746
              11.45249208                3.31393819               32.72060154                0.67466649                0.34785220                0.20974732               -1.01235925               -0.02257121                0.74538093                1.53032331
              12.45599716                3.14002886               32.59011787                1.00000000                0.35050800                0.48984901               -1.33191881               -0.05104652                0.19723639               -0.29084953
               2.67523287                5.95082252               33.28161063                1.00000000               -0.13527192               -0.23460005                0.61288312               -0.02816913                0.13174928                1.08730348
               3.67388015                5.76575888               33.14758205                0.66570872               -0.10941896               -0.09296859                0.34904674               -0.01923987                0.32773448               -0.57326490
               4.67304449                5.58003533               33.01740552                0.13023419               -0.11423698                0.04128109                0.10287272               -0.08874224                1.89016991               -2.10248370
               5.67159542                5.39274942               32.91464493                0.00010000               -0.72422514                0.22537645               -0.08054616               -0.25292653                9.12829416               -1.27142621
               6.65855999                5.20898975               32.92921445                0.00010000               -1.24058888                0.23540365               -0.16764804               -0.24681910               14.32973895               -0.33515129
               7.64678364                5.02570655               32.92903347                0.00010000               -1.10096981                0.20852239               -0.32036447               -0.39700739               13.35577954                0.53699915
               8.63654060                4.84351777               32.92214594                0.00010000               -0.93704377                0.13183833               -0.47851850               -0.49847501               12.98166943                1.54084662
               9.62804276                4.66324430               32.91207024                0.00010000               -0.73957818                0.00679157               -0.63320061               -0.53407625               12.91956381                2.65333920
              10.62174903                4.48548543               32.90117584                0.18236573               -0.17045537               -0.19518950               -0.78436160               -0.27124344                6.96131866                3.78691764
              11.62463365                4.31561122               32.76907510                0.59610124                0.31268637                0.16801069               -0.94552747                0.03204816                0.50116065                1.62449385
              12.62800276                4.14496714               32.62852090                0.99885355                0.33691051                0.49422329               -1.29176664               -0.02316060                0.09351030               -0.21876140
               2.85928490                6.94873046               33.23826747                1.00000000               -0.09335519               -0.18061279                0.46321164               -0.02674808                0.05982388                0.91881205
               3.85835135                6.76510983               33.09553364                0.56741061               -0.06717625               -0.04163835                0.19494906               -0.01923292                0.28649355               -0.72836275
               4.85794138                6.58079704               32.95726354                0.08930536               -0.29465794                0.10104785               -0.06008390               -0.05611579                3.85477552               -2.42602869
               5.85245819                6.39553227               32.88591484                0.00010000               -0.99666584                0.28298925               -0.02648136               -0.46195404               12.07672114                0.72646777
               6.83800806                6.21200926               32.91219161                0.00010000               -1.41250678                0.35936617               -0.19234459               -0.49604326               16.56041646                0.44497988
               7.82420806                6.02844177               32.92858260                0.00010000               -1.32539564                0.34720522               -0.33457435               -0.68133840               15.96289653                0.92274200
               8.81150015                5.84533277               32.94047541                0.00010000               -1.18936332                0.24484671               -0.46232393               -0.85573621               15.79566747                1.68084994
               9.80042079                5.66354291               32.95069086                0.00010000               -1.01259143                0.07070070               -0.57621631               -0.97602998               15.88000226                2.59527445
              10.79124832                5.48380377               32.96118196                0.20176867               -0.33847287               -0.12439239               -0.67498030               -0.52837722                8.27843969                3.59838889
              11.79365133                5.31729840               32.81629085                0.55548346                0.27868914                0.17459841               -0.89861484                0.05013148                0.29094916                1.50091887
              12.79682210                5.14991333               32.66666449                0.97410549                0.31707699                0.48913767               -1.25613769               -0.01037482                0.06625220               -0.26632585
               3.04193919                7.94721027               33.19374686                1.00000000               -0.05102689               -0.12342421                0.31460547               -0.02511073                0.02191758                0.84566073
               4.04142892                7.76492611               33.04270700                0.52259823               -0.02197300                0.00182706                0.04421321               -0.01190941                0.17379637               -0.76429291
               5.04149973                7.58205629               32.89462802                0.06303991               -0.51424039                0.13862172               -0.22415802               -0.02995284                6.61678357               -2.57136766
               6.03114411                7.39840920               32.87244283                0.00010000               -1.28850477                0.35241699               -0.01830588               -0.38429248               15.50186663                1.12681261
               7.01572963                7.21617707               32.90165697                0.00010000               -1.56553771                0.50566037               -0.23323265               -0.50399380               18.20267375                0.77074061
               7.99983336                7.03265065               32.93124726                0.00010000               -1.57024522                0.53563713               -0.35166865               -0.84037524               18.30281557                1.04761251
               8.98432473                6.84841470               32.95978920                0.00010000               -1.48910964                0.40835294               -0.44142644               -1.18441130               18.41376313                1.66657190
               9.97005117                6.66465831               32.98850209                0.00010000               -1.34493679                0.18215013               -0.50994262               -1.41535396               18.66566053                2.42585190
              10.95742599                6.48299759               33.01880823                0.23287694               -0.52622219               -0.03920189               -0.54573270               -0.80943390                9.53587708                3.27120758
              11.95952672                6.31910319               32.86192563                0.53651032                0.25697075                0.18880870               -0.85751189                0.03272168                0.10941190                1.32515981
              12.96256541                6.15474989               32.70340882                0.95862103                0.30386868                0.46826500               -1.22464751                0.00088039                0.04079229               -0.40603369
               3.22335100                8.94626198               33.14891570                1.00000000               -0.00838611               -0.06774232                0.16809768               -0.02375329                0.00590377                0.84472548
               4.22326714                8.76514637               32.98981874                0.52720271                0.02541159                0.04147418               -0.10388328               -0.00440749                0.04011199               -0.75386401
               5.22385923                8.58356947               32.83132056                0.04169305               -0.63077890                0.15854428               -0.38600436                0.05253355                9.06012555               -2.42258304
               6.21065156                8.40258061               32.85258928                0.00010000               -1.50862496                0.52833465               -0.21393082               -0.08875554               19.02451127                0.44423701
               7.19368673                8.22212247               32.89185253                0.00010000               -1.77443185                0.72097689               -0.31609537               -0.34120020               20.19219780                0.63331269
               8.17516292                8.03915451               32.93411353                0.00010000               -1.89412332                0.78093157               -0.38371742               -0.81310074               20.59795417                0.88445880
               9.15580427                7.85349983               32.97874259                0.00010000               -1.88160489                0.70459528               -0.41351696               -1.34978680               20.92449799                1.42495160
              10.13753083                7.66718591               33.02445332                0.02003267               -1.75947508                0.36593666               -0.44563529               -1.89013829               21.25472286                2.40402870
              11.12061477                7.48301973               33.07233113                0.27305932               -0.74886834                0.04002072               -0.45675402               -1.10794887               10.75466647                2.73884650
              12.12255346                7.32107458               32.90532492                0.53518108                0.24657673                0.20965135               -0.83288605                0.00119780                0.01532037                1.10208945
              13.12554630                7.15927863               32.73813026                0.94935672                0.29928398                0.43280704               -1.20821928                0.00932142                0.02029117               -0.60250279
               3.40369535                9.94585542               33.10431326                1.00000000                0.03379263               -0.01640064                0.02380559               -0.02298788               -0.01675953                0.74508922
               4.40403328                9.76575559               32.93709751                0.55641502                0.07104010                0.08076046               -0.24941321               -0.00129325                0.06774609               -0.63381136
               5.40511615                9.58522718               32.77147752                0.00922349               -0.66086345                0.17767587               -0.53073104                0.23821703               11.15205028               -1.63075958
               6.39081601                9.40897589               32.82589597                0.00010000               -1.63922088                0.79434737               -0.43364998                0.15451667               22.22874908                0.03918711
               7.37233173                9.23059661               32.87922664                0.00010000               -1.93110130                0.90460189               -0.43131412               -0.14075470               22.41986297                0.31294308
               8.35219398                9.04826928               32.93437247                0.00010000               -2.15170716                0.98989794               -0.43881064               -0.51513766               22.89174609                0.49610512
               9.32929759                8.86250661               32.99426863                0.00010000               -2.47327408                1.03691914               -0.40150847               -1.06936380               23.68693628                0.84365132
              10.30272850                8.67197704               33.06267220                0.06788163               -2.39596202                0.91415146               -0.26475962               -1.78213708               23.64420146                1.87812656
              11.28137835                8.48379800               33.11920380                0.32153617               -0.97183610                0.12095160               -0.44218907               -1.40410384               11.72065417                1.66005554
              12.28329178                8.32329621               32.94622440                0.54590439                0.24826898                0.23621676               -0.83800999               -0.02507352                0.12098426                0.77862788
              13.28634373                8.16340603               32.77042122                0.93635509                0.30519528                0.39983891               -1.21674693                0.01143944               -0.00291529               -0.65478271
               3.58309089               10.94593397               33.05739520                1.00000000                0.07786238                0.00785473               -0.11744494                0.02231528                0.40802786                0.63519162
               4.58386952               10.76676158               32.88652208                0.81755834                0.11561896                0.10059818               -0.39170207                0.04307539                0.82645019               -0.52246218
               5.58540327               10.58712299               32.72391291                0.50031140               -0.77485288                0.18958158               -0.66647341                0.61401146               13.09025036               -1.01429168
               6.56837246               10.41846756               32.79824377                0.36836651               -1.69125130                0.94916690               -0.58645186                0.41022103               24.74959398               -0.07218794
               7.55157825               10.24021451               32.86367973                0.35805612               -1.77111427                0.96178962               -0.54639997               -0.05110337               24.54867888                0.12824809
               8.53295018               10.05895247               32.93018100                0.37196894               -2.04345076                1.06831843               -0.52050736               -0.22319529               25.03294937                0.24821646
               9.51070923                9.87423821               33.00234528                0.40897417               -2.61767421                1.17316073               -0.44404096               -0.53301229               26.15598982                0.46500558
              10.48059669                9.68546894               33.08902935                0.55341593               -3.47478578                1.34918984               -0.17989965               -1.65315344               25.70906086                1.28155800
              11.44121352                9.48543876               33.15090131                0.68689948               -1.90763676                0.16407625               -0.50035537               -1.99998488               13.06140004                0.91880028
              12.44244396                9.32579891               32.98283865                0.79007537                0.21709664                0.25026981               -0.87785780                0.00705008                1.02945681                0.58380320
              13.44555545                9.16727541               32.80366036                0.96756621                0.31114938                0.38693749               -1.24714269                0.06882150                0.49468968               -0.58624673
               1.83129902                1.02064639               34.49101191                1.00000000               -0.34449270               -0.36779609                1.27394472               -0.05772860               -0.95689837                0.97418958
               2.82785410                0.82191497               34.38470979                1.00000000               -0.30225752               -0.28724607                1.02728339               -0.03825183               -1.24888891                0.11623046
               3.82525387                0.62276141               34.27259361                1.00000000               -0.20830314               -0.20830235                0.76917929               -0.04205534               -1.22225640               -0.21108901
               4.82368803                0.42347798               34.16688865                0.62692737                0.03463381               -0.15118662                0.51929236                0.10122491               -0.39842584               -0.85167911
               5.82594655                0.22729201               34.07137358                0.71481377                0.17911733               -0.08309851                0.23171530               -0.07037595               -0.04529023                0.28008587
               6.82727038                0.03414880               33.97359502                0.79809185                0.13052311                0.00758620               -0.01684421               -0.04881517               -0.32614514                0.16272216
               7.82855701               -0.15775101               33.87225365                0.78544400                0.16370063                0.08099100               -0.26596336               -0.02874554               -0.56639528               -0.06772625
               8.83054439               -0.34887811               33.76937204                0.86776019                0.22287543                0.15982755               -0.52140086               -0.04061320               -0.85261557                0.10571788
               9.83301452               -0.53943051               33.66199909                1.00000000                0.27288348                0.23810980               -0.79410905               -0.04130961               -1.15633441                0.58329967
              10.83600206               -0.72980954               33.55286537                1.00000000                0.33336830                0.33078858               -1.07782500               -0.03121873               -1.11925137               -0.01075209
              11.83968189               -0.92035464               33.44624417                1.00000000                0.36798235                0.43135406               -1.35537187               -0.02333577               -0.99806850               -0.99419145
               2.02945316                2.01696843               34.44605258                1.00000000               -0.30390860               -0.35514021                1.13803742               -0.01565053               -0.14741526                1.32731866
               3.02641407                1.81904251               34.33950647                1.00000000               -0.27006714               -0.26775020                0.89366733                0.00508846               -0.17050495                0.16537568
               4.02405182                1.62067838               34.23248545                0.91731671               -0.19895456               -0.18315478                0.63426448               -0.00343748               -0.02184289               -0.53094285
               5.02243498                1.42196612               34.12886969                0.24727770               -0.20722169               -0.12848384                0.36655060                0.15984890                1.61028174               -1.25432651
               6.01990738                1.22646103               34.05431311                0.40408092               -0.15656204               -0.00484833                0.11059018               -0.06821289                2.45489897                1.00362210
               7.01930374                1.03422466               33.96565763                0.50787158               -0.00621848                0.05370759               -0.12694779                0.00755184                1.54665955                0.46005844
               8.01978301                0.84305890               33.87228225                0.42031315                0.08371352                0.11479852               -0.36464640                0.04205333                1.44729215               -0.28967735
               9.02097801                0.65272016               33.78137781                0.51831483                0.16420626                0.19627036               -0.61572832               -0.00127892                1.49534491                0.50801688
              10.02306714                0.46295059               33.68887448                1.00000000                0.25869643                0.25127105               -0.87504456               -0.01129547                0.78231226                0.83027719
              11.02615194                0.27349835               33.58377113                1.00000000                0.34632454                0.33593291               -1.15056849                0.01135901                0.08799933                0.12254993
              12.02999363                0.08395890               33.47732911                1.00000000                0.38416888                0.45987660               -1.42684660                0.02109947                0.02673188               -1.16336678
               2.22683785                3.01354359               34.40817501                1.00000000               -0.25919379               -0.33373202                1.01163800               -0.01055854                0.04962450                1.67822848
               3.22424592                2.81655997               34.29527324                1.00000000               -0.22881668               -0.23156061                0.76545914                0.01005180                0.22958343                0.15040715
               4.22226152                2.61909831               34.18592348                0.61823060               -0.15717734               -0.13192637                0.52715350               -0.01160583                0.71275226               -1.30690265
               5.22110237                2.42090831               34.08266254                0.00010000               -0.49688868               -0.09449483                0.24549919                0.23223742                4.64016901               -2.03720018
               6.21232375                2.22719504               34.05184991                0.00010000               -0.51394121               -0.01030188               -0.05428912                0.29665404                5.66290198               -1.18385877
               7.21082355                2.03522295               33.96372620                0.00010000               -0.07105851               -0.05172164               -0.24411685                0.17027130                2.44437270               -0.12500057
               8.21090258                1.84454496               33.86793892                0.00010000               -0.00982096               -0.03439179               -0.45208683                0.07216186                3.53906600                0.74986518
               9.21062713                1.65504729               33.80158620                0.00010000                0.05539251                0.01574251               -0.73312960               -0.02583237                4.28381354                1.35362496
              10.21201043                1.46559491               33.72086137                0.45628958                0.22969011                0.17918701               -0.96219394               -0.17659197                2.44140580                1.85751027
              11.21522093                1.27690912               33.61747617                1.00000000                0.35861692                0.32174088               -1.21055759               -0.04245710                0.87272907                0.87447048
              12.21918277                1.08884289               33.50512057                1.00000000                0.39618370                0.51016725               -1.50216998                0.00322812                0.44005040               -1.05839069
               2.42320923                4.01029379               34.37029055                1.00000000               -0.21488410               -0.31307532                0.88428427               -0.01512172                0.11299558                1.56809278
               3.42106039                3.81441130               34.24975685                1.00000000               -0.18689326               -0.19363038                0.63689460                0.00312099                0.16590294               -0.01495489
               4.41947136                3.61803986               34.13021640                0.36066045               -0.10386955               -0.07952697                0.40133141               -0.06390566                1.11843005               -1.68598918
               5.41898300                3.42007622               34.02872520                0.00010000               -0.39727730               -0.03468145                0.15184891                0.10950688                5.22992027               -2.71885101
               6.41152582                3.22625499               33.99137980                0.00010000               -0.68118721               -0.04299382               -0.07686679                0.30042955                8.02491406               -2.91549097
               7.40535925                3.03319023               33.94412600                0.00010000               -0.50619556               -0.09436393               -0.29500155                0.10688105                7.21300171               -0.63613312
               8.40140191                2.84237106               33.88847551                0.00010000               -0.29739202               -0.14163342               -0.51202363               -0.04355133                6.75134148                1.62443184
               9.39941141                2.65303501               33.83051745                0.00010000               -0.18642164               -0.14733621               -0.73034814               -0.05445064                6.47122420                2.17971138
              10.39767347                2.46653433               33.76821000                0.20332287                0.13217012               -0.01570153               -0.93429089               -0.11980829                4.20296927                3.36278457
              11.40205482                2.27993316               33.66348088                0.83211840                0.42585846                0.27410852               -1.23800477               -0.05533382                1.13084605                1.53609309
              12.40619064                2.09416224               33.53828630                1.00000000                0.41358281                0.52695580               -1.52029808               -0.03064694                0.15034038               -0.50988776
               2.61830040                5.00728208               34.33029520                1.00000000               -0.17381308               -0.28194211                0.74770304               -0.02506236                0.17551719                1.32745828
               3.61656227                4.81268736               34.20219605                0.82102378               -0.14909577               -0.14391962                0.49876879               -0.01282477                0.27017411               -0.29455792
               4.61531849                4.61750777               34.07592623                0.20107133               -0.07424492               -0.01737457                0.26018806               -0.11065095                1.31600796               -1.76883608
               5.61507738                4.42021468               33.96874215                0.00010000               -0.50500795                0.09637465                0.02286487               -0.09445002                6.91672393               -2.75499348
               6.60521833                4.22633517               33.95449320                0.00010000               -0.91161413                0.08717767               -0.14205586               -0.11938360               11.20299512               -1.23150710
               7.59684509                4.03333567               33.93154538                0.00010000               -0.75157821                0.07098399               -0.33377084               -0.23496365               10.49205883                0.03617972
               8.59018677                3.84171229               33.90127254                0.00010000               -0.57351219               -0.00433781               -0.53690662               -0.31655027               10.01839774                1.37966574
               9.58537485                3.65210057               33.86671880                0.00010000               -0.37353277               -0.06975655               -0.74266787               -0.32841245                9.86647679                2.65671027
              10.58271611                3.46528088               33.83110570                0.17092894                0.05557420               -0.17643680               -0.94002534               -0.14355037                5.69522501                4.05754772
              11.58648633                3.28239129               33.71043396                0.63872296                0.36977760                0.21422910               -1.05565606               -0.01410881                0.84509199                1.67433013
              12.59011166                3.09938201               33.57667822                1.00000000                0.36253295                0.52450543               -1.40039311               -0.04903723                0.22185043               -0.18925354
               2.81189743                6.00465495               34.28767958                1.00000000               -0.13192203               -0.23650305                0.60160671               -0.02967895                0.13153962                1.08163558
               3.81057821                5.81153291               34.15103324                0.65766816               -0.10831973               -0.08676767                0.34120576               -0.02365751                0.33633009               -0.59087795
               4.80973103                5.61769236               34.01841651                0.12752665               -0.11558021                0.05485540                0.09899704               -0.11090889                1.94165572               -2.13154644
               5.80826660                5.42200371               33.91389182                0.00010000               -0.68569402                0.21479787               -0.06927458               -0.38445536                9.25021709               -1.15036752
               6.79601715                5.22799854               33.92748087                0.00010000               -1.14918714                0.22248337               -0.18225778               -0.44681668               14.46827591               -0.25417903
               7.78528286                5.03460991               33.92564827                0.00010000               -0.98555731                0.18542954               -0.36173699               -0.57016974               13.46903542                0.61823702
               8.77630600                4.84228431               33.91707463                0.00010000               -0.80041419                0.10118208               -0.54320686               -0.66103361               13.10635248                1.63890205
               9.76927457                4.65163988               33.90536051                0.00010000               -0.58971284               -0.02369353               -0.72020286               -0.70799202               13.06596561                2.77855384
              10.76451175                4.46300559               33.89291756                0.17314120               -0.08015325               -0.20201577               -0.88859481               -0.35810409                7.14757299                3.94055578
              11.76767151                4.28421774               33.75937380                0.57013776                0.33583559                0.18705430               -1.01064707                0.03796858                0.60326493                1.73623803
              12.77122846                4.10465235               33.61526227                0.97329645                0.35569496                0.53082327               -1.37128703               -0.01653681                0.09491865               -0.13685433
               3.00395091                7.00255202               34.24283163                1.00000000               -0.08992002               -0.18058702                0.45012318               -0.02770704                0.05841885                0.91016640
               4.00305171                6.81095201               34.09743717                0.55967303               -0.06607015               -0.03508243                0.18540831               -0.02269664                0.29169976               -0.74282607
               5.00262951                6.61860488               33.95663963                0.08581940               -0.29848093                0.11533700               -0.06588903               -0.10131078                4.02378978               -2.45556363
               5.99708209                6.42451063               33.88590075                0.00010000               -0.94768529                0.24698060                0.02099261               -0.60227993               12.27552435                0.88405342
               6.98367580                6.23078483               33.91020759                0.00010000               -1.29630789                0.33010294               -0.20901815               -0.68377015               16.66270925                0.52352546
               7.97115593                6.03704426               33.92503147                0.00010000               -1.18698408                0.31153727               -0.38167995               -0.85108083               16.10553532                1.00666247
               8.95993612                5.84373593               33.93554081                0.00010000               -1.03311050                0.20335474               -0.53303538               -1.01455002               15.96960593                1.78835853
               9.95049372                5.65162670               33.94454495                0.00010000               -0.84799777                0.03645254               -0.66524235               -1.14356939               16.09111042                2.73665580
              10.94297616                5.46124056               33.95400392                0.19240990               -0.24473913               -0.13033135               -0.77825492               -0.60628307                8.47474099                3.78805618
              11.94559894                5.28613237               33.80705182                0.53425284                0.29677721                0.19286030               -0.95281699                0.06181303                0.36790921                1.60753053
              12.94891171                5.10999847               33.65379079                0.95425456                0.33127678                0.52507867               -1.32067912               -0.00805041                0.07045935               -0.17655858
               3.19454331                8.00104321               34.19681632                1.00000000               -0.04718974               -0.12132066                0.29970508               -0.02571822                0.02077071                0.83814498
               4.19407142                7.81083126               34.04309669                0.51651598               -0.01985614                0.00766051                0.03319872               -0.01380650                0.17309001               -0.77516937
               5.19414619                7.61999910               33.89234666                0.05986294               -0.50151842                0.15004330               -0.23389484               -0.10429668                6.86020930               -2.59769593
               6.18404105                7.42694332               33.87235669                0.00010000               -1.21690358                0.32059776               -0.00965619               -0.52003698               15.77382067                1.13622756
               7.16980812                7.23460060               33.89921626                0.00010000               -1.43654509                0.47197814               -0.26022261               -0.67219647               18.30839908                0.81777431
               8.15531015                7.04084065               33.92748952                0.00010000               -1.41877755                0.49338034               -0.40689022               -1.00760420               18.48845993                1.12175799
               9.14143257                6.84635140               33.95504161                0.00010000               -1.32057956                0.35808323               -0.51687240               -1.34391257               18.64546354                1.77717912
              10.12889855                6.65236893               33.98303155                0.00010000               -1.17760788                0.14073514               -0.59471995               -1.56979242               18.95221099                2.56727899
              11.11788041                6.46039896               34.01301565                0.22407260               -0.43743472               -0.03872562               -0.62401981               -0.88429080                9.73242232                3.45088317
              12.12014986                6.28807495               33.85310969                0.51767525                0.27274214                0.20207859               -0.90832634                0.04144661                0.14256952                1.41466265
              13.12333525                6.11515393               33.69087956                0.94202321                0.31853931                0.49730548               -1.28208625                0.00317508                0.04249636               -0.33049307
               3.38386045                9.00012561               34.15051095                1.00000000               -0.00407608               -0.06390343                0.15132671               -0.02411805                0.00496363                0.83898922
               4.38381969                8.81110522               33.98872218                0.52332151                0.02855310                0.04647969               -0.11605322               -0.00519010                0.03357878               -0.76153804
               5.38443151                8.62160575               33.82741897                0.04104503               -0.58699149                0.16576264               -0.39570119               -0.03643803                9.26797213               -2.43632043
               6.37207986                8.43092259               33.85027245                0.00010000               -1.40484827                0.51121442               -0.25227520               -0.23687595               19.33439589                0.34992598
               7.35633454                8.24022440               33.88850570                0.00010000               -1.64134036                0.68832039               -0.35939569               -0.50072839               20.39557852                0.64348849
               8.33925305                8.04691187               33.92998272                0.00010000               -1.74024771                0.74136556               -0.45020609               -0.97293722               20.84921201                0.93783261
               9.32152959                7.85089760               33.97422715                0.00010000               -1.71013685                0.65865724               -0.50033687               -1.51034654               21.21816133                1.52583855
              10.30505031                7.65444140               34.01961016                0.01779145               -1.59726302                0.31952667               -0.53270926               -2.04084833               21.59269136                2.58810795
              11.28958433                7.46046605               34.06750958                0.26618085               -0.66887015                0.04830628               -0.51223655               -1.17233728               10.94191133                2.85391384
              12.29167291                7.29017395               33.89674534                0.51708578                0.26164645                0.22368972               -0.88427620                0.00572496                0.01433788                1.16307033
              13.29481726                7.11994458               33.72576752                0.93459235                0.31443491                0.45684847               -1.26491882                0.01097978                0.01972048               -0.55211998
               3.57210173                9.99976514               34.10445576                1.00000000                0.03857443               -0.01119428                0.00502649               -0.02324404               -0.01787231                0.74168526
               4.57248748                9.81176085               33.93454111                0.55422144                0.07491631                0.08522603               -0.26260460               -0.00171567                0.06240318               -0.63812084
               5.57360006                9.62331436               33.76613534                0.00885935               -0.59013006                0.18169414               -0.53957111                0.13937371               11.32170866               -1.63081321
               6.56068488                9.43716761               33.82133995                0.00010000               -1.48978945                0.75391781               -0.47825025                0.02107730               22.55001805               -0.01928936
               7.54380427                9.24836701               33.87465249                0.00010000               -1.77533366                0.86821164               -0.48898844               -0.25895586               22.70945147                0.30691827
               8.52517820                9.05566796               33.92962569                0.00010000               -2.00540827                0.95932934               -0.51885597               -0.62546851               23.21316186                0.52296917
               9.50369611                8.85952454               33.98979398                0.00010000               -2.33325353                1.01565227               -0.50732728               -1.19357325               24.10192138                0.90637808
              10.47851313                8.65875946               34.05949282                0.06993985               -2.24974927                0.89130417               -0.39788679               -1.89747172               24.00020315                2.06399705
              11.45870112                8.46136509               34.11453010                0.31861652               -0.88636527                0.13544193               -0.49214621               -1.44755070               11.82748081                1.69276691
              12.46078583                8.29254875               33.93756130                0.52755474                0.26562277                0.25339354               -0.89438502               -0.02356070                0.11220308                0.80318079
              13.46401358                8.12429090               33.75794507                0.92250122                0.32277482                0.42141474               -1.27918055                0.01315145               -0.00234760               -0.63169904
               3.75940414               10.99990172               34.05611611                1.00000000                0.08320149                0.01365821               -0.13811994                0.02104254                0.40589645                0.63311729
               4.76023616               10.81280974               33.88253629                0.81718303                0.12040407                0.10488860               -0.40621978                0.04176325                0.82365216               -0.52473233
               5.76181222               10.62523963               33.71720390                0.49947125               -0.63937027                0.19252713               -0.67675248                0.48077676               13.25633754               -1.00958787
               6.74744875               10.44600094               33.79219085                0.36855752               -1.45785742                0.88333323               -0.62768191                0.29383770               25.08660553               -0.09881091
               7.73265508               10.25758863               33.85789872                0.35820164               -1.59313053                0.92216227               -0.61497226               -0.11004391               24.87799716                0.12054519
               8.71558614               10.06609846               33.92455014                0.37176279               -1.90442261                1.04304921               -0.61458713               -0.27810559               25.39818338                0.26124227
               9.69456662                9.87121064               33.99735686                0.40811742               -2.51629038                1.16860956               -0.56988723               -0.60449672               26.65715041                0.50230761
              10.66526033                9.67226748               34.08652935                0.55587363               -3.38612942                1.35080193               -0.35873723               -1.72706739               26.06760363                1.42956646
              11.62684404                9.46317489               34.14556951                0.68690287               -1.84922234                0.18098004               -0.56417178               -2.03699185               13.11726447                0.91015845
              12.62827589                9.29524182               33.97370893                0.78071939                0.23759750                0.26930712               -0.94605303                0.00890546                1.04043756                0.58824188
              13.63159599                9.12837288               33.79082048                0.96074943                0.33200978                0.40819808               -1.32057061                0.07134708                0.50950681               -0.57581754
               1.92920325                1.07607490               35.50376182                1.00000000               -0.34558342               -0.36902572                1.27679823               -0.05761214               -0.96891420                0.98360637
               2.92574742                0.86898183               35.39498326                1.00000000               -0.30396317               -0.28668156                1.02723447               -0.03707837               -1.26664489                0.12291504
               3.92312399                0.66145182               35.28026951                1.00000000               -0.21186070               -0.20614565                0.76466908               -0.04219231               -1.24064565               -0.20937485
               4.92151020                0.45368111               35.17203969                0.62790782                0.01074617               -0.14566200                0.50941749                0.04816215               -0.42794616               -0.86803848
               5.92333891                0.24779454               35.07365198                0.71030640                0.16464045               -0.09029305                0.22031400               -0.07316181               -0.06749859                0.28470969
               6.92480301                0.04428039               34.97341964                0.79005680                0.14717528                0.00475045               -0.02423325               -0.06011684               -0.31994741                0.16531095
               7.92628242               -0.15794471               34.86963011                0.78039326                0.18332914                0.07845597               -0.26601886               -0.03918102               -0.55136422               -0.06359546
               8.92846959               -0.35935704               34.76429187                0.86677606                0.23754343                0.15284283               -0.50372046               -0.05408700               -0.84162723                0.10663229
               9.93103328               -0.56003972               34.65420716                1.00000000                0.27701542                0.23126973               -0.77155023               -0.05134564               -1.16192222                0.59122906
              10.93400990               -0.76045601               34.54222521                1.00000000                0.33036255                0.32347915               -1.05211962               -0.03482175               -1.12907560               -0.00714368
              11.93764053               -0.96109393               34.43280107                1.00000000                0.36306332                0.42486889               -1.33409948               -0.01813282               -1.00548586               -0.99878772
               2.13572019                2.07238464               35.45743043                1.00000000               -0.30320227               -0.35718876                1.13844752               -0.01439007               -0.15254381                1.34084469
               3.13268817                1.86611502               35.34843013                1.00000000               -0.26838853               -0.26711373                0.89114360                0.00695337               -0.18392675                0.17500202
               4.13035242                1.65939036               35.23878956                0.92975239               -0.19338529               -0.18056683                0.62688242               -0.00510180               -0.04689434               -0.51493482
               5.12882046                1.45222449               35.13246945                0.25505453               -0.15223843               -0.12101009                0.35503879                0.08797941                1.58570797               -1.25638537
               6.12730765                1.24689161               35.05529801                0.40649275               -0.08745003               -0.01944559                0.08586606               -0.07851364                2.45772932                0.98617541
               7.12707146                1.04432789               34.96428277                0.50692012                0.02008325                0.05122623               -0.15141123               -0.01570076                1.57248651                0.46105654
               8.12770932                0.84283985               34.86856545                0.42155004                0.09523827                0.12123789               -0.38400354                0.01350762                1.47612028               -0.27862068
               9.12897623                0.64217139               34.77522900                0.51259892                0.16799970                0.19163554               -0.62173168               -0.03324189                1.51897502                0.50179960
              10.13106931                0.44227298               34.68013651                1.00000000                0.26062805                0.25156139               -0.87597474               -0.02278235                0.79360333                0.83592726
              11.13418879                0.24277878               34.57223435                1.00000000                0.35139083                0.32994305               -1.15677965                0.00874852                0.08987214                0.13276779
              12.13809713                0.04315476               34.46300568                1.00000000                0.39083390                0.45332038               -1.43665200                0.02723379                0.02935287               -1.17082816
               2.34145469                3.06893112               35.41827399                1.00000000               -0.25739354               -0.33730448                1.00959423               -0.00917474                0.04830470                1.69584642
               3.33888076                2.86363956               35.30291222                1.00000000               -0.22711107               -0.23073171                0.76219095                0.01102901                0.23046769                0.16262757
               4.33691247                2.65784048               35.19116026                0.63420188               -0.15561062               -0.12674053                0.51918754               -0.01571345                0.69412782               -1.28527902
               5.33576855                2.45126091               35.08503176                0.00010000               -0.36236180               -0.08571650                0.22935657                0.13492631                4.58890804               -2.00870145
               6.32966524                2.24740562               35.05113354                0.00010000               -0.36138989               -0.02569372               -0.08800914                0.10481188                5.67036076               -1.15331223
               7.32854075                2.04530491               34.96110791                0.00010000               -0.04780830               -0.04323197               -0.28113215                0.01398553                2.51562779               -0.09027539
               8.32870907                1.84448005               34.86323198                0.00010000               -0.00845596               -0.01882629               -0.49163655               -0.07046941                3.57750264                0.78326169
               9.32837163                1.64447567               34.79416044                0.00010000                0.06305866                0.02452784               -0.76266483               -0.13356676                4.32415674                1.40047587
              10.32997024                1.44499151               34.71103921                0.43087430                0.24657315                0.19283037               -0.99650197               -0.20636210                2.49470809                1.89561060
              11.33330309                1.24614285               34.60515694                1.00000000                0.37315085                0.32007836               -1.25164487               -0.06304069                0.89662332                0.89573838
              12.33743326                1.04797248               34.48988778                1.00000000                0.41301685                0.51300001               -1.53887961                0.00815671                0.44173916               -1.05762628
               2.54611983                4.06563855               35.37910366                1.00000000               -0.21204373               -0.31742621                0.87991643               -0.01506950                0.11580357                1.58054442
               3.54399939                3.86150038               35.25610093                1.00000000               -0.18515135               -0.19189551                0.63204992                0.00288307                0.17448061               -0.00805339
               4.54241680                3.65685555               35.13422074                0.36399417               -0.10227699               -0.07229496                0.39797340               -0.07109350                1.12663510               -1.68253619
               5.54195385                3.45051016               35.03024275                0.00010000               -0.35284547               -0.02513244                0.14674100               -0.00038615                5.23559844               -2.69272907
               6.53535989                3.24637773               34.99047843                0.00010000               -0.58385499               -0.04178255               -0.10481960                0.02230542                8.05191579               -2.83300480
               7.53027675                3.04346325               34.94099643                0.00010000               -0.41153589               -0.09161348               -0.33455409               -0.13585462                7.26203460               -0.56703084
               8.52712917                2.84246333               34.88314079                0.00010000               -0.22416563               -0.13949235               -0.55916611               -0.26542274                6.81973930                1.68481490
               9.52579344                2.64266195               34.82300919                0.00010000               -0.09271402               -0.13887276               -0.78628723               -0.20695065                6.54628299                2.25397757
              10.52527489                2.44612959               34.75799930                0.18935026                0.20767864               -0.04202778               -1.10508370               -0.21111910                4.32179687                3.55626562
              11.52994701                2.24918035               34.65044970                0.75218699                0.46630621                0.26945122               -1.37595042               -0.10982607                1.17855130                1.71329594
              12.53460101                2.05341476               34.52249581                1.00000000                0.46540064                0.56476717               -1.64342485               -0.05093984                0.20169161               -0.41388319
               2.74942964                5.06258260               35.33773085                1.00000000               -0.17082221               -0.28598747                0.74090359               -0.02626883                0.18213616                1.32989601
               3.74772142                4.85980165               35.20715154                0.81423163               -0.14744091               -0.14000898                0.49237625               -0.01587869                0.28134002               -0.30231549
               4.74648082                4.65639458               35.07850065                0.19932814               -0.07413864               -0.00822742                0.25355413               -0.12205731                1.33425383               -1.78393393
               5.74623864                4.45075826               34.96896889                0.00010000               -0.46612831                0.10366517                0.01952548               -0.21215296                6.96781887               -2.72786489
               6.73715825                4.24656997               34.95296348                0.00010000               -0.82502916                0.09070242               -0.16637978               -0.32382256               11.27833716               -1.15941367
               7.72973806                4.04347264               34.92800663                0.00010000               -0.64781659                0.05609720               -0.37840695               -0.42929649               10.55912278                0.11203667
               8.72420192                3.84169020               34.89561091                0.00010000               -0.45858517               -0.02178930               -0.60136652               -0.49740974               10.08800376                1.45838098
               9.72056636                3.64169822               34.85886158                0.00010000               -0.24862320               -0.08363574               -0.83757709               -0.49067722                9.94686071                2.74635952
              10.71922946                3.44415095               34.82118563                0.16020276                0.16275204               -0.23656273               -1.05320752               -0.23770124                5.84259791                4.22035694
              11.72382140                3.25153188               34.69948841                0.60251679                0.43580946                0.22688824               -1.19605179               -0.02379501                0.95841585                1.91037489
              12.72794565                3.05926782               34.56211001                0.97567831                0.41242496                0.58513621               -1.56129415               -0.05024731                0.23539342               -0.03274660
               2.95115635                6.05991880               35.29364277                1.00000000               -0.12865210               -0.23927702                0.59224892               -0.03123109                0.13103611                1.07582046
               3.94986983                5.85870020               35.15440616                0.64945408               -0.10686560               -0.08058951                0.33300228               -0.02859294                0.34496958               -0.60770624
               4.94901904                5.65669100               35.01938546                0.12417043               -0.11672143                0.06805212                0.09346620               -0.13219815                2.00050779               -2.15810982
               5.94753540                5.45258347               34.91325944                0.00010000               -0.64249898                0.19951030               -0.05904190               -0.51685746                9.36596520               -1.00683023
               6.93616906                5.24819178               34.92556930                0.00010000               -1.04824049                0.20872048               -0.20346435               -0.65124977               14.57684849               -0.16580447
               7.92657059                5.04458520               34.92179873                0.00010000               -0.86068268                0.16305629               -0.41354880               -0.74583765               13.55335946                0.70304336
               8.91895540                4.84202754               34.91128180                0.00010000               -0.65257234                0.07213811               -0.62311789               -0.82095488               13.20104157                1.73921354
               9.91351914                4.64098923               34.89766618                0.00010000               -0.41340982               -0.05466169               -0.83143123               -0.87078402               13.17889016                2.91443513
              10.91068721                4.44139833               34.88340394                0.16297588                0.04175498               -0.23420746               -1.04465939               -0.41321572                7.34241579                4.11803928
              11.91435424                4.25371811               34.74886216                0.54373420                0.37184880                0.20906210               -1.09475002                0.05601999                0.73638982                1.88925305
              12.91812418                4.06511748               34.60109516                0.95029405                0.37699410                0.57485263               -1.45461360               -0.01967760                0.10294386                0.00068468
               3.15124221                7.05779706               35.24726993                1.00000000               -0.08648585               -0.18124725                0.43854720               -0.02884422                0.05654178                0.90154295
               4.15037735                6.85818986               35.09924181                0.55142651               -0.06443097               -0.02812474                0.17491740               -0.02754356                0.29645550               -0.75680656
               5.14995359                6.65775562               34.95594576                0.08210206               -0.29883177                0.13160148               -0.07519926               -0.15082544                4.21711219               -2.48476800
               6.14440072                6.45474847               34.88633469                0.00010000               -0.89110325                0.20892941                0.06009996               -0.73978591               12.46816224                1.03764709
               7.13213153                6.25074438               34.90801125                0.00010000               -1.17075859                0.30213321               -0.23505874               -0.87094829               16.71488279                0.60375416
               8.12098555                6.04673377               34.92094900                0.00010000               -1.03763687                0.27746801               -0.44134425               -1.02023979               16.21575615                1.09480634
               9.11137879                5.84313297               34.92981470                0.00010000               -0.86028301                0.16221994               -0.62155342               -1.16961128               16.11330995                1.90503316
              10.10377989                5.64060498               34.93738601                0.00010000               -0.65712646               -0.00252802               -0.78187309               -1.30319811               16.27415289                2.89856700
              11.09823626                5.43946680               34.94561686                0.18205444               -0.12786200               -0.14443713               -0.92215571               -0.67913851                8.69287995                4.01602955
              12.10122265                5.25571312               34.79723451                0.51279753                0.32585498                0.19924039               -1.01589141                0.07290147                0.47982305                1.74620586
              13.10475336                5.07076487               34.64025091                0.93584171                0.35307144                0.55229074               -1.38508796               -0.00725359                0.07399636               -0.04842689
               3.34979386                8.05629385               35.19974097                1.00000000               -0.04334765               -0.11973660                0.28602729               -0.02633562                0.01933515                0.83046139
               4.34936039                7.85813771               35.04337097                0.50995416               -0.01749737                0.01406669                0.02101858               -0.01587403                0.17060467               -0.78535920
               5.34944392                7.65932303               34.88995012                0.05661748               -0.48047319                0.16493764               -0.24735945               -0.18304163                7.10529498               -2.62228833
               6.33975092                7.45676205               34.87224970                0.00010000               -1.13395629                0.29237055               -0.02120809               -0.66182830               16.03318464                1.10919464
               7.32676479                7.25423444               34.89645252                0.00010000               -1.29868561                0.44058105               -0.29889756               -0.84354995               18.38190905                0.86169222
               8.31377721                7.05013456               34.92310946                0.00010000               -1.25364131                0.45206104               -0.47655962               -1.17611664               18.64492601                1.20014407
               9.30169196                6.84527194               34.94945175                0.00010000               -1.13279343                0.30656311               -0.61109315               -1.50173117               18.85560167                1.89672363
              10.29112134                6.64093867               34.97660769                0.00010000               -0.98478311                0.09409122               -0.70363848               -1.72200070               19.23149040                2.73060101
              11.28199630                6.43850959               35.00632784                0.21398313               -0.33035697               -0.04416213               -0.73022674               -0.95770988                9.95116592                3.67652698
              12.28451420                6.25770292               34.84375910                0.49861635                0.29396510                0.20856288               -0.96408139                0.05066671                0.19596220                1.52174265
              13.28787560                6.07616330               34.67776709                0.92629101                0.33614010                0.52029227               -1.33816295                0.00318668                0.04426544               -0.23428903
               3.54702780                9.05540232               35.15194224                1.00000000                0.00028997               -0.06049472                0.13554654               -0.02444584                0.00397660                0.83268892
               4.54703069                8.85847119               34.98749767                0.51922442                0.03203089                0.05206825               -0.12963516               -0.00532864                0.02604792               -0.76824351
               5.54766841                8.66105438               34.82340653                0.04024690               -0.53889765                0.17514712               -0.40902602               -0.12838702                9.45820952               -2.44639576
               6.53625274                8.46059588               34.84754378                0.00010000               -1.28901934                0.49548235               -0.29423430               -0.39750391               19.61787239                0.24131799
               7.52188803                8.25955600               34.88466461                0.00010000               -1.49135115                0.65537566               -0.41618409               -0.66753288               20.57970469                0.64992136
               8.50642572                8.05577499               34.92510941                0.00010000               -1.56739862                0.70133498               -0.53240272               -1.13766271               21.07501726                0.99467848
               9.49054005                7.84926423               34.96873586                0.00010000               -1.51617474                0.61162569               -0.60948852               -1.67556275               21.49954114                1.63000037
              10.47610222                7.64248681               35.01379914                0.01421185               -1.41111202                0.26995633               -0.64091572               -2.19027808               21.94832911                2.76081863
              11.46231781                7.43858356               35.06208640                0.25779445               -0.57599758                0.05419117               -0.58058392               -1.23696245               11.15438089                3.00392794
              12.46458227                7.25988438               34.88763940                0.49885422                0.27892665                0.23466579               -0.93874594                0.00969083                0.01921088                1.23626847
              13.46789635                7.08117072               34.71283189                0.92030991                0.33140736                0.47779024               -1.32193582                0.01131573                0.01917718               -0.49138671
               3.74316721               10.05508396               35.10441379                1.00000000                0.04345459               -0.00633544               -0.01293688               -0.02345532               -0.01895795                0.73747959
               4.74360176                9.85917907               34.93184542                0.55199511                0.07921364                0.09026868               -0.27734600               -0.00169546                0.05640943               -0.64136664
               5.74475149                9.66282598               34.76068610                0.00837637               -0.51512704                0.18698689               -0.55260416                0.03498402               11.47119221               -1.62776248
               6.73329922                9.46667170               34.81633096                0.00010000               -1.32582323                0.70968282               -0.52351499               -0.11635043               22.83918612               -0.07304282
               7.71823502                9.26734196               34.86944688                0.00010000               -1.59917428                0.82884746               -0.55784335               -0.38097816               22.97485094                0.29956352
               8.70131573                9.06416126               34.92399535                0.00010000               -1.83830651                0.92767170               -0.61542225               -0.74037610               23.50676488                0.55184582
               9.68146889                8.85750445               34.98412208                0.00010000               -2.16596428                0.99471848               -0.64079810               -1.32452435               24.48521677                0.96839507
              10.65799645                8.64633780               35.05471446                0.07057631               -2.08047035                0.87502000               -0.58580603               -2.01385720               24.40008776                2.21385787
              11.63985948                8.43959341               35.10936087                0.31432860               -0.79377922                0.14897755               -0.54265339               -1.49400760               11.99134815                1.74002117
              12.64212086                8.26239624               34.92833670                0.50930435                0.28348756                0.26920539               -0.95062374               -0.02274224                0.10239593                0.83423175
              13.64552924                8.08571910               34.74483761                0.90888568                0.34083727                0.44187681               -1.34262058                0.01359423               -0.00287509               -0.60505573
               3.93836846               11.05527561               35.05463280                1.00000000                0.08863053                0.01916548               -0.15808184                0.02022005                0.40320463                0.63015078
               4.93925477               10.86027656               34.87839769                0.81688478                0.12534994                0.10974916               -0.42226774                0.04122617                0.81937855               -0.52600462
               5.94087546               10.66479412               34.71037786                0.49858049               -0.49225093                0.19681405               -0.69084724                0.33804637               13.40174171               -1.00207588
               6.92940975               10.47478954               34.78569014                0.36873275               -1.20482782                0.81178340               -0.67603470                0.17799521               25.38769479               -0.11904779
               7.91677891               10.27613295               34.85138028                0.35834782               -1.39770254                0.87909964               -0.69382496               -0.16866698               25.17398338                0.11205384
               8.90145570               10.07432842               34.91788926                0.37153549               -1.74529406                1.01671668               -0.72599740               -0.33472098               25.72807404                0.27435029
               9.88187303                9.86915860               34.99094754                0.40725161               -2.38597895                1.16541444               -0.72743131               -0.67664733               27.10497549                0.53594985
              10.85373612                9.65998721               35.08185460                0.55759217               -3.27469023                1.36494096               -0.61565430               -1.80580680               26.47944602                1.54503851
              11.81637922                9.44156311               35.13961788                0.68626188               -1.78671920                0.19697006               -0.62532139               -2.08396246               13.25638786                0.90521991
              12.81800174                9.26526848               34.96391759                0.77147638                0.25716413                0.28722459               -1.00990346                0.01034460                1.05359386                0.59584197
              13.82152250                9.09000825               34.77724894                0.95398408                0.35207663                0.42891522               -1.39292064                0.07330385                0.52496826               -0.56434266
               2.02947785                1.13298130               36.51654788                1.00000000               -0.34643382               -0.37081428                1.28162065               -0.05767103               -0.98198699                0.99337006
               3.02601351                0.91747955               36.40525448                1.00000000               -0.30466556               -0.28659484                1.02731179               -0.03608399               -1.28670022                0.12984003
               4.02338454                0.70153381               36.28788699                1.00000000               -0.21334330               -0.20448840                0.75808389               -0.04208637               -1.26242355               -0.20832537
               5.02174664                0.48525769               36.17707700                0.62892201               -0.00839572               -0.14113463                0.49668757               -0.00258074               -0.45971087               -0.88466846
               6.02321662                0.26969413               36.07577986                0.70512813                0.15733268               -0.09911585                0.19937434               -0.07324234               -0.08260720                0.28685287
               7.02489330                0.05572877               35.97311035                0.77995521                0.17204390                0.00287509               -0.04633118               -0.07011190               -0.30074460                0.16675510
               8.02665750               -0.15689360               35.86693327                0.77170375                0.21207523                0.07782075               -0.28294889               -0.04725753               -0.51521176               -0.06005157
               9.02913480               -0.36861973               35.75929763                0.86057350                0.25926195                0.15073223               -0.50672227               -0.06338760               -0.80954116                0.10722828
              10.03184274               -0.57946464               35.64656809                1.00000000                0.28459192                0.23017170               -0.76419261               -0.05843576               -1.14789175                0.60553524
              11.03482664               -0.78997069               35.53182298                1.00000000                0.32888542                0.31926593               -1.03467552               -0.03839076               -1.12186017                0.00072706
              12.03842045               -1.00073961               35.41956218                1.00000000                0.35938076                0.41952390               -1.31851557               -0.01513357               -0.99956383               -0.98622432
               2.24440289                2.12927316               36.46882153                1.00000000               -0.30264756               -0.35970052                1.14095890               -0.01347330               -0.15851348                1.35467274
               3.24137641                1.91461360               36.35732934                1.00000000               -0.26641415               -0.26689149                0.88908237                0.00856303               -0.19888641                0.18530235
               4.23907460                1.69948893               36.24502310                0.94167401               -0.18678654               -0.17861369                0.61913089               -0.00636304               -0.07322098               -0.49924751
               5.23764068                1.48384634               36.13597047                0.26190352               -0.09129750               -0.11483554                0.34366738                0.01873221                1.55559411               -1.26083930
               6.23724865                1.26870297               36.05603043                0.40738966               -0.00773214               -0.03728724                0.05840303               -0.08253134                2.45637479                0.96795476
               7.23748604                1.05575753               35.96262940                0.50383248                0.05552624                0.04875032               -0.18290789               -0.03369949                1.60643905                0.46333673
               8.23835918                0.84388461               35.86460218                0.42057796                0.11502046                0.12642198               -0.41232857               -0.00636674                1.52163934               -0.26823876
               9.23978645                0.63288759               35.76894318                0.50802897                0.17873408                0.19481805               -0.63815915               -0.04396513                1.56298167                0.49357716
              10.24193386                0.42283708               35.67135498                1.00000000                0.26468853                0.25544866               -0.88302378               -0.03001391                0.81633862                0.84520873
              11.24508022                0.21322197               35.56063554                1.00000000                0.35520836                0.32896113               -1.16312214                0.00483699                0.09588038                0.14856464
              12.24903803                0.00345563               35.44859607                1.00000000                0.39578103                0.44699185               -1.44452694                0.03013804                0.03338984               -1.15395589
               2.45852749                3.12578729               36.42836690                1.00000000               -0.25584973               -0.34126665                1.01033292               -0.00816326                0.04694267                1.71347606
               3.45596900                2.91214172               36.31051706                1.00000000               -0.22514781               -0.23013468                0.75894036                0.01153774                0.23023032                0.17579769
               4.45402454                2.69796154               36.19630723                0.65093768               -0.15308719               -0.12200904                0.50968445               -0.01965536                0.67240870               -1.26033351
               5.45290725                2.48296098               36.08724967                0.00010000               -0.21848636               -0.07809177                0.21388573                0.03917174                4.52794675               -1.97696298
               6.44965481                2.26894838               36.05008973                0.00010000               -0.19347953               -0.04690064               -0.12369026               -0.08476948                5.67974362               -1.11221618
               7.44903766                2.05670378               35.95810356                0.00010000               -0.01273535               -0.04033183               -0.32088167               -0.14309951                2.59538889               -0.04975936
               8.44940010                1.84563484               35.85810619                0.00010000                0.01326857               -0.00980912               -0.53297482               -0.20012011                3.63053908                0.81569789
               9.44930303                1.63527663               35.78633290                0.00010000                0.07539901                0.02629181               -0.78993930               -0.21491942                4.38638598                1.44294146
              10.45090808                1.42564433               35.70093133                0.41986799                0.25008980                0.23380718               -1.01869512               -0.19665311                2.54335063                1.87182600
              11.45430483                1.21660853               35.59244328                1.00000000                0.38238994                0.33228220               -1.28656831               -0.06975007                0.91279080                0.88878079
              12.45855588                1.00820023               35.47434298                1.00000000                0.42510529                0.51033576               -1.56665603                0.01388098                0.44119634               -1.05660442
               2.67153076                4.12244782               36.38788888                1.00000000               -0.20978469               -0.32231959                0.87866607               -0.01497945                0.11868607                1.59241008
               3.66943291                3.91001091               36.26239785                1.00000000               -0.18342600               -0.19029518                0.62749051                0.00256034                0.18408488               -0.00048713
               4.66786224                3.69704875               36.13817587                0.36677934               -0.09978189               -0.06485818                0.39136893               -0.07823612                1.13414422               -1.67600398
               5.66743728                3.48228450               36.03166002                0.00010000               -0.30258912               -0.01601407                0.13374731               -0.11100653                5.22985366               -2.65879592
               6.66181046                3.26776495               35.98928341                0.00010000               -0.47498464               -0.04461740               -0.13650706               -0.26205466                8.06603472               -2.74131311
               7.65793758                3.05495089               35.93743492                0.00010000               -0.30132639               -0.09648406               -0.38027922               -0.38670343                7.30647958               -0.49297290
               8.65578393                2.84368843               35.87729219                0.00010000               -0.12295076               -0.14479698               -0.61457277               -0.49228353                6.88066591                1.74085950
               9.65547857                2.63341342               35.81479170                0.00010000                0.04424824               -0.14529317               -0.86241359               -0.33704463                6.56654434                2.32042600
              10.65666890                2.42751322               35.74610833                0.17359939                0.28253775               -0.06804807               -1.21957153               -0.27563337                4.34875519                3.65354958
              11.66112932                2.21986761               35.63596187                0.69503913                0.47316779                0.27889003               -1.47963602               -0.17127215                1.23179367                1.84596225
              12.66613225                2.01366234               35.50541780                1.00000000                0.50029279                0.59637503               -1.73069136               -0.06950394                0.23231870               -0.34433360
               2.88310174                5.11934090               36.34511327                1.00000000               -0.16824607               -0.29077757                0.73720512               -0.02747873                0.18879806                1.33136314
               3.88141928                4.90833582               36.21204358                0.80770874               -0.14577596               -0.13611946                0.48602223               -0.01872661                0.29223067               -0.30955571
               4.88018622                4.69666438               36.08099731                0.19679197               -0.07241790                0.00181494                0.24499041               -0.13347248                1.35312489               -1.79634508
               5.87997092                4.48264069               35.96913266                0.00010000               -0.42194426                0.11084009                0.00951798               -0.33217762                7.00938473               -2.68864045
               6.87174733                4.26805603               35.95116560                0.00010000               -0.72954005                0.09348636               -0.19680046               -0.53311142               11.33496511               -1.08015491
               7.86538012                4.05477410               35.92397724                0.00010000               -0.53277176                0.03887589               -0.43148339               -0.63085837               10.60688815                0.18916099
               8.86109190                3.84273890               35.88924521                0.00010000               -0.33213844               -0.04118225               -0.67765453               -0.68639424               10.13268332                1.52972942
               9.85873735                3.63237076               35.84996726                0.00010000               -0.10753336               -0.10046389               -0.94480908               -0.66019330               10.00819440                2.82038899
              10.85894123                3.42428337               35.81004155                0.14793218                0.29964577               -0.32890393               -1.21637892               -0.33446205                5.97053264                4.37567049
              11.86473026                3.22218633               35.68651292                0.56416772                0.53175521                0.21945505               -1.38677566               -0.02884423                1.02668798                2.20859834
              12.86957633                3.02012773               35.54545233                0.94756101                0.48460705                0.64314049               -1.72450062               -0.07140634                0.20815589                0.17501184
               3.09299135                6.11663227               36.29952456                1.00000000               -0.12564472               -0.24281078                0.58580130               -0.03256227                0.13027118                1.06920023
               4.09173490                5.90728852               36.15769329                0.63976706               -0.10517176               -0.07423733                0.32369793               -0.03307541                0.35407761               -0.62419711
               5.09088791                5.69708505               36.02028584                0.12022883               -0.11664163                0.08402386                0.08408842               -0.15472811                2.06697314               -2.18080289
               6.08940207                5.48450131               35.91271098                0.00010000               -0.59365447                0.18163086               -0.05280701               -0.65207181                9.47237925               -0.84031337
               7.07901483                5.26963468               35.92341158                0.00010000               -0.93822628                0.19603306               -0.23282311               -0.85805409               14.65379894               -0.07342197
               8.07063754                5.05572841               35.91737729                0.00010000               -0.72777208                0.14277817               -0.47608049               -0.92412041               13.60596428                0.78843415
               9.06445938                4.84286478               35.90461227                0.00010000               -0.49536549                0.04638689               -0.71789666               -0.98254259               13.25989535                1.83619919
              10.06073023                4.63140415               35.88873189                0.00010000               -0.21476474               -0.08571178               -0.96933290               -1.02461822               13.23688617                3.04467578
              11.06016409                4.42093514               35.87202437                0.15171028                0.19889252               -0.28230575               -1.26013398               -0.45516991                7.54054593                4.29348814
              12.06470808                4.22425671               35.73747880                0.51671092                0.43286204                0.19866092               -1.19700137                0.07105509                0.91262033                2.11848903
              13.06882133                4.02652515               35.58617000                0.92952281                0.41132445                0.61151376               -1.53689764               -0.03403020                0.11444037                0.21288837
               3.30113800                7.11448468               36.25160258                1.00000000               -0.08330086               -0.18260692                0.42936664               -0.02942861                0.05400324                0.89250722
               4.30030499                6.90685107               36.10093552                0.54179945               -0.06295663               -0.02101525                0.16324815               -0.03001896                0.30041694               -0.77047481
               5.29987887                6.69834485               35.95513564                0.07809522               -0.29625706                0.15037599               -0.08958908               -0.20461557                4.43253233               -2.51345632
               6.29437985                6.48627331               35.88710275                0.00010000               -0.82598584                0.17084114                0.08977191               -0.87839430               12.65033033                1.17994607
               7.28335915                6.27197669               35.90550641                0.00010000               -1.03561224                0.27732002               -0.27199774               -1.05359650               16.71709783                0.68193401
               8.27366761                6.05762966               35.91620458                0.00010000               -0.87969223                0.24773589               -0.51409670               -1.18690796               16.29032974                1.18458851
               9.26576531                5.84366664               35.92310974                0.00010000               -0.67464898                0.12499667               -0.72900533               -1.31930773               16.21755060                2.02676206
              10.26017463                5.63065653               35.92890748                0.00010000               -0.43900194               -0.04181592               -0.93026561               -1.45536720               16.40936859                3.07654777
              11.25698527                5.41863726               35.93556080                0.17055505                0.01933647               -0.17375927               -1.12117436               -0.74543732                8.92973642                4.29218206
              12.26056135                5.22615955               35.78673400                0.49095407                0.36867882                0.19241018               -1.08882602                0.08212532                0.63776939                1.90808268
              13.26435884                5.03235800               35.62608903                0.91882696                0.37974888                0.56810048               -1.44137595               -0.01099214                0.07531083                0.09614125
               3.50767000                8.11298013               36.20253687                1.00000000               -0.03956519               -0.11890600                0.27425470               -0.02663627                0.01767185                0.82225493
               4.50727435                7.90686821               36.04351706                0.50282143               -0.01483204                0.02074173                0.00756062               -0.01581024                0.16654857               -0.79505986
               5.50737336                7.70009257               35.88739947                0.05295539               -0.45360025                0.17985011               -0.26499024               -0.26396805                7.34639347               -2.64646095
               6.49820235                7.48791813               35.87193253                0.00010000               -1.03934092                0.26971889               -0.05212762               -0.80560566               16.28041155                1.04932932
               7.48658654                7.27518108               35.89323831                0.00010000               -1.14964546                0.41258878               -0.34978186               -1.01155730               18.42775704                0.89888392
               8.47520944                7.06068312               35.91795832                0.00010000               -1.07700892                0.41449421               -0.56122415               -1.34009083               18.76983872                1.28164580
               9.46504636                6.84536472               35.94281974                0.00010000               -0.92785806                0.25803136               -0.72586022               -1.65249587               19.03666247                2.02369457
              10.45665227                6.63056783               35.96895878                0.00010000               -0.76470214                0.04472397               -0.84240196               -1.87065189               19.49092264                2.92014336
              11.44975232                6.41745996               35.99841111                0.20248951               -0.20112142               -0.05628420               -0.87805162               -1.03082475               10.19406561                3.96183483
              12.45262985                6.22810491               35.83382807                0.47932960                0.32261275                0.20810869               -1.02568710                0.05887462                0.27934131                1.64370463
              13.45620458                6.03788716               35.66411630                0.91138471                0.35747302                0.53441666               -1.38974064                0.00107388                0.04611313               -0.13057446
               3.71282912                9.11210656               36.15322188                1.00000000                0.00472353               -0.05779813                0.12119081               -0.02459968                0.00303010                0.82550093
               4.71287635                8.90726590               35.98612948                0.51487328                0.03602372                0.05826451               -0.14495062               -0.00478472                0.01759508               -0.77418934
               5.71354959                8.70194186               35.81923845                0.03912649               -0.48485636                0.18476043               -0.42685465               -0.22166083                9.63363225               -2.45460741
               6.70317922                8.49166769               35.84438776                0.00010000               -1.15932906                0.48211362               -0.34543327               -0.56039557               19.88640608                0.12686460
               7.69036301                8.28022847               35.88018202                0.00010000               -1.32485363                0.62307630               -0.48498391               -0.83488916               20.74358027                0.65351982
               8.67668215                8.06591955               35.91933467                0.00010000               -1.37661621                0.66209547               -0.63037919               -1.29861708               21.27385647                1.05559549
               9.66283069                7.84882727               35.96203738                0.00010000               -1.30079017                0.56580230               -0.74132346               -1.83667879               21.76570717                1.73668050
              10.65066635                7.63155101               36.00679185                0.00905924               -1.19994998                0.22066633               -0.77339474               -2.33459362               22.32197956                2.91205540
              11.63883169                7.41751157               36.05589790                0.24761243               -0.46773534                0.05870404               -0.67042173               -1.30378789               11.39715473                3.20432172
              12.64131164                7.23032172               35.87797042                0.48049812                0.29920687                0.24251380               -0.99768093                0.01309637                0.03420351                1.31962167
              13.64481582                7.04304634               35.69932881                0.90647080                0.35041814                0.49427817               -1.37808095                0.00994518                0.01869922               -0.43147560
               3.91685932               10.11182417               36.10419702                1.00000000                0.04840367               -0.00199198               -0.03003097               -0.02359952               -0.01988370                0.73206757
               4.91734336                9.90803350               35.92899419                0.54978525                0.08395181                0.09596012               -0.29373774               -0.00170387                0.04981764               -0.64337855
               5.91853836                9.70378778               35.75508326                0.00766149               -0.43177694                0.19363627               -0.57065427               -0.07340401               11.60418527               -1.62264835
               6.90870782                9.49756040               35.81086965                0.00010000               -1.14507294                0.66169767               -0.57127205               -0.25620834               23.10103796               -0.12430652
               7.89563690                9.28764261               35.86349563                0.00010000               -1.40347641                0.78672110               -0.63766683               -0.50313766               23.21412245                0.29492004
               8.88063829                9.07392503               35.91731724                0.00010000               -1.64777861                0.89390518               -0.72756102               -0.85318135               23.76973555                0.58411690
               9.86268133                8.85668076               35.97697802                0.00010000               -1.96810978                0.97257279               -0.79899417               -1.45368903               24.82189727                1.02916029
              10.84127610                8.63498115               36.04777670                0.06933268               -1.88877400                0.86684802               -0.82402672               -2.12670784               24.85781430                2.30503785
              11.82490585                8.41863404               36.10367703                0.30815106               -0.69595432                0.16268526               -0.59767300               -1.54744201               12.23970002                1.81097739
              12.82735701                8.23295519               35.91854883                0.49103992                0.30242011                0.28375737               -1.00816986               -0.02281279                0.09211688                0.87249468
              13.83095425                8.04777273               35.73109266                0.89542734                0.35972398                0.46085069               -1.40726220                0.01259455               -0.00461256               -0.58165930
               4.11993846               11.11206672               36.05295447                1.00000000                0.09402059                0.02425507               -0.17688976                0.01975224                0.39948872                0.62583698
               5.12087867               10.90918511               35.87409094                0.81678510                0.13080750                0.11516031               -0.43993429                0.04092374                0.81315510               -0.52570791
               6.12255461               10.70581458               35.70338696                0.49760108               -0.33392201                0.20268048               -0.71056025                0.18745196               13.52740297               -0.99284635
               7.11420023               10.50490164               35.77867016                0.36889857               -0.93094941                0.73412406               -0.73148448                0.05665600               25.65285465               -0.13889172
               8.10393562               10.29596289               35.84402222                0.35849569               -1.18099298                0.83202834               -0.78278514               -0.22532733               25.43678166                0.10545751
               9.09058037               10.08379765               35.91003019                0.37131642               -1.56174198                0.98726169               -0.85279925               -0.39000084               26.01873018                0.28833329
              10.07270078                9.86827873               35.98280824                0.40634667               -2.22007254                1.15979612               -0.91100504               -0.74353867               27.47565127                0.56398235
              11.04617892                9.64888797               36.07421626                0.55826389               -3.13959875                1.39068131               -0.94234916               -1.88539041               26.96453436                1.60578340
              12.00990881                9.42076528               36.13306308                0.68463583               -1.72311098                0.21312404               -0.68716639               -2.14425891               13.52340648                0.90841821
              13.01171670                9.23599687               35.95351087                0.76231526                0.27619160                0.30416787               -1.07027429                0.01087214                1.07252161                0.60867380
              14.01543264                9.05226335               35.76296206                0.94724504                0.37159435                0.44906231               -1.46467948                0.07448705                0.54243528               -0.55608239
               2.13215031                1.19139500               37.52939423                1.00000000               -0.34760127               -0.37359236                1.28984502               -0.05821179               -0.99744975                1.00416514
               3.12867430                0.96742890               37.41552950                1.00000000               -0.30486590               -0.28704155                1.02855586               -0.03563904               -1.31077950                0.13697201
               4.12605299                0.74301308               37.29543119                1.00000000               -0.21255911               -0.20279151                0.74991612               -0.04201693               -1.28925081               -0.20771734
               5.12442312                0.51820080               37.18197344                0.63071646               -0.01997915               -0.13657605                0.48009250               -0.04894160               -0.49865022               -0.90114325
               6.12565341                0.29303045               37.07763946                0.70088196                0.16057941               -0.10896201                0.16476246               -0.06888937               -0.10098717                0.28573246
               7.12763471                0.06857739               36.97249302                0.77011213                0.20687454                0.00240296               -0.08751170               -0.07632073               -0.27456409                0.16518076
               8.12979090               -0.15448355               36.86397113                0.76263809                0.25046236                0.07857123               -0.31938235               -0.05030532               -0.46234008               -0.05927502
               9.13264395               -0.37650357               36.75415743                0.85370876                0.28796012                0.15112299               -0.52913095               -0.06705163               -0.75496816                0.10898556
              10.13555010               -0.59750280               36.63892331                1.00000000                0.29673264                0.23167078               -0.77037331               -0.06278873               -1.11147222                0.62182618
              11.13857861               -0.81806659               36.52153170                1.00000000                0.33103728                0.31963621               -1.03082845               -0.04049954               -1.09842420                0.01072399
              12.14217085               -1.03888620               36.40643076                1.00000000                0.35922444                0.41810397               -1.31399765               -0.01466040               -0.98216327               -0.96174763
               2.35553429                2.18765907               37.48024961                1.00000000               -0.30254264               -0.36308531                1.14658828               -0.01291303               -0.16579953                1.36938315
               3.35250887                1.96455848               37.36621177                1.00000000               -0.26437086               -0.26709472                0.88800821                0.00984122               -0.21621955                0.19604222
               4.35024687                1.74098517               37.25117217                0.95342017               -0.17919230               -0.17660178                0.60967234               -0.00742020               -0.10160155               -0.48386156
               5.34892502                1.51683504               37.13934280                0.26859573               -0.02353278               -0.10843492                0.32825419               -0.04612381                1.51863819               -1.26646072
               6.34977622                1.29194082               37.05646608                0.40772488                0.08517391               -0.05610606                0.02476407               -0.07404025                2.44773970                0.94429381
               7.35062850                1.06860142               36.96062461                0.49997778                0.10260547                0.04634077               -0.22271920               -0.04206516                1.64502240                0.46229445
               8.35182833                0.84630216               36.86031888                0.41987025                0.14272808                0.12937752               -0.44686456               -0.01470764                1.58151262               -0.26261938
               9.35348306                0.62500766               36.76246582                0.50799639                0.19376993                0.19947722               -0.65607495               -0.04289996                1.62193954                0.48873065
              10.35570373                0.40481391               36.66247604                1.00000000                0.26911243                0.25887418               -0.89260574               -0.03505560                0.84713066                0.85539168
              11.35886531                0.18512977               36.54897190                1.00000000                0.35700647                0.33293586               -1.16944593                0.00247968                0.10508461                0.16301041
              12.36284386               -0.03470516               36.43411514                1.00000000                0.39785485                0.44524276               -1.45092279                0.03085336                0.03881141               -1.12406851
               2.57809323                3.18413329               37.43848065                1.00000000               -0.25482023               -0.34593488                1.01424797               -0.00756297                0.04500291                1.73182992
               3.57554503                2.96208700               37.31809102                1.00000000               -0.22325979               -0.22971828                0.75622586                0.01164935                0.22828507                0.18977123
               4.57362804                2.73948105               37.20135395                0.66760804               -0.15000228               -0.11698854                0.49888440               -0.02321348                0.64857476               -1.23368221
               5.57254498                2.51603210               37.08930947                0.00010000               -0.06109079               -0.06918933                0.19657121               -0.05271800                4.45718321               -1.94598143
               6.57240622                2.29190832               37.04865974                0.00010000               -0.00564569               -0.07326144               -0.16613382               -0.26992104                5.68205425               -1.07085757
               7.57243207                2.06950421               36.95469028                0.00010000                0.03421446               -0.04356545               -0.36396136               -0.30176343                2.67922625               -0.01383596
               8.57309051                1.84810400               36.85257249                0.00010000                0.04210675               -0.00803301               -0.56971627               -0.32304270                3.69785288                0.83830063
               9.57327420                1.62748598               36.77836165                0.00010000                0.08181859                0.02142202               -0.79305963               -0.28020937                4.44061170                1.44967529
              10.57472688                1.40767468               36.69066531                0.41754002                0.24365295                0.26382275               -1.02926526               -0.17588764                2.57474712                1.82821497
              11.57814726                1.18859213               36.57942558                1.00000000                0.38654515                0.34500865               -1.30691356               -0.06239626                0.91660062                0.86896105
              12.58245778                0.97001866               36.45855466                1.00000000                0.43105201                0.50619441               -1.58157116                0.01723653                0.43770871               -1.04441840
               2.79947561                4.18074038               37.39667698                1.00000000               -0.20815096               -0.32795583                0.88080465               -0.01503780                0.12144027                1.60438882
               3.79739410                3.95996412               37.26865074                1.00000000               -0.18190479               -0.18859561                0.62329072                0.00209931                0.19381912                0.00753210
               4.79583751                3.73864540               37.14204812                0.36861093               -0.09753565               -0.05616677                0.38148080               -0.08433337                1.14034756               -1.66734449
               5.79544338                3.51545125               37.03291770                0.00010000               -0.24659106               -0.00488013                0.11489632               -0.22283703                5.21637057               -2.62253211
               6.79090569                3.29047560               36.98774829                0.00010000               -0.35229126               -0.05348134               -0.17376291               -0.55571879                8.06835865               -2.64366125
               7.78839756                3.06773011               36.93339084                0.00010000               -0.17599914               -0.10953614               -0.43117419               -0.64849740                7.34158906               -0.42236624
               8.78738571                2.84614150               36.87084934                0.00010000               -0.00446860               -0.15696428               -0.67486338               -0.72594776                6.92263427                1.78314866
               9.78830819                2.62543610               36.80576092                0.00010000                0.18470583               -0.16600840               -0.93875596               -0.46957180                6.56236589                2.34886817
              10.79107982                2.41009036               36.73360787                0.15841171                0.34826111               -0.09631831               -1.23116462               -0.30192925                4.31122604                3.60995593
              11.79527341                2.19202995               36.62085698                0.65581001                0.46278554                0.27973945               -1.51067393               -0.19372611                1.25759245                1.90415841
              12.80033553                1.97541873               36.48788199                1.00000000                0.50621255                0.59985998               -1.74938943               -0.07251386                0.24640949               -0.28925241
               3.01934499                5.17757417               37.35247495                1.00000000               -0.16629974               -0.29634392                0.73681447               -0.02847252                0.19555713                1.33249372
               4.01768199                4.95831509               37.21687199                0.79813708               -0.14453781               -0.13198991                0.47995547               -0.02102265                0.30379998               -0.31761796
               5.01645423                4.73835771               37.08340045                0.19325014               -0.07119752                0.01456076                0.23470223               -0.14386473                1.37303417               -1.80964090
               6.01625804                4.51593450               36.96915925                0.00010000               -0.37206272                0.11779299               -0.00836963               -0.45525805                7.04366070               -2.63777182
               7.00901298                4.29083870               36.94902747                0.00010000               -0.62309113                0.09534670               -0.23431427               -0.74739895               11.37437631               -0.99657156
               8.00379622                4.06731349               36.91937696                0.00010000               -0.40737081                0.01982098               -0.49218227               -0.83911781               10.63320067                0.26290024
               9.00086556                3.84496471               36.88205782                0.00010000               -0.19311580               -0.06272513               -0.76295443               -0.88673328               10.14956764                1.58882430
               9.99993390                3.62416581               36.83996539                0.00010000                0.06144437               -0.12467888               -1.05817603               -0.83399083               10.00773693                2.86617638
              11.00209445                3.40574832               36.79685805                0.13487437                0.45052341               -0.41707612               -1.42767382               -0.41537489                6.05608749                4.44118959
              12.00894437                3.19418692               36.67175290                0.52899148                0.60677458                0.19184371               -1.51790308               -0.02724230                1.09359899                2.47142216
              13.01422994                2.98201586               36.52762000                0.92664120                0.52855703                0.66599122               -1.79611598               -0.08235374                0.17388382                0.37550606
               3.23742432                6.17481350               37.30535879                1.00000000               -0.12342145               -0.24696390                0.58259897               -0.03334727                0.12856474                1.06191789
               4.23619010                5.95732432               37.16088012                0.62787805               -0.10417547               -0.06792531                0.31354822               -0.03531246                0.36397825               -0.64169025
               5.23534081                5.73893661               37.02106723                0.11568976               -0.11664342                0.10075789                0.07037221               -0.17672179                2.14563578               -2.20806397
               6.23385724                5.51780711               36.91220330                0.00010000               -0.53810449                0.15956705               -0.05237097               -0.78877856                9.57584545               -0.65379868
               7.22457872                5.29238253               36.92091283                0.00010000               -0.81840240                0.18588213               -0.27120355               -1.06609532               14.69961599                0.02046977
               8.21748919                5.06812653               36.91227712                0.00010000               -0.58900018                0.12655108               -0.54857796               -1.10514687               13.62620864                0.87085817
               9.21279872                4.84488699               36.89692386                0.00010000               -0.33222126                0.02480122               -0.82529997               -1.15113344               13.27492598                1.92422752
              10.21084476                4.62294253               36.87827953                0.00010000               -0.00237504               -0.11283845               -1.13013390               -1.17779342               13.21605190                3.15421104
              11.21275122                4.40174884               36.85820126                0.13942658                0.38081289               -0.34123064               -1.52712716               -0.50828389                7.73228420                4.46760319
              12.21846102                4.19586682               36.72492213                0.48963053                0.51396839                0.16692922               -1.31142947                0.07475759                1.12846903                2.40195064
              13.22303058                3.98873855               36.57035721                0.91129995                0.45695624                0.63627700               -1.61208937               -0.04684842                0.10728897                0.45294465
               3.45365640                7.17263490               37.25585727                1.00000000               -0.08037721               -0.18469215                0.42303994               -0.02970161                0.05109144                0.88256797
               4.45285263                6.95695659               37.10250677                0.53163973               -0.06096969               -0.01408876                0.15054781               -0.03116863                0.30374389               -0.78408604
               5.45243701                6.74037287               36.95415398                0.07357475               -0.29080378                0.16771990               -0.11003285               -0.26076196                4.67164011               -2.54702230
               6.44703655                6.51912584               36.88813013                0.00010000               -0.75326787                0.13282592                0.10922097               -1.00767271               12.82621032                1.30311407
               7.43737165                6.29455634               36.90257130                0.00010000               -0.89238674                0.25769919               -0.32070957               -1.22829573               16.67022876                0.75732304
               8.42918882                6.06984451               36.91066707                0.00010000               -0.71723737                0.22554267               -0.59938705               -1.34961218               16.32775365                1.27289741
               9.42302690                5.84546073               36.91523460                0.00010000               -0.48363134                0.09655969               -0.85418321               -1.46547148               16.27262028                2.14821758
              10.41951619                5.62190904               36.91878070                0.00010000               -0.20112126               -0.07426768               -1.10992911               -1.60166859               16.47041665                3.26411310
              11.41900448                5.39892370               36.92319337                0.15798021                0.19668085               -0.21698256               -1.38716268               -0.80632102                9.18197237                4.62232106
              12.42344981                5.19752550               36.77545799                0.46891302                0.42725165                0.17368824               -1.16937229                0.08762579                0.85867283                2.09922047
              13.42754951                4.99474140               36.61142339                0.90321815                0.40997017                0.57867376               -1.48876497               -0.01887004                0.07518218                0.25127610
               3.66818691                8.17111965               37.20522606                1.00000000               -0.03581492               -0.11913557                0.26476612               -0.02687172                0.01601938                0.81302763
               4.66782876                7.95704254               37.04352219                0.49546333               -0.01152946                0.02768464               -0.00713702               -0.01576229                0.16132070               -0.80442530
               5.66795632                7.74229101               36.88465032                0.05086274               -0.41542231                0.19527831               -0.28672131               -0.34665717                7.57765485               -2.67198152
               6.65952031                7.52046363               36.87120715                0.00010000               -0.93310915                0.25351079               -0.09978090               -0.93768810               16.51035068                0.95376624
               7.64929414                7.29753651               36.88945688                0.00010000               -0.99638810                0.39063709               -0.41288914               -1.16925845               18.44935856                0.93146682
               8.63959255                7.07263739               36.91188498                0.00010000               -0.89346909                0.38417360               -0.66049136               -1.49298267               18.85988856                1.36433980
               9.63142475                6.84681819               36.93493454                0.00010000               -0.71220636                0.21894141               -0.86125730               -1.79050501               19.17892587                2.15559419
              10.62534842                6.62145717               36.95975966                0.00010000               -0.52082102                0.00004807               -1.01509120               -2.01219497               19.70942742                3.13871361
              11.62100833                6.39740919               36.98876680                0.18952281               -0.04762899               -0.07598107               -1.08531269               -1.10193649               10.46165379                4.32884138
              12.62439584                6.19934059               36.82324536                0.45985581                0.36065315                0.20152723               -1.09401172                0.06442343                0.40826271                1.77753652
              13.62822140                6.00031203               36.64997228                0.89736509                0.38255529                0.54117237               -1.43688342               -0.00265318                0.04693781               -0.03611962
               3.88127319                9.17025218               37.15436606                1.00000000                0.00928404               -0.05634702                0.10851932               -0.02477531                0.00191251                0.81700172
               4.88136603                8.95751028               36.98459866                0.51050165                0.04047960                0.06537514               -0.16216074               -0.00453152                0.00844930               -0.77927364
               5.88208278                8.74427844               36.81486944                0.03762320               -0.41643700                0.19667431               -0.44916740               -0.31554057                9.78988155               -2.46109324
               6.87303729                8.52419605               36.84063511                0.00010000               -1.01350282                0.47197727               -0.40860569               -0.72610277               20.12808083                0.01440874
               7.86181272                8.30236908               36.87496493                0.00010000               -1.14948982                0.59318211               -0.56418142               -0.99461682               20.88712683                0.65442230
               8.85004749                8.07752798               36.91250183                0.00010000               -1.17078527                0.62553451               -0.74339759               -1.44470083               21.44098741                1.12061268
               9.83839702                7.84983956               36.95390939                0.00010000               -1.06830987                0.52493055               -0.89374006               -1.97976734               22.01111710                1.84644146
              10.82868129                7.62191000               36.99833124                0.00218437               -0.96573418                0.17784839               -0.93306391               -2.46650906               22.70662344                3.03962104
              11.81908233                7.39740408               37.04867797                0.23546469               -0.34229288                0.06192969               -0.79390016               -1.37404661               11.67383516                3.47800547
              12.82183544                7.20155605               36.86768578                0.46194510                0.32356146                0.24825512               -1.06321041                0.01562432                0.06711235                1.41147278
              13.82555356                7.00556484               36.68527027                0.89312329                0.37181269                0.50703155               -1.43457640                0.00727553                0.01874647               -0.38479088
               4.09317521               10.16999271               37.10381317                0.99758492                0.05366631                0.00126348               -0.04650883               -0.02366020               -0.01980876                0.72603519
               5.09371188                9.95835005               36.92597066                0.54756295                0.08922593                0.10293151               -0.31253604               -0.00244280                0.04298080               -0.64409180
               6.09495973                9.74622450               36.74927301                0.00664052               -0.34021326                0.20256787               -0.59409555               -0.18426752               11.72272622               -1.61561209
               7.08690761                9.52990317               36.80490552                0.00010000               -0.94449296                0.61073134               -0.62597353               -0.40150239               23.33463203               -0.16885779
               8.07606987                9.30940016               36.85669354                0.00010000               -1.18397793                0.74099147               -0.72815866               -0.62066542               23.42475145                0.29159352
               9.06322805                9.08514808               36.90944413                0.00010000               -1.43112443                0.85706128               -0.85362203               -0.95432794               23.99957872                0.62075619
              10.04744738                8.85731680               36.96814220                0.00010000               -1.73871649                0.94691207               -0.97487453               -1.56654898               25.10078944                1.09078336
              11.02845372                8.62501414               37.03823393                0.06564868               -1.67830143                0.86568703               -1.09112890               -2.22891716               25.38147095                2.32399875
              12.01388136                8.39864778               37.09740741                0.29948873               -0.59530778                0.17776474               -0.66373519               -1.61190178               12.59220957                1.91885266
              13.01654757                8.20430569               36.90817330                0.47274504                0.32339795                0.29809171               -1.07017551               -0.02386858                0.08299605                0.91857013
              14.02034931                8.01045266               36.71669236                0.88217780                0.38017474                0.47914799               -1.47540113                0.01045968               -0.00761381               -0.57018207
               4.30408532               11.17027745               37.05109501                1.00000000                0.10000720                0.02847404               -0.19522882                0.02015586                0.39583183                0.62195562
               5.30508539               10.95956891               36.86959900                0.81652001                0.13794921                0.12188620               -0.46122109                0.03996825                0.80557556               -0.52384165
               6.30684430               10.74832979               36.69616666                0.49646627               -0.16269047                0.21052972               -0.73669258                0.03054553               13.63416068               -0.98205104
               7.30183158               10.53641068               36.77106045                0.36901367               -0.63448951                0.65075062               -0.79468410               -0.06464727               25.88443921               -0.16044043
               8.29415451               10.31718891               36.83572458                0.35862701               -0.93936451                0.77887547               -0.88193156               -0.27860991               25.66658180                0.10076510
               9.28304429               10.09466921               36.90083327                0.37109762               -1.34772680                0.95211278               -0.99230281               -0.43893166               26.26901011                0.30364396
              10.26719997                9.86877780               36.97272744                0.40545158               -2.01361603                1.14610046               -1.10887363               -0.79701402               27.75306214                0.58702891
              11.24277197                9.63922374               37.06300762                0.55748968               -2.98236128                1.42096027               -1.30445376               -1.95909679               27.53755221                1.59274540
              12.20755275                9.40095938               37.12587455                0.68159373               -1.66093915                0.23115950               -0.75649304               -2.21815366               13.95329252                0.92650472
              13.20955319                9.20751788               36.94251210                0.75321245                0.29580331                0.32121928               -1.13058745                0.00998325                1.10202875                0.62904899
              14.21346882                9.01514780               36.74795535                0.94049293                0.39156297                0.46951438               -1.53873090                0.07494226                0.56320812               -0.55670750
               2.23725832                1.25135385               38.54234478                1.00000000               -0.34973497               -0.37794461                1.30367194               -0.05951597               -1.01607116                1.01640108
               3.23376097                1.01885444               38.42582559                1.00000000               -0.30513670               -0.28815199                1.03208743               -0.03596877               -1.34007425                0.14443603
               4.23115558                0.78589749               38.30288531                1.00000000               -0.20978013               -0.20085610                0.74025298               -0.04232022               -1.32277574               -0.20741168
               5.22956536                0.55249610               38.18667885                0.63376557               -0.02391412               -0.13150086                0.45810721               -0.09167935               -0.55098080               -0.91801965
               6.23067730                0.31775555               38.07907511                0.69848103                0.17524908               -0.11869797                0.11424284               -0.06191017               -0.13454915                0.28149570
               7.23307034                0.08276922               37.97136012                0.76204316                0.25344976                0.00369432               -0.14972246               -0.08017229               -0.24872379                0.15922713
               8.23574629               -0.15077458               37.86054562                0.75461001                0.30064609                0.08054536               -0.37533923               -0.05110900               -0.39521561               -0.06253215
               9.23908327               -0.38305681               37.74871501                0.84811054                0.32463647                0.15147900               -0.56449508               -0.06946848               -0.67622380                0.11168785
              10.24223902               -0.61413358               37.63116062                1.00000000                0.31337192                0.23364852               -0.78654267               -0.06585389               -1.05418929                0.63497821
              11.24535070               -0.84463663               37.51120641                1.00000000                0.33700199                0.32249228               -1.03973887               -0.04127692               -1.06278627                0.02024716
              12.24897906               -1.07534332               37.39328223                1.00000000                0.36283581                0.41936830               -1.32079594               -0.01579661               -0.95629583               -0.93196305
               2.46916256                2.24757440               38.49175329                1.00000000               -0.30331079               -0.36786677                1.15709878               -0.01272402               -0.17487522                1.38543839
               3.46612946                2.01597292               38.37508951                1.00000000               -0.26255075               -0.26781309                0.88848976                0.01074779               -0.23678512                0.20726976
               4.46391155                1.78388893               38.25721655                0.96573960               -0.17049566               -0.17427736                0.59779744               -0.00849123               -0.13304514               -0.46843256
               5.46271954                1.55118109               38.14253555                0.27572558                0.05050458               -0.10148276                0.30646318               -0.10702979                1.47412951               -1.27273005
               6.46492164                1.31656857               38.05652571                0.40843880                0.19070717               -0.07532678               -0.01839507               -0.05685718                2.42943551                0.91226163
               7.46653369                1.08280616               37.95817502                0.49649700                0.16132890                0.04458056               -0.27362354               -0.04493009                1.68606765                0.45364735
               8.46814822                0.85003087               37.85566489                0.42018006                0.17671963                0.13224876               -0.48852368               -0.02043449                1.65679888               -0.26306054
               9.47006808                0.61845798               37.75582168                0.51032340                0.21110863                0.20159256               -0.67307746               -0.04443920                1.69431630                0.48929334
              10.47237039                0.38820291               37.65350287                1.00000000                0.27373652                0.26051890               -0.90046530               -0.03848022                0.88219012                0.86211057
              11.47554281                0.15858829               37.53724662                1.00000000                0.35787001                0.33696500               -1.17409007                0.00221199                0.11560551                0.17415496
              12.47952779               -0.07114964               37.41957761                1.00000000                0.39849823                0.44441658               -1.45445498                0.02984833                0.04514411               -1.08861008
               2.70020680                3.24399651               38.44865186                1.00000000               -0.25454064               -0.35165527                1.02258960               -0.00735912                0.04194956                1.75161673
               3.69766139                3.01349818               38.32564157                1.00000000               -0.22146071               -0.22961677                0.75437634                0.01120655                0.22438180                0.20458486
               4.69577758                2.78241195               38.20628492                0.68439970               -0.14581301               -0.11167865                0.48583481               -0.02705244                0.62339730               -1.20585453
               5.69474513                2.55046645               38.09118109                0.00010000                0.10687528               -0.05985050                0.17443375               -0.14089791                4.37663867               -1.91665741
               6.69791509                2.31624901               38.04676706                0.00010000                0.19821531               -0.10222863               -0.21685660               -0.45113861                5.66953357               -1.03753330
               7.69870944                2.08366083               37.95082433                0.00010000                0.08853481               -0.04946409               -0.41288110               -0.46219927                2.76653908                0.00851459
               8.69968579                1.85187039               37.84671186                0.00010000                0.06565033               -0.00824023               -0.60449032               -0.44837324                3.78381645                0.84130122
               9.70002245                1.62097504               37.77047171                0.00010000                0.08266566                0.01645341               -0.78647395               -0.34471557                4.49252944                1.41468538
              10.70133910                1.39107680               37.68034603                0.41465483                0.23625244                0.26583453               -1.02852116               -0.17227026                2.58932402                1.80190277
              11.70474749                1.16210267               37.56630500                1.00000000                0.38563992                0.35175792               -1.30781277               -0.05337748                0.91256784                0.84723634
              12.70905190                0.93354501               37.44271156                1.00000000                0.43044045                0.49807953               -1.57749382                0.01836576                0.43190612               -1.02205787
               2.93001205                4.24054130               38.40550497                1.00000000               -0.20738962               -0.33437771                0.88710962               -0.01547091                0.12373232                1.61707999
               3.92793815                4.01138059               38.27486366                1.00000000               -0.18049090               -0.18720540                0.61965465                0.00112205                0.20317816                0.01633643
               4.92640223                3.78165536               38.14580548                0.36972929               -0.09368177               -0.04797463                0.36822567               -0.09072248                1.14515868               -1.65659207
               5.92606452                3.54998408               38.03395795                0.00010000               -0.18488721                0.00666061                0.08872288               -0.33296911                5.19641903               -2.58649105
               6.92270449                3.31452400               37.98580815                0.00010000               -0.21981002               -0.06444759               -0.21890338               -0.85325761                8.06146453               -2.54303058
               7.92166832                3.08181688               37.92881143                0.00010000               -0.04189727               -0.12575010               -0.48824802               -0.91767927                7.36792283               -0.36211550
               8.92186654                2.84986607               37.86379492                0.00010000                0.11495200               -0.17147646               -0.73653239               -0.96103996                6.94953361                1.79895899
               9.92396736                2.61878704               37.79601658                0.00010000                0.29654038               -0.18996781               -0.99941501               -0.61385263                6.58451258                2.31391909
              10.92779735                2.39351960               37.72148503                0.14432915                0.40198471               -0.12815162               -1.19065616               -0.31136090                4.27957801                3.45534565
              11.93200705                2.16562345               37.60574839                0.62630333                0.46065408                0.27234760               -1.49494013               -0.18074260                1.24181774                1.91799541
              12.93701043                1.93881195               37.47043001                1.00000000                0.50033796                0.58088088               -1.72727125               -0.06775453                0.25380582               -0.23950046
               3.15821880                5.23730896               38.35984956                1.00000000               -0.16490325               -0.30264933                0.74027193               -0.03009231                0.20303602                1.33366110
               4.15656977                5.00975407               38.22164269                0.78806266               -0.14295833               -0.12803286                0.47400639               -0.02443150                0.31679427               -0.32638178
               5.15535964                4.78145245               38.08569135                0.18930261               -0.06763286                0.02574404                0.22105314               -0.15395945                1.39295326               -1.82339048
               6.15521711                4.55059966               37.96896527                0.00010000               -0.31712463                0.12351844               -0.03510660               -0.57417695                7.06940430               -2.57316283
               7.14901715                4.31496006               37.94647932                0.00010000               -0.51016671                0.09881281               -0.27945767               -0.96125019               11.39950558               -0.91086068
               8.14501378                4.08114582               37.91413359                0.00010000               -0.27611627                0.00192959               -0.55964967               -1.05184147               10.63979130                0.32957444
               9.14349482                3.84844086               37.87398612                0.00010000               -0.04609603               -0.08467537               -0.85210444               -1.09405939               10.13885228                1.62786287
              10.14409186                3.61717568               37.82880374                0.00010000                0.23903263               -0.15569918               -1.17122878               -1.00602888                9.93107547                2.86996974
              11.14827547                3.38851377               37.78148807                0.12188863                0.58742156               -0.47838581               -1.61762858               -0.46281202                6.10972688                4.34411540
              12.15584029                3.16754962               37.65615486                0.49942540                0.65221697                0.14835913               -1.55518679               -0.01183392                1.20457708                2.67141387
              13.16131981                2.94516263               37.50953001                0.91109865                0.54795211                0.64843549               -1.78782557               -0.08437370                0.15162367                0.55676362
               3.38451998                6.23448831               38.31117654                1.00000000               -0.12139506               -0.25200938                0.58280052               -0.03473737                0.12631056                1.05434086
               4.38330603                6.00881993               38.16396425                0.61507695               -0.10212624               -0.06133928                0.30283223               -0.04023444                0.37500215               -0.66033247
               5.38247746                5.78217024               38.02169328                0.11066923               -0.11163283                0.11844314                0.05103741               -0.20184022                2.23663475               -2.24062096
               6.38107337                5.55245445               37.91166356                0.00010000               -0.47720686                0.13660405               -0.05800367               -0.92001804                9.67655527               -0.44760896
               7.37293332                5.31650025               37.91798751                0.00010000               -0.69613446                0.18095222               -0.31770460               -1.26946694               14.71606808                0.11314268
               8.36715069                5.08185547               37.90640573                0.00010000               -0.44889101                0.11669669               -0.62917639               -1.28910468               13.61568112                0.94685771
               9.36395550                4.84817256               37.88810627                0.00010000               -0.16884047                0.00897248               -0.94071581               -1.32865757               13.24336964                1.99723768
              10.36377388                4.61567306               37.86612921                0.00010000                0.21058340               -0.13585104               -1.30078645               -1.33441764               13.09862416                3.23231247
              11.36816717                4.38395188               37.84148183                0.12664687                0.56738211               -0.39978168               -1.81397447               -0.57052356                7.92225591                4.61067955
              12.37512152                4.16859064               37.71125021                0.46403307                0.59648928                0.11355526               -1.39490025                0.07466409                1.40778035                2.68498379
              13.38009695                3.95178066               37.55392821                0.89575090                0.49754350                0.63029131               -1.64753744               -0.05040349                0.08787084                0.68631214
               3.60886082                7.23226877               38.26006338                1.00000000               -0.07776678               -0.18782065                0.41965156               -0.03024076                0.04790685                0.87186202
               4.60808315                7.00852729               38.10394647                0.52164733               -0.05862560               -0.00660548                0.13715654               -0.03384912                0.30562286               -0.79732980
               5.60768831                6.78382132               37.95293498                0.06858250               -0.27982055                0.18836202               -0.13579189               -0.32157540                4.93170406               -2.58255347
               6.60248674                6.55333174               37.88928717                0.00010000               -0.67307597                0.10170085                0.11158777               -1.13563951               12.99791321                1.40465600
               7.59422679                6.31857910               37.89909222                0.00010000               -0.74636826                0.24582635               -0.37982457               -1.39447067               16.57926099                0.82716287
               8.58755938                6.08347976               37.90421684                0.00010000               -0.55613571                0.21398461               -0.69508271               -1.50899655               16.32885037                1.35574907
               9.58310408                5.84862031               37.90602607                0.00010000               -0.29675974                0.08146252               -0.99273034               -1.61131980               16.27251497                2.26278407
              10.58162418                5.61445866               37.90670890                0.00010000                0.04216748               -0.09407510               -1.31351515               -1.74337449               16.43238942                3.44992934
              11.58394743                5.38051814               37.90781755                0.14459558                0.39403064               -0.26998478               -1.71519945               -0.86527023                9.45410358                4.99477339
              12.58950480                5.16982073               37.76334655                0.44710924                0.49921329                0.14186090               -1.24637195                0.08592109                1.16578249                2.30967817
              13.59393169                4.95776845               37.59631373                0.88897387                0.44268959                0.57686139               -1.52556190               -0.02560082                0.06919101                0.40205913
               3.83139814                8.23073190               38.20783219                1.00000000               -0.03216347               -0.12046449                0.25770725               -0.02734101                0.01455724                0.80277347
               4.83107650                8.00868782               38.04337432                0.48830973               -0.00783221                0.03523335               -0.02312488               -0.01678095                0.15554687               -0.81300619
               5.83124149                7.78593748               37.88166504                0.04863326               -0.37368539                0.21379911               -0.31216554               -0.42884477                7.79597375               -2.69344911
               6.82360280                7.55448847               37.86993691                0.00010000               -0.81728034                0.24628759               -0.16080246               -1.06810501               16.72306516                0.82648215
               7.81489589                7.32141678               37.88498053                0.00010000               -0.83366259                0.37505770               -0.48859073               -1.31706321               18.45067018                0.95862989
               8.80692954                7.08613516               37.90474850                0.00010000               -0.70728432                0.36464442               -0.77225846               -1.63084492               18.91372649                1.44465584
               9.80075020                6.84980181               37.92559460                0.00010000               -0.49604905                0.19640654               -1.01491227               -1.91120341               19.27270136                2.28774574
              10.79700856                6.61379156               37.94865696                0.00010000               -0.26252542               -0.02947518               -1.22236695               -2.14217847               19.85938476                3.38360089
              11.79549969                6.37855219               37.97670486                0.17525950                0.12905299               -0.10435304               -1.36938102               -1.16786401               10.75842582                4.79428474
              12.79958962                6.17142785               37.81194783                0.44035789                0.40948979                0.19012550               -1.16655735                0.06612458                0.60883045                1.91898888
              13.80368949                5.96331789               37.63537863                0.88414355                0.40998658                0.54309927               -1.48127065               -0.00649241                0.04632988                0.03776481
               4.05240216                9.22985948               38.15539226                1.00000000                0.01397928               -0.05579873                0.09757787               -0.02525146                0.00053412                0.80714520
               5.05254195                9.00923195               37.98288627                0.50591547                0.04543024                0.07317516               -0.18131459               -0.00477756               -0.00100494               -0.78346292
               6.05331076                8.78809730               37.81025510                0.03568401               -0.34483036                0.21204183               -0.47615656               -0.40789646                9.92813633               -2.46389779
               7.04564535                8.55825749               37.83621565                0.00010000               -0.85359647                0.46347226               -0.47384020               -0.88199503               20.33860960               -0.09342272
               8.03623884                8.32608026               37.86889839                0.00010000               -0.95439490                0.56490269               -0.65570473               -1.13937059               21.00773688                0.65245738
               9.02655745                8.09077265               37.90446672                0.00010000               -0.95076126                0.59367760               -0.86974065               -1.56400751               21.57317173                1.18752550
              10.01722361                7.85254844               37.94416258                0.00010000               -0.82636058                0.49382852               -1.06259465               -2.08731860               22.22682130                1.95905084
              11.01003024                7.61386916               37.98813057                0.00010000               -0.71348799                0.14965955               -1.12299444               -2.57428146               23.08676980                3.15383250
              12.00295385                7.37843108               38.04001990                0.22122749               -0.19843243                0.06311617               -0.96875543               -1.44674703               11.98798882                3.85450781
              13.00606159                7.17362324               37.85670622                0.44332978                0.35339618                0.25362085               -1.13718330                0.01708607                0.13144986                1.50902957
              14.01002177                6.96863044               37.67063728                0.88023931                0.39601866                0.51830563               -1.49490353                0.00443777                0.01940909               -0.36309166
               4.27214817               10.22961592               38.10326685                0.99305996                0.05949679                0.00413428               -0.06237097               -0.02421284               -0.01848799                0.71983858
               5.27274314               10.01015132               37.92274347                0.54492859                0.09549291                0.11098207               -0.33478633               -0.00305159                0.03659091               -0.64468105
               6.27405803                9.79017832               37.74320135                0.00525513               -0.23816001                0.21444864               -0.62362452               -0.29638955               11.82782893               -1.60673469
               7.26797994                9.56375791               37.79835018                0.00010000               -0.72323528                0.55627455               -0.68973542               -0.53888712               23.54040194               -0.20738530
               8.25959332                9.33271483               37.84893245                0.00010000               -0.93993643                0.69179253               -0.82913516               -0.72468013               23.60491325                0.28863977
               9.24918121                9.09800871               37.90024480                0.00010000               -1.18430007                0.81598006               -0.99226741               -1.03180928               24.19422054                0.66094792
              10.23590732                8.85967838               37.95748053                0.00010000               -1.47704521                0.91501907               -1.16014937               -1.64299491               25.31970173                1.15610061
              11.21964030                8.61678475               38.02595412                0.05909916               -1.45483252                0.86631648               -1.34935745               -2.30556273               25.96499679                2.27766341
              12.20681067                8.37981451               38.09040232                0.28788938               -0.49541606                0.19650128               -0.75094258               -1.68840752               13.05028877                2.08059979
              13.20973198                8.17650027               37.89714532                0.45445774                0.34765885                0.31385001               -1.14100246               -0.02578154                0.07844036                0.97306908
              14.21376385                7.97368400               37.70158464                0.86911074                0.40318642                0.49863895               -1.55103661                0.00779943               -0.01178730               -0.57802715
               4.49084711               11.22994217               38.04904990                1.00000000                0.10714217                0.03262443               -0.21457546                0.02083633                0.39261409                0.61955594
               5.49191853               11.01145159               37.86486651                0.81622760                0.14646381                0.13002719               -0.48794263                0.03974426                0.79859510               -0.52283193
               6.49377638               10.79238627               37.68865311                0.49518685                0.02062806                0.22079543               -0.77017795               -0.13159507               13.72451764               -0.97008686
               7.49233109               10.56938298               37.76277648                0.36913407               -0.31409736                0.56250684               -0.86639917               -0.18839293               26.08299002               -0.18335531
               8.48749443               10.33991611               37.82638359                0.35876663               -0.66866878                0.72012770               -0.99148319               -0.32442541               25.86297310                0.09753101
               9.47895771               10.10709225               37.89018413                0.37085806               -1.09533798                0.90835354               -1.14263010               -0.47571363               26.47976101                0.32026006
              10.46558768                9.87084883               37.96063077                0.40454020               -1.75874313                1.11704454               -1.30893279               -0.82680259               27.93840515                0.60912782
              11.44378285                9.63119549               38.04812719                0.55491673               -2.80587483                1.44107365               -1.63700410               -2.01013157               28.19377556                1.50081675
              12.40947018                9.38236110               38.11793322                0.67682720               -1.60531916                0.25465894               -0.84344788               -2.29881143               14.55311843                0.96660563
              13.41167647                9.17990024               37.93089912                0.74410630                0.31700614                0.33999687               -1.19647556                0.00655427                1.14851416                0.65956090
              14.41581030                8.97860322               37.73218744                0.93380485                0.41338343                0.49192159               -1.62010187                0.07494326                0.58841419               -0.57067524
               2.34486726                1.31290599               39.55546767                1.00000000               -0.35349769               -0.38452261                1.32554811               -0.06190930               -1.03809537                1.03017450
               3.34133228                1.07178979               39.43617125                1.00000000               -0.30615160               -0.29018933                1.03903253               -0.03741823               -1.37489538                0.15238425
               4.33874422                0.83020237               39.31023625                1.00000000               -0.20592865               -0.19854651                0.72957224               -0.04357003               -1.36375363               -0.20732769
               5.33721371                0.58812699               39.19113558                0.63805388               -0.02315340               -0.12487989                0.43039803               -0.13368710               -0.62126988               -0.93537555
               6.33828116                0.34375915               39.07992432                0.69828122                0.19880026               -0.12650390                0.04758065               -0.05531162               -0.19289616                0.27513884
               7.34118971                0.09813214               38.96949857                0.75602722                0.31252695                0.00780198               -0.23335765               -0.08449719               -0.22846480                0.14862844
               8.34453170               -0.14597273               38.85646435                0.74731263                0.36573827                0.08474308               -0.45144592               -0.05216929               -0.31236417               -0.07109516
               9.34850448               -0.38848314               38.74286752                0.84300278                0.37216137                0.15199775               -0.61078989               -0.07305731               -0.57093757                0.11299801
              10.35197492               -0.62948773               38.62319245                1.00000000                0.33483978                0.23584372               -0.81104700               -0.06817930               -0.97808591                0.64417936
              11.35520127               -0.86974206               38.50073692                1.00000000                0.34591844                0.32563401               -1.05740078               -0.04128574               -1.01782312                0.02896206
              12.35889329               -1.11011623               38.38001484                1.00000000                0.36920187                0.42095457               -1.33549510               -0.01827179               -0.92407004               -0.89882610
               2.58536436                2.30906076               39.50339158                1.00000000               -0.30544538               -0.37460204                1.17472125               -0.01300962               -0.18599535                1.40294499
               3.58230991                2.06888790               39.38398157                1.00000000               -0.26122174               -0.26926237                0.89132304                0.01117324               -0.26132223                0.21910254
               4.58013992                1.82821691               39.26312812                0.97919589               -0.16057287               -0.17136744                0.58295336               -0.00987340               -0.16869356               -0.45256493
               5.57909845                1.58687819               39.14547206                0.28368164                0.12927710               -0.09252174                0.27685927               -0.16704414                1.42133055               -1.27889281
               6.58272547                1.34249411               39.05609817                0.41022102                0.30561140               -0.09419630               -0.07394306               -0.03977686                2.40115807                0.87243076
               7.58521068                1.09821016               38.95515214                0.49398018                0.22960888                0.04529723               -0.33993557               -0.04955357                1.73013300                0.43645211
               8.58731764                0.85487471               38.85054840                0.42093060                0.21603646                0.13863546               -0.54344287               -0.02927807                1.75259838               -0.27228698
               9.58953141                0.61303683               38.74900427                0.51234469                0.23024734                0.20339627               -0.69424804               -0.05089225                1.78627825                0.48888812
              10.59192259                0.37287071               38.64446673                1.00000000                0.27856319                0.26091479               -0.90508108               -0.04087094                0.92349016                0.86428077
              11.59510267                0.13351428               38.52549010                1.00000000                0.35810763                0.33885717               -1.17513058                0.00272110                0.12753913                0.18321653
              12.59908474               -0.10590669               38.40502604                1.00000000                0.39820742                0.44206677               -1.45313224                0.02737932                0.05231202               -1.04915219
               2.82495279                3.30541395               39.45893244                1.00000000               -0.25531901               -0.35882455                1.03720138               -0.00751482                0.03738605                1.77307468
               3.82239960                3.06640454               39.33317855                1.00000000               -0.21981636               -0.22990830                0.75371204                0.01041581                0.21787399                0.22056735
               4.82055646                2.82677502               39.21107065                0.70078741               -0.14019886               -0.10548914                0.46867870               -0.03107573                0.59658814               -1.17627675
               5.81959562                2.58627656               39.09279815                0.00010000                0.27985950               -0.04704700                0.14319715               -0.23145758                4.28778564               -1.88938720
               6.82615365                2.34187522               39.04432260                0.00010000                0.41112102               -0.12956934               -0.27834460               -0.63412226                5.64421361               -1.01417533
               7.82781804                2.09903808               38.94643265                0.00010000                0.14829032               -0.05158090               -0.47403720               -0.62583361                2.86192615                0.01402787
               8.82911946                1.85679998               38.84048268                0.00010000                0.08362926               -0.00141424               -0.65279303               -0.57998582                3.89746198                0.81914299
               9.82949063                1.61558478               38.76263217                0.00010000                0.07803020                0.01728083               -0.78845935               -0.41462481                4.56448113                1.34463045
              10.83068006                1.37573057               38.67009488                0.40932668                0.22712326                0.25922598               -1.01495905               -0.17663625                2.59945784                1.78319060
              11.83403309                1.13703508               38.55326932                1.00000000                0.38013713                0.35128620               -1.29179036               -0.04716759                0.90532449                0.82860174
              12.83828281                0.89872510               38.42700478                1.00000000                0.42497125                0.48584743               -1.55606583                0.01718579                0.42590367               -0.99103371
               3.06323287                4.30188427               39.41441917                1.00000000               -0.20757213               -0.34190611                0.89872883               -0.01612017                0.12558753                1.63089020
               4.06115715                4.06428973               39.28104383                1.00000000               -0.17932346               -0.18588394                0.61658229               -0.00003300                0.21207337                0.02619985
               5.05964640                3.82610712               39.14941264                0.36916812               -0.08940237               -0.03864591                0.35082846               -0.09591125                1.14804285               -1.64355381
               6.05936910                3.58593725               39.03469216                0.00010000               -0.11824519                0.02445365                0.05221075               -0.44709309                5.17310174               -2.55274004
               7.05728149                3.33990272               38.98337022                0.00010000               -0.07999289               -0.07165512               -0.27458597               -1.15387982                8.05060873               -2.44022896
               8.05776924                3.09717854               38.92362588                0.00010000                0.09448677               -0.13637052               -0.55470981               -1.18945485                7.39268484               -0.31502227
               9.05917123                2.85484642               38.85611869                0.00010000                0.22695420               -0.17946832               -0.80114441               -1.19715451                6.97982893                1.78397549
              10.06230832                2.61338245               38.78577262                0.00010000                0.38841700               -0.20661028               -1.04648683               -0.76141794                6.65166781                2.21234919
              11.06693957                2.37805523               38.70979474                0.13094051                0.44282300               -0.15483705               -1.14424476               -0.32923226                4.29279381                3.22159538
              12.07116478                2.14054000               38.59095818                0.59955083                0.45544223                0.25391521               -1.45380477               -0.16420453                1.20957908                1.91895446
              13.07604841                1.90381026               38.45333656                0.99658436                0.48836295                0.54639132               -1.68219385               -0.06150873                0.25600746               -0.18380835
               3.29981946                5.29857582               39.36728039                1.00000000               -0.16433753               -0.30988862                0.74838884               -0.03178382                0.21080970                1.33506550
               4.29817609                5.06268687               39.22635211                0.77626373               -0.14143723               -0.12379250                0.46785669               -0.02787289                0.33076690               -0.33542420
               5.29699072                4.82600210               39.08782152                0.18483917               -0.06589617                0.03867186                0.20263819               -0.15967173                1.41182149               -1.83675036
               6.29685816                4.58676563               38.96845712                0.00010000               -0.25779750                0.12978889               -0.07173776               -0.69174874                7.09276737               -2.49728358
               7.29183477                4.34044212               38.94343832                0.00010000               -0.38864586                0.10648796               -0.33360952               -1.17892720               11.41616414               -0.82099477
               8.28908525                4.09631067               38.90818397                0.00010000               -0.14311541               -0.00990521               -0.63378605               -1.26583443               10.63398229                0.38810087
               9.28897246                3.85321062               38.86501573                0.00010000                0.09841072               -0.10273132               -0.94154591               -1.30433462               10.11051732                1.64251432
              10.29105346                3.61145258               38.81654082                0.00010000                0.39827051               -0.18494174               -1.27199919               -1.17217134                9.80673438                2.81677262
              11.29693787                3.37263383               38.76450548                0.10926259                0.69702557               -0.52111389               -1.74709272               -0.51017138                6.18240141                4.08056588
              12.30499397                3.14211338               38.64064917                0.47338616                0.67871200                0.09174046               -1.52087194                0.00122803                1.38451488                2.81217573
              13.31051211                2.90965293               38.49186349                0.89722704                0.55181376                0.59354104               -1.72890956               -0.07686674                0.14010150                0.71686019
               3.53437511                6.29568650               39.31701480                1.00000000               -0.12016998               -0.25796678                0.58711160               -0.03581728                0.12303905                1.04634075
               4.53317341                6.06181388               39.16693677                0.60262753               -0.10004543               -0.05434729                0.29125397               -0.04442730                0.38522554               -0.67873628
               5.53237420                5.82688056               39.02208798                0.10506056               -0.10396493                0.13739685                0.02364375               -0.22705884                2.33955948               -2.27132541
               6.53109411                5.58853303               38.91104322                0.00010000               -0.41081468                0.10899875               -0.06736283               -1.04343317                9.76934817               -0.22440124
               7.52415791                5.34203248               38.91455874                0.00010000               -0.57050284                0.18322335               -0.37296890               -1.46800826               14.70431860                0.20410934
               8.51968405                5.09698044               38.89969359                0.00010000               -0.31076359                0.11530260               -0.71579181               -1.47469781               13.58081382                1.01485251
               9.51794263                4.85279179               38.87810955                0.00010000               -0.01211825                0.00087363               -1.05769924               -1.51420685               13.17331624                2.05029122
              10.51944169                4.60968362               38.85226380                0.00010000                0.40663507               -0.15363502               -1.46418951               -1.49199000               12.89484994                3.26730862
              11.52607534                4.36763295               38.82192177                0.11388063                0.73642785               -0.45188440               -2.06619891               -0.63988882                8.14082173                4.66434196
              12.53417024                4.14237481               38.69702413                0.44024435                0.66783269                0.04540300               -1.41913742                0.06617182                1.77989862                2.92018140
              13.53943199                3.91568108               38.53740646                0.88179877                0.52617444                0.58396159               -1.63399612               -0.04502970                0.06872169                0.88533348
               3.76684835                7.29341649               39.26425030                1.00000000               -0.07548691               -0.19201305                0.41937614               -0.03072302                0.04473464                0.86057691
               4.76609348                7.06159992               39.10524990                0.51175950               -0.05589773                0.00143714                0.12318761               -0.03665055                0.30622461               -0.80930264
               5.76573039                6.82875004               38.95143814                0.06371603               -0.26279489                0.21106771               -0.16426179               -0.38576553                5.20615355               -2.61447002
               6.76083758                6.58894560               38.89036189                0.00010000               -0.58515985                0.07658812                0.09291166               -1.25357177               13.16547895                1.48278876
               7.75402720                6.34410659               38.89497480                0.00010000               -0.60028024                0.24352303               -0.44748087               -1.54954161               16.45327309                0.88744597
               8.74883198                6.09861673               38.89676541                0.00010000               -0.40210261                0.21500957               -0.79794621               -1.66547700               16.29884888                1.42960376
               9.74598514                5.85322809               38.89537999                0.00010000               -0.12297362                0.08224017               -1.13742858               -1.76045829               16.22003646                2.36262716
              10.74637250                5.60837988               38.89251040                0.00010000                0.27318784               -0.09880480               -1.52630089               -1.88238921               16.28306803                3.61601183
              11.75144890                5.36359614               38.88888938                0.13077265                0.59483878               -0.32702086               -2.07454190               -0.92738951                9.76639642                5.36275631
              12.75826928                5.14302144               38.75053055                0.42594106                0.57750352                0.09929450               -1.30143669                0.07322282                1.59336865                2.50760810
              13.76299897                4.92133216               38.58091215                0.87578083                0.47296921                0.55313472               -1.54438452               -0.02620820                0.05871685                0.52716733
               3.99739379                8.29184624               39.21038021                1.00000000               -0.02869407               -0.12280296                0.25319973               -0.02798544                0.01323369                0.79186294
               4.99710684                8.06184263               39.04305969                0.48081213               -0.00402906                0.04359779               -0.04066813               -0.01773532                0.14997488               -0.82053244
               5.99731320                7.83110191               38.87840701                0.04589735               -0.32203571                0.23570648               -0.34225958               -0.50960498                7.99970127               -2.70967714
               6.99066613                7.59006479               38.86799110                0.00010000               -0.69086258                0.24843648               -0.23834397               -1.19351854               16.92815105                0.67851884
               7.98349595                7.34690294               38.87968507                0.00010000               -0.67065611                0.36798576               -0.57288563               -1.45474855               18.43830040                0.97612372
               8.97725301                7.10128063               38.89643981                0.00010000               -0.52628175                0.35827287               -0.89273618               -1.75257886               18.93359122                1.51695434
               9.97297032                6.85443660               38.91463630                0.00010000               -0.29135770                0.19532793               -1.18124885               -2.01443309               19.31165217                2.41255351
              10.97142585                6.60770752               38.93531232                0.00010000               -0.00421693               -0.03451915               -1.45871126               -2.25785984               19.91087017                3.64158517
              11.97288598                6.36109253               38.96137918                0.16001022                0.32364134               -0.13996829               -1.74203981               -1.22646279               11.09763200                5.35519700
              12.97789868                6.14436070               38.79991421                0.42104313                0.47002063                0.17588553               -1.23768197                0.06145067                0.91990748                2.05564191
              13.98228639                5.92674378               38.62034687                0.87163077                0.43877105                0.53824218               -1.52552104               -0.00766008                0.04392790                0.08017077
               4.22629586                9.29096043               39.15631761                1.00000000                0.01872324               -0.05571935                0.08842450               -0.02593388               -0.00074009                0.79611674
               5.22648309                9.06247188               38.98097237                0.50108471                0.05101320                0.08167766               -0.20264240               -0.00469551               -0.01005474               -0.78678275
               6.22731613                8.83346417               38.80534631                0.03318862               -0.26584551                0.22949395               -0.50890077               -0.49805727               10.05479130               -2.46308443
               7.22116618                8.59391433               38.83115831                0.00010000               -0.67998683                0.45649234               -0.53963078               -1.03397277               20.52907422               -0.19532754
               8.21371639                8.35146630               38.86185084                0.00010000               -0.74597214                0.53924062               -0.75743003               -1.26772969               21.10340962                0.64700612
               9.20624674                8.10578218               38.89510701                0.00010000               -0.72233995                0.56844972               -1.00610908               -1.65101354               21.67007624                1.25024850
              10.19926959                7.85713465               38.93265749                0.00010000               -0.58436857                0.47670128               -1.24236545               -2.14654520               22.40088619                2.07067229
              11.19455937                7.60768949               38.97587135                0.00010000               -0.45015621                0.14316354               -1.34628071               -2.64659339               23.43559453                3.27825017
              12.19026647                7.36079677               39.02930286                0.20508614               -0.03561592                0.06269611               -1.21955526               -1.51701925               12.34615594                4.36433986
              13.19384705                7.14653915               38.84494211                0.42477581                0.39065753                0.26067353               -1.22011542                0.01678041                0.25236532                1.60675083
              14.19807962                6.93209700               38.65537220                0.86784335                0.42325651                0.52990880               -1.56405519                0.00321156                0.02113499               -0.37430067
               4.45385222               10.29073185               39.10256575                0.98856124                0.06569776                0.00710212               -0.07711367               -0.02514186               -0.01653626                0.71233788
               5.45450919               10.06347618               38.91927494                0.54211543                0.10286925                0.11971499               -0.36039625               -0.00345337                0.03052707               -0.64509795
               6.45590960                9.83569179               38.73680052                0.00346334               -0.12623238                0.22801856               -0.65981466               -0.40864862               11.91988874               -1.59568062
               7.45198455                9.59919464               38.79111081                0.00010000               -0.48180453                0.49883212               -0.76202040               -0.67046653               23.71788079               -0.24459989
               8.44627351                9.35768775               38.84011084                0.00010000               -0.67100781                0.63854772               -0.93905016               -0.81275443               23.75346362                0.28601753
               9.43856439                9.11264962               38.88959878                0.00010000               -0.90707032                0.77067852               -1.14146932               -1.07857677               24.35094504                0.70077647
              10.42813210                8.86397062               38.94493921                0.00010000               -1.18662640                0.87626177               -1.34864058               -1.66617009               25.48806541                1.22501573
              11.41483186                8.61057079               39.01124678                0.04931664               -1.22180847                0.86022234               -1.56313291               -2.34192544               26.58273077                2.20512833
              12.40369593                8.36234646               39.08238856                0.27306060               -0.39489008                0.22164646               -0.87482888               -1.77099488               13.59110039                2.31843259
              13.40693406                8.14957417               38.88535325                0.43621002                0.37694946                0.33311733               -1.22558406               -0.02911574                0.08630947                1.03530463
              14.41123492                7.93734195               38.68567163                0.85633672                0.43008635                0.52158423               -1.64016830                0.00581952               -0.01620785               -0.61030742
               4.68030437               11.29110247               39.04680350                1.00000000                0.11497157                0.03706219               -0.23460859                0.02158554                0.38847571                0.61597265
               5.68145408               11.06486618               38.85984015                0.81578835                0.15601626                0.13899969               -0.51879498                0.04059250                0.79076247               -0.52242919
               6.68342469               10.83802454               38.68076310                0.49369771                0.21534057                0.23327483               -0.81163312               -0.29725076               13.79923512               -0.95658272
               7.68576089               10.60389098               38.75373246                0.36922123                0.02908125                0.46963368               -0.94612455               -0.31172949               26.25015030               -0.20649646
               8.68400632               10.36423725               38.81589492                0.35889238               -0.36842793                0.65495016               -1.11000615               -0.36148039               26.02420595                0.09433362
               9.67839234               10.12119575               38.87798067                0.37062375               -0.79906486                0.85461306               -1.30215532               -0.49607391               26.65044792                0.33736786
              10.66802502                9.87465988               38.94654878                0.40362071               -1.45236539                1.06892605               -1.50536958               -0.82579898               28.05661738                0.63561651
              11.64934503                9.62489394               39.03026754                0.55022834               -2.60909152                1.43231491               -1.86922736               -2.02019239               28.90065166                1.35956856
              12.61584319                9.36522970               39.10900559                0.67000868               -1.55378930                0.28832461               -0.96176814               -2.36989639               15.28653793                1.03760486
              13.61826924                9.15320150               38.91858259                0.73502452                0.34086265                0.36273306               -1.27548378               -0.00153253                1.21989727                0.70217688
              14.62266044                8.94252869               38.71555332                0.92716231                0.43912012                0.51867364               -1.71663736                0.07527076                0.61833289               -0.60094624
               2.45508925                1.37610951               40.56885574                1.00000000               -0.35947676               -0.39409795                1.35791037               -0.06545942               -1.06354199                1.04560653
               3.45149448                1.12628149               40.44660624                1.00000000               -0.30865386               -0.29338148                1.05044996               -0.03991732               -1.41485494                0.16084704
               4.44891617                0.87596719               40.31747676                1.00000000               -0.20212954               -0.19639566                0.71783058               -0.04519150               -1.41171646               -0.20753629
               5.44745189                0.62511563               40.19528681                0.64335701               -0.02298925               -0.11749590                0.39461465               -0.18040773               -0.71289916               -0.95296462
               6.44845639                0.37091061               40.08002672                0.70018182                0.22545635               -0.12917170               -0.03519098               -0.05321511               -0.28270916                0.26770087
               7.45196102                0.11443465               39.96669297                0.75193399                0.38368346                0.01664646               -0.33902239               -0.09125043               -0.21660081                0.13317661
               8.45613006               -0.14036459               39.85151670                0.74015547                0.44876961                0.09313942               -0.55034576               -0.05345081               -0.21041821               -0.08689372
               9.46093641               -0.39307035               39.73649921                0.83684862                0.43389256                0.15414402               -0.67046568               -0.07780705               -0.43471638                0.10997381
              10.46480791               -0.64379854               39.61493968                1.00000000                0.36177226                0.23846361               -0.84292422               -0.07002474               -0.88237832                0.65192596
              11.46817186               -0.89356375               39.49005839                1.00000000                0.35669583                0.32839775               -1.08012444               -0.04094225               -0.96421907                0.03739973
              12.47194183               -1.14334224               39.36657233                1.00000000                0.37699692                0.42196193               -1.35418007               -0.02181530               -0.88639811               -0.86223928
               2.70426268                2.37216853               40.51524772                1.00000000               -0.30962116               -0.38395477                1.20181091               -0.01343400               -0.19926990                1.42195386
               3.70116647                2.12334767               40.39291597                1.00000000               -0.26077501               -0.27171105                0.89760888                0.01104382               -0.28994083                0.23114030
               4.69904718                1.87400323               40.26887562                0.99453062               -0.14951858               -0.16826453                0.56532952               -0.01167090               -0.20831283               -0.43562247
               5.69817610                1.62394067               40.14807274                0.29294932                0.21087718               -0.08285122                0.24153915               -0.22936685                1.35964402               -1.28188407
               6.70326473                1.36961890               40.05504685                0.41371173                0.42550082               -0.11085796               -0.14453904               -0.03155454                2.36214910                0.82547082
               7.70668612                1.11460112               39.95137631                0.49280629                0.30416615                0.05164929               -0.42706410               -0.06126134                1.77817393                0.41004674
               8.70934805                0.86056680               39.84479603                0.42143126                0.25945992                0.15237786               -0.61983049               -0.04122879                1.87592956               -0.29604869
               9.71187532                0.60847109               39.74193672                0.51214380                0.25031561                0.20848258               -0.72625003               -0.06086291                1.90914306                0.48019439
              10.71435436                0.35858609               39.63540124                1.00000000                0.28294838                0.26055719               -0.90644808               -0.04338339                0.97699016                0.86399254
              11.71753428                0.10972022               39.51374401                1.00000000                0.35738998                0.33851915               -1.17177229                0.00317580                0.14151546                0.19191898
              12.72150216               -0.13912262               39.39051497                1.00000000                0.39678790                0.43780268               -1.44606527                0.02357667                0.06066430               -1.00495889
               2.95246230                3.36843042               40.46939588                1.00000000               -0.25816346               -0.36786902                1.06005682               -0.00772540                0.03093327                1.79583255
               3.94988066                3.12084726               40.34071581                1.00000000               -0.21862729               -0.23083258                0.75548179                0.00955820                0.20792983                0.23719506
               4.94808975                2.87260190               40.21565850                0.71899961               -0.13158870               -0.09849072                0.44418482               -0.03605372                0.56573930               -1.14315709
               5.94724889                2.62345861               40.09404503                0.00010000                0.45375517               -0.03351817                0.09701005               -0.32577889                4.18830022               -1.85761789
               6.95716486                2.36869345               40.04120016                0.00010000                0.62694992               -0.15075966               -0.35604914               -0.82363807                5.61009600               -0.99970454
               7.95978789                2.11546764               39.94134359                0.00010000                0.21353269               -0.04180012               -0.55921783               -0.79615294                2.96839655                0.00433206
               8.96143551                1.86268296               39.83365600                0.00010000                0.09559874                0.02228615               -0.73139430               -0.71999998                4.04955317                0.77293053
               9.96169986                1.61109930               39.75470252                0.00010000                0.06277992                0.03271454               -0.80773409               -0.49105092                4.67959336                1.24108759
              10.96269111                1.36141260               39.66004685                0.40145739                0.21221135                0.24774117               -0.98812105               -0.18896860                2.62004914                1.76448911
              11.96594409                1.11320663               39.54046920                1.00000000                0.37039742                0.34512368               -1.26196217               -0.04381289                0.89652882                0.81278686
              12.97009906                0.86541381               39.41159024                1.00000000                0.41549666                0.46998490               -1.52012390                0.01430076                0.42002143               -0.95307582
               3.19927448                4.36481115               40.42347955                1.00000000               -0.20883255               -0.35078888                0.91715345               -0.01655111                0.12664240                1.64526643
               4.19718616                4.11873102               40.28719531                1.00000000               -0.17798594               -0.18473066                0.61397310               -0.00072095                0.21997996                0.03716487
               5.19571477                3.87203342               40.15282205                0.36804317               -0.08085964               -0.02798950                0.32890248               -0.10296977                1.14762528               -1.62695403
               6.19556897                3.62327031               40.03500216                0.00010000               -0.04659139                0.04221555                0.00449781               -0.56114702                5.14599444               -2.51548657
               7.19478294                3.36660370               39.98031643                0.00010000                0.06022917               -0.06709032               -0.34411239               -1.45282379                8.04015828               -2.33373069
               8.19677355                3.11376512               39.91771724                0.00010000                0.22667254               -0.13137545               -0.63625358               -1.46315275                7.42501228               -0.27660557
               9.19931639                2.86101252               39.84777203                0.00010000                0.32755566               -0.16913358               -0.87520513               -1.43634621                7.02922359                1.74689345
              10.20332466                2.60912538               39.77508684                0.00010000                0.45756375               -0.20396749               -1.09119393               -0.92173339                6.77753182                2.05849686
              11.20846766                2.36354092               39.69860014                0.11777741                0.46660768               -0.17072705               -1.08771985               -0.36893185                4.34678880                2.90615798
              12.21265682                2.11662270               39.57667230                0.57277067                0.44530771                0.22602811               -1.39533108               -0.15176776                1.17108655                1.91813887
              13.21737382                1.87027707               39.43678614                0.98041193                0.47170013                0.50080610               -1.61890913               -0.05485545                0.25382171               -0.12247559
               3.44429154                5.36141464               40.37481734                1.00000000               -0.16475631               -0.31829691                0.76184526               -0.03308161                0.21879374                1.33679427
               4.44264398                5.11715265               40.23099982                0.76172316               -0.14002403               -0.11918013                0.46168577               -0.03106627                0.34596740               -0.34501372
               5.44149106                4.87204211               40.08974412                0.17951191               -0.05941603                0.05468439                0.17772042               -0.17011528                1.43058969               -1.85329078
               6.44145566                4.62430292               39.96753051                0.00010000               -0.19387442                0.13956744               -0.11940205               -0.81349255                7.11977761               -2.40571374
               7.43761358                4.36735165               39.93980713                0.00010000               -0.26698247                0.12211237               -0.39784480               -1.39382039               11.43211849               -0.72481012
               8.43611601                4.11284013               39.90145787                0.00010000               -0.01326287               -0.00970187               -0.71639422               -1.48043753               10.62689274                0.44223736
               9.43734832                3.85930029               39.85515520                0.00010000                0.23103958               -0.10991985               -1.03061668               -1.51424720               10.08406956                1.63583495
              10.44073680                3.60701995               39.80336376                0.00010000                0.52334175               -0.20378638               -1.35197106               -1.33841227                9.67621452                2.70868348
              11.44781515                3.35799806               39.74654622                0.09704484                0.77178865               -0.53430492               -1.82017023               -0.57685753                6.31532340                3.66822044
              12.45617258                3.11772719               39.62573742                0.44865814                0.69390207                0.02450906               -1.44839799                0.00049295                1.63369983                2.91268179
              13.46169320                2.87542993               39.47495182                0.88301761                0.55206189                0.50807985               -1.64293889               -0.06308093                0.13427325                0.85559079
               3.68713683                6.35844522               40.32291877                1.00000000               -0.11994636               -0.26498664                0.59573052               -0.03654171                0.11838185                1.03786936
               4.68593737                6.11634742               40.16978933                0.59082489               -0.09873201               -0.04671688                0.27949403               -0.04711463                0.39374903               -0.69705152
               5.68516219                5.87312710               40.02216616                0.09869486               -0.09738970                0.15853885               -0.00912900               -0.25387118                2.46128411               -2.30473212
               6.68398957                5.62606166               39.91031630                0.00010000               -0.33964352                0.08683594               -0.08125420               -1.16385757                9.86355561                0.00871787
               7.67836932                5.36904595               39.91052814                0.00010000               -0.43867098                0.19250245               -0.43862616               -1.66077156               14.67041668                0.29701683
               8.67521615                5.11357108               39.89208990                0.00010000               -0.17588494                0.12427462               -0.80714585               -1.66083319               13.53487135                1.07673583
               9.67485162                4.85881413               39.86695229                0.00010000                0.13212488                0.00229067               -1.17037266               -1.70549616               13.08470652                2.08297072
              10.67785865                4.60504965               39.83684542                0.00010000                0.56858254               -0.16447876               -1.60379939               -1.64599814               12.64653757                3.24916773
              11.68622327                4.35285482               39.80015785                0.10135362                0.86880755               -0.48411042               -2.23708237               -0.72483631                8.42645306                4.58659203
              12.69523480                4.11711288               39.68286746                0.41759128                0.72417230               -0.03221936               -1.39031490                0.03803398                2.25180277                3.09204410
              13.70070672                3.88043867               39.52124829                0.86821126                0.54719164                0.49707295               -1.58289856               -0.03493899                0.05469111                1.03611519
               3.92775631                7.35611491               40.26845090                1.00000000               -0.07365083               -0.19716862                0.42259985               -0.03130861                0.04202195                0.84842815
               4.92701980                7.11621831               40.10641022                0.50179879               -0.05284560                0.01036447                0.10799844               -0.03950969                0.30752531               -0.81962660
               5.92669940                6.87521288               39.94964975                0.06007787               -0.23800691                0.23543351               -0.19700577               -0.45183786                5.48816450               -2.64020634
               6.92225966                6.62603964               39.89114540                0.00010000               -0.49053350                0.06003805                0.05526631               -1.35565005               13.32347947                1.53072427
               7.91688873                6.37120170               39.89014260                0.00010000               -0.45642457                0.25086328               -0.52479450               -1.69350740               16.30639204                0.94282243
               8.91313117                6.11532562               39.88825792                0.00010000               -0.25644539                0.22807843               -0.90405188               -1.82108035               16.24936462                1.49381990
               9.91175982                5.85934611               39.88327750                0.00010000                0.03224897                0.09806239               -1.27963219               -1.91680661               16.13029851                2.44163882
              10.91377615                5.60373038               39.87618288                0.00010000                0.47476912               -0.08936737               -1.72877177               -2.02029124               16.03710681                3.74176796
              11.92125520                5.34831585               39.86632671                0.11693380                0.77866259               -0.38060833               -2.40750037               -1.00102037               10.15174215                5.64416561
              12.92934940                5.11708280               39.73731782                0.40547844                0.65438148                0.05081243               -1.32535055                0.04204134                2.16701061                2.66151922
              13.93434283                4.88537139               39.56542604                0.86309910                0.49934292                0.50112915               -1.54519921               -0.02134052                0.04803025                0.60425995
               4.16630385                8.35450184               40.21289618                1.00000000               -0.02546494               -0.12593195                0.25140592               -0.02863665                0.01197612                0.78046148
               5.16604920                8.11655471               40.04256096                0.47297653                0.00001306                0.05313680               -0.06024457               -0.01868538                0.14477877               -0.82691369
               6.16630411                7.87783577               39.87481985                0.04246556               -0.25807194                0.26146069               -0.37859417               -0.58855178                8.18440219               -2.72193407
               7.16088776                7.62726242               39.86517003                0.00010000               -0.55454593                0.25957949               -0.32543023               -1.31549608               17.11319674                0.51910321
               8.15521319                7.37406322               39.87352281                0.00010000               -0.51188107                0.36964581               -0.66310470               -1.58300878               18.42104503                0.98309080
               9.15065014                7.11813265               39.88689377                0.00010000               -0.35512276                0.36465099               -1.01674107               -1.86333470               18.92539526                1.57715377
              10.14811073                6.86077538               39.90196962                0.00010000               -0.10835275                0.21564361               -1.35139380               -2.10765833               19.29851817                2.52124342
              11.14848308                6.60326231               39.91948274                0.00010000                0.23698513               -0.01153393               -1.71011596               -2.36060570               19.83842110                3.88813086
              12.15285044                6.34524265               39.94186406                0.14412853                0.52685030               -0.18036772               -2.19600724               -1.27910859               11.50450829                5.97118610
              13.15902009                6.11812913               39.78719419                0.40213063                0.54261491                0.16182075               -1.30166660                0.04543777                1.39348585                2.16717226
              14.16370274                5.89046125               39.60486821                0.85961916                0.46826469                0.52241361               -1.57291432               -0.00471371                0.04092809                0.07800585
               4.40307785                9.35359627               40.15716075                1.00000000                0.02343115               -0.05625230                0.08107426               -0.02676038               -0.00170407                0.78397550
               5.40331216                9.11728105               39.97883342                0.49569262                0.05713979                0.09134371               -0.22622561               -0.00422299               -0.01844014               -0.78883447
               6.40422065                8.88044210               39.80007708                0.03003243               -0.17949320                0.25060705               -0.54860139               -0.58670015               10.17344703               -2.45825601
               7.39972230                8.63123123               39.82542303                0.00010000               -0.49311600                0.45146721               -0.61174850               -1.18540018               20.70153743               -0.28543240
               8.39435833                8.37859461               39.85374979                0.00010000               -0.52849899                0.51639447               -0.86403935               -1.38255761               21.17571256                0.63325458
               9.38915232                8.12261864               39.88434454                0.00010000               -0.49406667                0.55089697               -1.14684684               -1.71070196               21.73409828                1.30151939
              10.38447699                7.86365898               39.91931527                0.00010000               -0.35277787                0.47560162               -1.42669269               -2.16045232               22.52234958                2.17352876
              11.38209676                7.60349970               39.96120496                0.00010000               -0.18353924                0.16144116               -1.60307493               -2.67939974               23.71549919                3.43873788
              12.38080621                7.34470850               40.01562879                0.18733127                0.14713968                0.06188908               -1.57991249               -1.57523545               12.76140928                5.03239079
              13.38503955                7.12031922               39.83230391                0.40641559                0.43890483                0.27183792               -1.31180347                0.01330906                0.47193291                1.69447120
              14.38958430                6.89581966               39.63935618                0.85589892                0.45447501                0.54177407               -1.64921518                0.00505396                0.02471482               -0.42448295
               4.63839908               10.35337680               40.10172457                0.98423671                0.07198316                0.00949330               -0.08995247               -0.02624854               -0.01441289                0.70286788
               5.63911891               10.11838158               39.91553554                0.53880023                0.11104241                0.12957672               -0.38912038               -0.00334345                0.02492704               -0.64430716
               6.64061993                9.88284792               39.73000506                0.00114760               -0.00458351                0.24436840               -0.70360536               -0.52208448               12.00072181               -1.58111939
               7.63902724                9.63629177               39.78310977                0.00010000               -0.22226507                0.43892623               -0.84117482               -0.79884155               23.87090181               -0.28208226
               8.63617462                9.38439111               39.83015145                0.00010000               -0.38277532                0.58200029               -1.05413035               -0.88845790               23.87133082                0.28101366
               9.63137173                9.12915059               39.87741542                0.00010000               -0.60769966                0.72285948               -1.29626345               -1.09716051               24.46807799                0.73363814
              10.62402063                8.87028741               39.93050772                0.00010000               -0.87630815                0.83415188               -1.53766274               -1.63516491               25.62335894                1.29190061
              11.61384557                8.60649113               39.99469146                0.03620118               -0.97472124                0.84228174               -1.73149204               -2.32823308               27.19356698                2.17401381
              12.60452621                8.34648043               40.07290575                0.25502696               -0.28352336                0.25853211               -1.05915293               -1.84227829               14.17679279                2.65960675
              13.60817510                8.12356589               39.87263364                0.41820702                0.41383602                0.35829359               -1.32871934               -0.03482825                0.12290486                1.10183248
              14.61280293                7.90129674               39.66878127                0.84391303                0.46278246                0.55006281               -1.75130175                0.00564517               -0.01937261               -0.66943448
               4.87254331               11.35378614               40.04435773                1.00000000                0.12308611                0.04093376               -0.25393161                0.02306856                0.38279194                0.60996584
               5.87377418               11.11987258               39.85449061                0.81506584                0.16627289                0.14910040               -0.55331673                0.04269311                0.78108635               -0.52080652
               6.87586877               10.88532947               39.67242044                0.49201091                0.42140505                0.24815500               -0.86118838               -0.46825696               13.85956716               -0.94034236
               7.88220228               10.64000975               39.74385398                0.36929152                0.39307880                0.37179882               -1.03174131               -0.43723861               26.38993735               -0.22952760
               8.88373035               10.39023462               39.80418347                0.35901010               -0.04447349                0.58435129               -1.23313294               -0.39112379               26.15074875                0.08990767
               9.88131281               10.13707583               39.86414102                0.37040161               -0.46485983                0.79252455               -1.46648311               -0.50052278               26.77824616                0.35241631
              10.87443315                9.88034202               39.93052337                0.40268447               -1.09868658                1.00546083               -1.70009516               -0.79527293               28.14980714                0.66844239
              11.85933907                9.62034533               40.01074264                0.54320641               -2.37736328                1.38542039               -1.98316726               -1.97379340               29.60151368                1.24330837
              12.82688589                9.34987914               40.09869785                0.66095303               -1.49061939                0.33987059               -1.13036514               -2.40704419               16.08157299                1.15105101
              13.82952669                9.12748509               39.90538944                0.72605506                0.36748121                0.39192054               -1.37507140               -0.01775251                1.32717142                0.75642365
              14.83423551                8.90682092               39.69785470                0.92066161                0.47088228                0.55241842               -1.83784534                0.07684106                0.65188689               -0.64837112
               2.56809541                1.44103416               41.58262588                1.00000000               -0.36812441               -0.40744679                1.40328049               -0.06998238               -1.09267510                1.06285419
               3.56441416                1.18238729               41.45718025                1.00000000               -0.31330387               -0.29861501                1.06776145               -0.04210944               -1.46056558                0.16964920
               4.56182933                0.92325392               41.32459286                1.00000000               -0.20042015               -0.19312056                0.70428143               -0.04581595               -1.46935413               -0.21015371
               5.56040576                0.66349584               41.19902788                0.64952700               -0.03042575               -0.10135511                0.34778063               -0.23761778               -0.82873998               -0.96849141
               6.56122082                0.39907290               41.07922050                0.70408172                0.24809743               -0.12428207               -0.13309068               -0.05893557               -0.40448376                0.25828672
               7.56536771                0.13142899               40.96271812                0.74971507                0.46481333                0.03314826               -0.46682353               -0.10138081               -0.21520261                0.11261053
               8.57051708               -0.13426925               40.84545743                0.73284067                0.55097314                0.10836822               -0.67501861               -0.05350927               -0.08662904               -0.11237088
               9.57638717               -0.39715867               40.72945821                0.82819956                0.51255483                0.15960898               -0.74706165               -0.08296646               -0.26123270                0.09947503
              10.58076818               -0.65737233               40.60633397                1.00000000                0.39485372                0.24157289               -0.88065839               -0.07163853               -0.76366471                0.66164705
              11.58428425               -0.91636530               40.47913443                1.00000000                0.36846411                0.33071468               -1.10565324               -0.04019817               -0.90214412                0.04619694
              12.58813746               -1.17524631               40.35293124                1.00000000                0.38532141                0.42225293               -1.37455422               -0.02623709               -0.84396085               -0.82207866
               2.82604246                2.43695969               41.52742780                1.00000000               -0.31592722               -0.39676970                1.24076669               -0.01404648               -0.21428124                1.44232429
               3.82288319                2.17940114               41.40193375                1.00000000               -0.26127827               -0.27590903                0.90827192                0.01222223               -0.32220325                0.24361471
               4.82081690                1.92132272               41.27443471                1.00000000               -0.13815470               -0.16442391                0.54769445               -0.01030764               -0.24908366               -0.42296134
               5.82012010                1.66248229               41.15030285                0.30404612                0.29239933               -0.06505307                0.20310886               -0.30392203                1.28960901               -1.29223808
               6.82666488                1.39783008               41.05320739                0.41964305                0.54524406               -0.12306744               -0.23361321               -0.04428027                2.30680620                0.76990983
               7.83102498                1.13176047               40.94661085                0.49343232                0.38054701                0.06774008               -0.54068778               -0.08266109                1.82915605                0.37166303
               8.83427582                0.86681443               40.83815179                0.42135471                0.30420373                0.17759193               -0.72582142               -0.05442771                2.03421739               -0.34162016
               9.83710905                0.60443742               40.73447927                0.50826605                0.26896416                0.22075404               -0.77509497               -0.07332806                2.07807660                0.45634597
              10.83965511                0.34504339               40.62633777                1.00000000                0.28551008                0.25968951               -0.90443757               -0.04746891                1.05113586                0.86437086
              11.84281925                0.08694185               40.50205466                1.00000000                0.35504973                0.33639103               -1.16344671                0.00344287                0.15769114                0.20105615
              12.84675610               -0.17102378               40.37610473                1.00000000                0.39368481                0.43193640               -1.43284215                0.01862182                0.07011818               -0.95579556
               3.08293160                3.43309877               41.48013358                1.00000000               -0.26360117               -0.37957744                1.09293470               -0.00837980                0.02404710                1.81924616
               4.08029559                3.17686910               41.34828819                1.00000000               -0.21947844               -0.23260555                0.76054956                0.00988635                0.19345270                0.25356832
               5.07854203                2.91996545               41.21995435                0.73806456               -0.12378129               -0.09201481                0.41384455               -0.03495884                0.52936322               -1.10884245
               6.07781996                2.66219478               41.09473835                0.00010000                0.62574967               -0.01701213                0.03741865               -0.43396891                4.08260798               -1.83279245
               7.09105702                2.39661155               41.03720162                0.00010000                0.84550876               -0.16044688               -0.45814158               -1.03531392                5.56751514               -0.99127754
               8.09473013                2.13278379               40.93524830                0.00010000                0.28472828               -0.01141652               -0.68207957               -0.97700280                3.08343974               -0.01603436
               9.09675159                1.86928259               40.82585479                0.00010000                0.09807580                0.07353291               -0.85501845               -0.87085582                4.25128892                0.70814931
              10.09669165                1.60725641               40.74647749                0.00010000                0.02813907                0.07268673               -0.85318176               -0.57696648                4.86569038                1.10733741
              11.09731437                1.34782146               40.65033246                0.39096366                0.18643140                0.23178119               -0.94819716               -0.21295497                2.66734365                1.74395070
              12.10042028                1.09036252               40.52803008                1.00000000                0.35633924                0.33463519               -1.21987251               -0.04238848                0.88573687                0.79821794
              13.10444115                0.83339242               40.39660230                1.00000000                0.40208749                0.45114714               -1.47109067                0.01004349                0.41392859               -0.90959273
               3.33833419                4.42936815               41.43276224                1.00000000               -0.21199530               -0.36131424                0.94363026               -0.01697326                0.12669842                1.65904610
               4.33621424                4.17474902               41.29332329                1.00000000               -0.17710716               -0.18382685                0.61227288               -0.00063264                0.22800163                0.04820949
               5.33479205                3.91948242               41.15599069                0.36669937               -0.07098142               -0.01866300                0.30095177               -0.10385957                1.14467395               -1.60558580
               6.33479461                3.66214204               41.03478211                0.00010000                0.02887684                0.05712206               -0.05526888               -0.67452675                5.11134462               -2.47058078
               7.33536959                3.39462114               40.97648798                0.00010000                0.20096355               -0.04386709               -0.43300830               -1.75585704                8.02946038               -2.21605987
               8.33881388                3.13153214               40.91090081                0.00010000                0.35082538               -0.10005168               -0.74063613               -1.73955782                7.47149442               -0.23425046
               9.34238609                2.86828509               40.83861459                0.00010000                0.41084868               -0.12677631               -0.96851505               -1.68223088                7.11191297                1.70756926
              10.34703086                2.60589115               40.76394874                0.00010000                0.49518990               -0.16943673               -1.14061150               -1.10554949                6.97879940                1.87320836
              11.35228989                2.34967902               40.68804035                0.10462500                0.46848319               -0.16904661               -1.01620557               -0.43501468                4.44657121                2.51609723
              12.35640052                2.09363455               40.56305156                0.54484077                0.43036422                0.19046682               -1.32056745               -0.14188852                1.12765256                1.91418223
              13.36089718                1.83799916               40.42095838                0.96148145                0.44966566                0.44550844               -1.53720435               -0.04715792                0.24746989               -0.05938976
               3.59183037                5.42587248               41.38251729                1.00000000               -0.16617182               -0.32789109                0.78151747               -0.03461976                0.22712519                1.33746585
               4.59016866                5.17319257               41.23558583                0.74925934               -0.13792781               -0.11432885                0.45487213               -0.03467655                0.36109713               -0.35390014
               5.58907182                4.91959219               41.09137592                0.17317122               -0.04889760                0.06989321                0.14343079               -0.17872442                1.44833035               -1.86827623
               6.58919070                4.66333722               40.96606908                0.00010000               -0.12610194                0.14752282               -0.17927259               -0.93246720                7.14372190               -2.28276606
               7.58654978                4.39573421               40.93548142                0.00010000               -0.14578377                0.15080992               -0.47535937               -1.60656994               11.45275486               -0.61951093
               8.58627503                4.13078276               40.89385609                0.00010000                0.10990921                0.00914811               -0.81109074               -1.69218496               10.63012369                0.50199046
               9.58874796                3.86674706               40.84440340                0.00010000                0.34558526               -0.09780915               -1.12200040               -1.72099687               10.08291052                1.62068271
              10.59318673                3.60386767               40.78950140                0.00010000                0.60613549               -0.20216526               -1.41084026               -1.50852607                9.57558929                2.56009232
              11.60087067                3.34444052               40.72810207                0.08512273                0.80378146               -0.50473601               -1.84455627               -0.67016741                6.52821204                3.14527580
              12.60926236                3.09417186               40.61168121                0.42400042                0.69490497               -0.04996276               -1.35253003               -0.02112965                1.94420390                2.97912303
              13.61476877                2.84230259               40.45900471                0.86750024                0.55064096                0.39650026               -1.53634659               -0.04357839                0.12931093                0.96645655
               3.84300163                6.42281032               41.32892941                1.00000000               -0.12006216               -0.27324205                0.60882010               -0.03779952                0.11349630                1.02862600
               4.84180101                6.17246245               41.17252665                0.57829689               -0.09643579               -0.03784036                0.26744710               -0.05267794                0.40188657               -0.71459704
               5.84107291                5.92088029               41.02190540                0.09156841               -0.08988818                0.18500187               -0.04551509               -0.28416300                2.60237058               -2.33506336
               6.84000324                5.66509250               40.90941814                0.00010000               -0.26401344                0.06845718               -0.10206871               -1.28096676                9.96721927                0.25279870
               7.83579264                5.39763734               40.90578622                0.00010000               -0.30229570                0.21170739               -0.51574561               -1.84423261               14.62485933                0.39253338
               8.83395733                5.13171511               40.88355068                0.00010000               -0.04556998                0.14532438               -0.90318142               -1.84495443               13.49533394                1.14046011
               9.83488124                4.86632891               40.85470210                0.00010000                0.26047727                0.01482349               -1.27552799               -1.89745380               13.00546367                2.10226598
              10.83916687                4.60184785               40.82018781                0.00010000                0.68505565               -0.16448766               -1.70820943               -1.79329578               12.41203840                3.17783041
              11.84858236                4.33958430               40.77718012                0.08916619                0.94744937               -0.48336424               -2.30263207               -0.83672054                8.80642249                4.37412831
              12.85811586                4.09263530               40.66921783                0.39545513                0.75908960               -0.11233819               -1.32602462               -0.02036646                2.80279443                3.19669796
              13.86376415                3.84592917               40.50574849                0.85421129                0.56482872                0.37474249               -1.50846103               -0.02189500                0.04436905                1.12247916
               4.09177014                7.42040764               41.27270230                1.00000000               -0.07250015               -0.20323551                0.42966563               -0.03208181                0.03922967                0.83581290
               5.09104513                7.17243576               41.10740987                0.49109968               -0.05058152                0.02093551                0.09085185               -0.04188355                0.30913862               -0.82855307
               6.09075851                6.92329222               40.94749803                0.05559085               -0.21154103                0.26778072               -0.23794948               -0.52050685                5.77629967               -2.66119834
               7.08681431                6.66470636               40.89146721                0.00010000               -0.38579932                0.05383641               -0.01381109               -1.45500034               13.50087485                1.55636391
               8.08304252                6.39996836               40.88447891                0.00010000               -0.30649712                0.26601143               -0.60790477               -1.83083222               16.15885030                0.99767875
               9.08068437                6.13368925               40.87868437                0.00010000               -0.11881857                0.25109897               -1.01031127               -1.97840234               16.20052907                1.55341709
              10.08066615                5.86704353               40.86978734                0.00010000                0.16905283                0.12473950               -1.41164502               -2.08204263               16.02956773                2.50045773
              11.08406543                5.60057792               40.85793496                0.00010000                0.63413311               -0.06998908               -1.90059172               -2.15686687               15.74310418                3.81164156
              12.09334881                5.33477324               40.84073937                0.10331038                0.92223674               -0.41850610               -2.64623211               -1.09852460               10.64342013                5.74878544
              13.10251016                5.09192510               40.72402354                0.38556385                0.71971595                0.00413781               -1.32321967               -0.01637054                2.88116405                2.75092056
              14.10774313                4.84979744               40.55000816                0.85051976                0.52329661                0.42222938               -1.53723636               -0.01312742                0.03961318                0.61030870
               4.33830376                8.41874561               41.21540832                1.00000000               -0.02250001               -0.12980465                0.25263947               -0.02913000                0.01056279                0.76854400
               5.33807875                8.17288116               41.04185480                0.46443366                0.00442103                0.06424222               -0.08244067               -0.01784431                0.14009569               -0.83153709
               6.33839218                7.92623590               40.87083513                0.03817524               -0.19258269                0.29108104               -0.42249310               -0.66374910                8.35671159               -2.72950901
               7.33422710                7.66616923               40.86148250                0.00010000               -0.40995324                0.27797950               -0.40840072               -1.42842117               17.28805950                0.35330638
               8.33019311                7.40295757               40.86642297                0.00010000               -0.34564978                0.37671985               -0.76012084               -1.70827628               18.40967627                0.98727302
               9.32731411                7.13673709               40.87610498                0.00010000               -0.19206957                0.38008399               -1.13845832               -1.97275056               18.90627214                1.62616317
              10.32635172                6.86882370               40.88760842                0.00010000                0.04928627                0.25117972               -1.51471825               -2.20495047               19.24967638                2.60892728
              11.32829983                6.60044806               40.90111000                0.00010000                0.44564845                0.03388031               -1.95573848               -2.45595605               19.63649013                4.09412380
              12.33526469                6.33121418               40.91745904                0.12811874                0.72322100               -0.21851657               -2.68062885               -1.33415599               12.01570957                6.54489120
              13.34276425                6.09271805               40.77388088                0.38368695                0.62461126                0.15320193               -1.35831714                0.01038715                2.07774543                2.23348103
              14.34775691                5.85437376               40.58888858                0.84791705                0.49926626                0.49484222               -1.63159822                0.00188260                0.03953090                0.01512631
               4.58291645                9.41781155               41.15793910                0.99776930                0.02815134               -0.05766894                0.07561139               -0.02718104               -0.00149413                0.77150821
               5.58319796                9.17372060               40.97644785                0.48939624                0.06395028                0.10258415               -0.25257082               -0.00246044               -0.02579358               -0.78951908
               6.58419545                8.92911384               40.79437428                0.02608385               -0.08368697                0.27450724               -0.59667547               -0.67485106               10.28627763               -2.44991716
               7.58152422                8.67026595               40.81892334                0.00010000               -0.29431593                0.44764071               -0.69269146               -1.32910016               20.86466294               -0.36578950
               8.57830914                8.40750275               40.84457005                0.00010000               -0.30804958                0.49583908               -0.97062686               -1.48868283               21.23619743                0.61380815
               9.57536323                8.14129093               40.87217008                0.00010000               -0.27264872                0.53944058               -1.28481607               -1.75900243               21.77704276                1.33839146
              10.57285616                7.87206713               40.90412364                0.00010000               -0.14037005                0.48884159               -1.60873302               -2.15319416               22.59080957                2.26035971
              11.57255583                7.60125553               40.94380985                0.00010000                0.07697701                0.20326595               -1.88466636               -2.68294410               23.88039854                3.64174549
              12.57439570                7.33040291               40.99770461                0.16841419                0.35012482                0.06276765               -2.08513411               -1.61207324               13.25628218                5.85796278
              13.57955833                7.09498913               40.81870604                0.38854759                0.50368371                0.29036159               -1.41231867                0.00218773                0.85695854                1.75832177
              14.58446938                6.85969428               40.62238790                0.84434462                0.49110494                0.55404919               -1.75990765                0.01027896                0.03120313               -0.51998344
               4.82594202               10.41759223               41.10076670                0.97950791                0.07852292                0.01119680               -0.10050879               -0.02704034               -0.01260673                0.69262869
               5.82672725               10.17493284               40.91149253                0.53450145                0.12038934                0.14096477               -0.42227434               -0.00255295                0.01973128               -0.64300971
               6.82834981                9.93172605               40.72272842                0.00010000                0.12644676                0.26365382               -0.75665393               -0.63767938               12.07483166               -1.56442450
               7.82925619                9.67512204               40.77428732                0.00010000                0.05223336                0.37730216               -0.92505964               -0.92896503               24.00903749               -0.31787011
               8.82939448                9.41287435               40.81902823                0.00010000               -0.08432519                0.52343089               -1.16865917               -0.95855137               23.96778158                0.27288177
               9.82756968                9.14752590               40.86367351                0.00010000               -0.30356191                0.67509696               -1.44830281               -1.10098488               24.55285215                0.75505162
              10.82332324                8.87860053               40.91418596                0.00010000               -0.56322569                0.79651440               -1.72577297               -1.57245648               25.74359455                1.34846307
              11.81630517                8.60451338               40.97661694                0.01985423               -0.70168116                0.82011112               -1.90397682               -2.27430052               27.75830335                2.24474191
              12.80928962                8.33246953               41.06120550                0.23395207               -0.13942695                0.31318001               -1.34284534               -1.87779745               14.78320814                3.13977701
              13.81351663                8.09852529               40.85877886                0.40064916                0.46312900                0.39146143               -1.45373425               -0.04586441                0.22023531                1.16609935
              14.81855220                7.86545474               40.65064559                0.83189549                0.50355647                0.58600671               -1.89479688                0.00786008               -0.01917928               -0.75542692
               5.06769443               11.41803549               41.04172486                0.99980693                0.13186625                0.04432506               -0.27223465                0.02568222                0.37634939                0.60245441
               6.06901309               11.17653990               40.84877382                0.81403804                0.17791177                0.16070598               -0.59302191                0.04615577                0.77126747               -0.51871153
               7.07125267               10.93438692               40.66353933                0.49005965                0.63917618                0.26608748               -0.92061290               -0.64610978               13.91248156               -0.92200824
               8.08179662               10.67781199               40.73309764                0.36933948                0.77407934                0.26899516               -1.11997434               -0.56673451               26.51318993               -0.25140054
               9.08673425               10.41797137               40.79123226                0.35913963                0.29103686                0.50970213               -1.35448880               -0.41697879               26.25162364                0.08352986
              10.08761735               10.15479287               40.84865101                0.37016901               -0.11573530                0.72669692               -1.62710269               -0.49393083               26.86715004                0.36286896
              11.08441955                9.88799742               40.91254688                0.40171279               -0.72082664                0.93968852               -1.89454356               -0.74712520               28.25823103                0.70349586
              12.07320082                9.61765775               40.99060419                0.53391569               -2.07958480                1.31443647               -2.05938520               -1.87698032               30.24503064                1.23551120
              13.04282785                9.33666651               41.08639829                0.64980736               -1.37724966                0.41969782               -1.37762345               -2.38814580               16.87839945                1.32574110
              14.04565583                9.10281836               40.89108116                0.71736531                0.39699086                0.42930771               -1.50144391               -0.04868487                1.49011957                0.81957767
              15.05076767                8.87141442               40.67879641                0.91430690                0.51118400                0.59596767               -1.99476292                0.08115266                0.68740223               -0.71090807
               2.68412701                1.50776275               42.59692135                1.00000000               -0.38108158               -0.42554280                1.46461475               -0.07571169               -1.12462553                1.08156520
               3.68031619                1.24016747               42.46796147                1.00000000               -0.32227729               -0.30554453                1.09266192               -0.04418680               -1.51227303                0.17733634
               4.67768146                0.97208040               42.33156238                1.00000000               -0.20333709               -0.18978873                0.69051985               -0.04708511               -1.53831951               -0.21187674
               5.67624945                0.70319587               42.20224242                0.65649980               -0.05024973               -0.08104257                0.29275601               -0.30427711               -0.96706689               -0.97596053
               6.67667647                0.42810256               42.07736490                0.70990493                0.25852914               -0.10665895               -0.24190043               -0.07308584               -0.55511970                0.24515150
               7.68142003                0.14890140               41.95735649                0.74935328                0.54904613                0.06028033               -0.61363018               -0.11468376               -0.22785484                0.08680833
               8.68765739               -0.12800073               41.83801633                0.72530447                0.67075949                0.13377674               -0.82689826               -0.05055930                0.05866233               -0.15059798
               9.69483522               -0.40112297               41.72155798                0.81626890                0.61005022                0.17017012               -0.84343198               -0.08705872               -0.04297741                0.07775171
              10.69985839               -0.67057320               41.59732651                1.00000000                0.43482412                0.24482171               -0.92126563               -0.07353476               -0.61645220                0.67637051
              11.70353171               -0.93848027               41.46794533                1.00000000                0.38053016                0.33259674               -1.13255157               -0.03893647               -0.83258581                0.05567460
              12.70746900               -1.20613081               41.33908124                1.00000000                0.39372923                0.42212080               -1.39640812               -0.03151618               -0.79822760               -0.77895754
               2.95096517                2.50350732               42.54006305                1.00000000               -0.32496715               -0.41409243                1.29395041               -0.01417901               -0.23121239                1.46323601
               3.94771550                2.23711203               42.41108141                1.00000000               -0.26343782               -0.28191937                0.92451085                0.01439746               -0.35568127                0.25584635
               4.94569641                1.97018252               42.27982951                1.00000000               -0.12599485               -0.16056645                0.53001953               -0.00905954               -0.28736295               -0.41590897
               5.94519560                1.70238544               42.15213492                0.31767950                0.36982152               -0.04361873                0.15496495               -0.38711117                1.20804853               -1.31341329
               6.95309284                1.42703597               42.05037459                0.42876937                0.65646196               -0.12576198               -0.34401385               -0.07762491                2.22660823                0.70346686
               7.95832484                1.14950420               41.94056255                0.49642479                0.45355697                0.09777977               -0.68606352               -0.11577268                1.88012187                0.31747588
               8.96216398                0.87333704               41.83027960                0.42063689                0.34630165                0.21919418               -0.87035343               -0.06753839                2.23525122               -0.41716968
               9.96525087                0.60057873               41.72643482                0.49950261                0.28188560                0.24497772               -0.84683121               -0.08806240                2.31298149                0.40848597
              10.96780169                0.33187501               41.61731249                1.00000000                0.28351349                0.25811193               -0.89732289               -0.05530156                1.15716642                0.86826317
              11.97092114                0.06484570               41.49047507                1.00000000                0.35013410                0.33271770               -1.14924698                0.00363353                0.17554580                0.21062410
              12.97480438               -0.20190960               41.36185813                1.00000000                0.38832339                0.42495578               -1.41379259                0.01267915                0.07995731               -0.90220735
               3.21663402                3.49948090               42.49125458                1.00000000               -0.27050708               -0.39494816                1.13734131               -0.00912270                0.01692087                1.84195747
               4.21392895                3.23452908               42.35592680                1.00000000               -0.22035816               -0.23572304                0.76862515                0.00952111                0.17603759                0.26952592
               5.21222686                2.96886907               42.22393539                0.75624376               -0.11375878               -0.08411972                0.38168086               -0.03762889                0.49130769               -1.07877922
               6.21165377                2.70232349               42.09479341                0.00010000                0.78891765                0.00712619               -0.02958551               -0.55893933                3.96975613               -1.82699195
               7.22800521                2.42558732               42.03203733                0.00010000                1.05748697               -0.15166318               -0.59147318               -1.26529470                5.50508047               -0.98315313
               8.23280351                2.15085700               41.92770199                0.00010000                0.36134436                0.04840569               -0.85526777               -1.17260896                3.20028157               -0.03874867
               9.23523210                1.87638316               41.81655563                0.00010000                0.08662442                0.16391329               -1.04061799               -1.03688368                4.51419756                0.63499329
              10.23453600                1.60377658               41.73763889                0.00010000               -0.03733514                0.14934554               -0.94142733               -0.67850501                5.16069795                0.94995038
              11.23448539                1.33458904               41.64108290                0.37759173                0.14264949                0.21091192               -0.89384992               -0.25539621                2.76245170                1.72088925
              12.23738899                1.06817409               41.51607175                1.00000000                0.33738942                0.32047567               -1.16543700               -0.04250177                0.87136919                0.78307348
              13.24123318                0.80236831               41.38216842                1.00000000                0.38441917                0.42982339               -1.40972922                0.00468186                0.40685396               -0.86161715
               3.48068635                4.49560836               42.44235215                1.00000000               -0.21686017               -0.37420572                0.97891220               -0.01793148                0.12621184                1.67108158
               4.47851775                4.23239757               42.29944077                1.00000000               -0.17684617               -0.18288955                0.61175947               -0.00149460                0.23611980                0.05857867
               5.47714943                3.96850012               42.15884109                0.36407007               -0.06095899               -0.00536013                0.26391713               -0.10610151                1.14029563               -1.58212807
               6.47729857                3.70252797               42.03389679                0.00010000                0.10520108                0.08440391               -0.13122048               -0.79632918                5.07442322               -2.42703153
               7.47925345                3.42400271               41.97165626                0.00010000                0.33891293                0.00379341               -0.54640558               -2.05895965                8.02005307               -2.07579720
               8.48407683                3.15047232               41.90290451                0.00010000                0.46266368               -0.03134620               -0.87609180               -2.01972028                7.53712627               -0.16677700
               9.48850672                2.87661530               41.82840173                0.00010000                0.46990331               -0.03783573               -1.09235570               -1.93887771                7.24133157                1.69559128
              10.49347489                2.60356564               41.75227461                0.00010000                0.48947728               -0.08969286               -1.20395953               -1.32540681                7.27859022                1.68534441
              11.49829627                2.33609325               41.67827603                0.09138157                0.44084712               -0.14126192               -0.92814290               -0.52981168                4.60242020                2.06071497
              12.50229183                2.07125521               41.55026095                0.51479110                0.41066531                0.14846474               -1.22900663               -0.13206794                1.07843841                1.90323464
              13.50650957                1.80668687               41.40604205                0.93945229                0.42177380                0.38003226               -1.43664314               -0.03687353                0.23731216                0.00191875
               3.74269697                5.49199679               42.39044769                1.00000000               -0.16896816               -0.33878127                0.80798229               -0.03625255                0.23478692                1.33602255
               4.74100729                5.23087129               42.24009726                0.73666599               -0.13612753               -0.10830652                0.44694620               -0.03767741                0.37469649               -0.36168391
               5.73997442                4.96876187               42.09261273                0.16559607               -0.03913454                0.09018056                0.09989279               -0.18455178                1.46583114               -1.87801641
               6.74022460                4.70401157               41.96394506                0.00010000               -0.05463799                0.15957665               -0.25584024               -1.04720563                7.17261536               -2.13163471
               7.73888166                4.42566319               41.93029994                0.00010000               -0.02140471                0.19482093               -0.57103548               -1.81504891               11.48536310               -0.49444413
               8.73979651                4.15023007               41.88523606                0.00010000                0.22397767                0.05398374               -0.92233027               -1.89533098               10.65553013                0.58451860
               9.74336122                3.87562644               41.83271519                0.00010000                0.43767037               -0.05699019               -1.22110836               -1.92151513               10.12915832                1.61889995
              10.74854992                3.60198273               41.77514695                0.00010000                0.64191840               -0.16964721               -1.45468860               -1.68580727                9.53865970                2.39582206
              11.75619959                3.33176380               41.70965509                0.07348081                0.78020495               -0.41965858               -1.81697801               -0.79069537                6.83100203                2.55453469
              12.76415401                3.07114338               41.59868682                0.39850716                0.67164085               -0.12753546               -1.23711763               -0.06821761                2.30162215                3.00989669
              13.76963240                2.80996895               41.44422489                0.85016853                0.54783881                0.25989662               -1.41086269               -0.01628264                0.12371820                1.03891857
               4.00221229                6.48883273               42.33509518                1.00000000               -0.12131703               -0.28222659                0.62704440               -0.03869089                0.10838793                1.01814456
               5.00099911                6.23023144               42.17513827                0.56467965               -0.09470867               -0.02760945                0.25377978               -0.05647272                0.41039232               -0.73017103
               6.00031811                5.97030373               42.02125585                0.08598022               -0.07729886                0.21486582               -0.08950370               -0.31591554                2.76493375               -2.35802480
               6.99945314                5.70571950               41.90827493                0.00010000               -0.17920713                0.05454949               -0.13292486               -1.36664672               10.08128893                0.48974742
               7.99673397                5.42789913               41.90021322                0.00010000               -0.16230914                0.24276637               -0.60709477               -2.01003000               14.57603907                0.50521716
               8.99620695                5.15155199               41.87402627                0.00010000                0.07948972                0.18047925               -1.00486816               -2.01934058               13.47957212                1.22000201
               9.99832376                4.87547550               41.84144173                0.00010000                0.37072177                0.04112465               -1.37331621               -2.08199637               12.96504062                2.12344183
              11.00362139                4.60017270               41.80268123                0.00010000                0.74989698               -0.14708533               -1.77399825               -1.93195656               12.25025313                3.06589308
              12.01332170                4.32770008               41.75410521                0.07746175                0.95504680               -0.43755761               -2.26123431               -0.98163750                9.28800950                4.05731385
              13.02272233                4.06870451               41.65634697                0.37337398                0.76055373               -0.18526092               -1.24169036               -0.11327006                3.39534746                3.23145587
              14.02853278                3.81188480               41.49107907                0.83945272                0.58104516                0.22342596               -1.42420971               -0.00529838                0.03575907                1.12347017
               4.25912575                7.48635226               42.27704421                1.00000000               -0.07189132               -0.20984061                0.44085779               -0.03282147                0.03607615                0.82316398
               5.25840684                7.23031910               42.10822726                0.47931634               -0.04788518                0.03272726                0.07136286               -0.04339365                0.31042439               -0.83580553
               6.25816805                6.97305919               41.94489076                0.05011211               -0.15552826                0.30328052               -0.28768737               -0.58620065                6.05590163               -2.67977519
               7.25529627                6.70510256               41.89086918                0.00010000               -0.26597389                0.05764603               -0.11444407               -1.54663543               13.68262142                1.56740312
               8.25284857                6.43051852               41.87798451                0.00010000               -0.17314764                0.29092062               -0.69454530               -1.96063241               16.03650566                1.05830364
               9.25183332                6.15383966               41.86805169                0.00010000                0.01260072                0.28091078               -1.11563366               -2.13432035               16.17029611                1.62038541
              10.25310059                5.87644893               41.85504460                0.00010000                0.29264414                0.15710625               -1.52878885               -2.25115754               15.95150267                2.54926437
              11.25768620                5.59904102               41.83817105                0.00010000                0.74672208               -0.04514037               -2.02604334               -2.28477047               15.47362698                3.82228434
              12.26803503                5.32301264               41.81340207                0.09024055                1.00088445               -0.42624204               -2.73765380               -1.22654069               11.25518804                5.61612290
              13.27770389                5.06743816               41.71085342                0.36614728                0.75654083               -0.02941313               -1.30750322               -0.10760222                3.69267272                2.76421568
              14.28316584                4.81443747               41.53468131                0.83783800                0.54619505                0.32496244               -1.53598174               -0.00281052                0.03484218                0.52015525
               4.51362216                8.48463592               42.21794897                1.00000000               -0.01978477               -0.13421014                0.25725999               -0.02975895                0.00877080                0.75636517
               5.51342431                8.23088598               42.04091215                0.45477426                0.00942423                0.07669157               -0.10767790               -0.01561552                0.13608761               -0.83400476
               6.51381064                7.97636934               41.86636999                0.03297877               -0.11816042                0.32456386               -0.47581621               -0.73554485                8.52792980               -2.73413645
               7.51106110                7.70687242               41.85700202                0.00010000               -0.25132078                0.30040284               -0.49515823               -1.55641472               17.47812316                0.20090231
               8.50878423                7.43371754               41.85832040                0.00010000               -0.17354851                0.38735029               -0.86055635               -1.83576216               18.41707870                0.99295917
               9.50759013                7.15717021               41.86412461                0.00010000               -0.03424881                0.39891434               -1.25410883               -2.08968237               18.90154416                1.67325791
              10.50809925                6.87861763               41.87167525                0.00010000                0.18860692                0.29198532               -1.66212306               -2.31737495               19.19468430                2.67945581
              11.51136227                6.59926989               41.88036797                0.00010000                0.61472479                0.08933243               -2.17315785               -2.55024139               19.33986696                4.23801478
              12.52039375                6.31917524               41.88825149                0.11244136                0.88915925               -0.24456777               -3.09276559               -1.40765064               12.66731207                6.92618442
              13.52914545                6.06811624               41.76002785                0.36594249                0.70421024                0.15747550               -1.41355694               -0.04998219                2.98383625                2.24053777
              14.53447795                5.81838405               41.57223625                0.83644664                0.53324960                0.46127548               -1.71494592                0.01072183                0.04168098               -0.12601387
               4.76603046                9.48366805               42.15867298                0.99270550                0.03306526               -0.05961585                0.07273918               -0.02785479                0.00045578                0.75979602
               5.76636111                9.23185294               41.97378200                0.48215249                0.07201288                0.11547223               -0.28318948                0.00049637               -0.03193858               -0.78958897
               6.76747071                8.97955047               41.78814357                0.02132305                0.02293383                0.30125162               -0.65443135               -0.76155932               10.39645277               -2.43905825
               7.76681978                8.71111062               41.81156920                0.00010000               -0.08175862                0.44438238               -0.78163969               -1.47189340               21.03107480               -0.43818054
               8.76583554                8.43826552               41.83433726                0.00010000               -0.08400990                0.47344993               -1.07401674               -1.59664205               21.30727131                0.59811714
               9.76513959                8.16181794               41.85864821                0.00010000               -0.05910676                0.53002396               -1.41376054               -1.81479826               21.82203719                1.36649011
              10.76465341                7.88228864               41.88714061                0.00010000                0.04920880                0.51079026               -1.78168109               -2.15702136               22.62531413                2.33109718
              11.76612376                7.60082767               41.92351163                0.00010000                0.31911282                0.26608689               -2.17080385               -2.67687639               23.88606608                3.85741717
              12.77103566                7.31812129               41.97392611                0.14899267                0.56858388                0.07035274               -2.73670702               -1.63026475               13.86683844                6.77382759
              13.77749544                7.07058767               41.80405753                0.37139518                0.59045025                0.31982559               -1.52332985               -0.02320230                1.49502603                1.78530811
              14.78284467                6.82366298               41.60415802                0.83318370                0.53492265                0.56978166               -1.90800085                0.01792709                0.04174746               -0.66733959
               5.01669529               10.48344360               42.09971440                0.97485463                0.08565302                0.01254250               -0.10933507               -0.02772064               -0.01220817                0.68272452
               6.01755182               10.23319543               41.90709005                0.52910491                0.13132393                0.15414224               -0.46097983               -0.00126392                0.01545022               -0.64216531
               7.01932177                9.98239438               41.71487198                0.00010000                0.26781759                0.28585021               -0.81969166               -0.75557439               12.14938422               -1.54596420
               8.02290818                9.71576007               41.76460858                0.00010000                0.34111437                0.31252418               -1.01169898               -1.06272374               24.14901188               -0.34708931
               9.02614406                9.44318654               41.80677827                0.00010000                0.21814359                0.46158178               -1.27733636               -1.03077350               24.06407580                0.26454458
              10.02727105                9.16777069               41.84844936                0.00010000               -0.00974812                0.62801395               -1.58915021               -1.10757527               24.62865429                0.76738956
              11.02594910                8.88883343               41.89599226                0.00010000               -0.26394780                0.77007251               -1.91089493               -1.50939409               25.85999551                1.39299519
              12.02199209                8.60459163               41.95661192                0.00079990               -0.39603263                0.81266870               -2.14381905               -2.19933103               28.25378838                2.41392152
              13.01802844                8.32058229               42.04604884                0.21063110                0.05738121                0.39435497               -1.78410209               -1.85688144               15.43134300                3.78867555
              14.02313972                8.07451275               41.84355895                0.38395982                0.53287154                0.43421840               -1.60132314               -0.06835478                0.43908124                1.21845259
              15.02868588                7.82977968               41.63088534                0.82031781                0.55461601                0.63190735               -2.08239920                0.01211262               -0.01301090               -0.86796062
               5.26597240               11.48391890               42.03891303                0.99770412                0.14126577                0.04752982               -0.28932350                0.02939854                0.36982993                0.59334298
               6.26738506               11.23493578               41.84263018                0.81221856                0.19110908                0.17403558               -0.63829076                0.05075178                0.76255723               -0.51613127
               7.26979458               10.98526747               41.65400819                0.48783411                0.86940447                0.28730941               -0.99129683               -0.83145297               13.96700060               -0.90266253
               8.28477315               10.71736110               41.72145450                0.36937034                1.17074342                0.16010343               -1.20872746               -0.70201839               26.63875969               -0.27031186
               9.29320945               10.44749716               41.77709369                0.35924622                0.62840195                0.43106205               -1.46866620               -0.44260490               26.34904163                0.07608096
              10.29734119               10.17437822               41.83159897                0.36994934                0.22175663                0.66075352               -1.77513032               -0.48333946               26.94118066                0.36786091
              11.29764458                9.89769009               41.89263250                0.40074102               -0.34764543                0.88566587               -2.08588373               -0.69531042               28.39782787                0.73505746
              12.29038828                9.61708104               41.96955494                0.52254694               -1.68338388                1.24894151               -2.22494215               -1.74446640               30.82715148                1.35278106
              13.26397691                9.32600839               42.07114539                0.63692540               -1.17286607                0.54260939               -1.74508216               -2.29560393               17.68610620                1.58967648
              14.26693096                9.07927204               41.87536056                0.70911704                0.42880782                0.47592874               -1.65704106               -0.10623888                1.74692805                0.88412263
              15.27255306                8.83630113               41.65795944                0.90820810                0.56221055                0.65214462               -2.19830910                0.08962737                0.72357210               -0.78641829
               2.80352265                1.57638206               43.61191817                1.00000000               -0.39949827               -0.44908761                1.54469646               -0.08290618               -1.15706357                1.09959250
               3.79952767                1.29969415               43.47903349                1.00000000               -0.33703288               -0.31414153                1.12638105               -0.04745170               -1.56561939                0.18386154
               4.79678199                1.02248215               43.33840325                1.00000000               -0.21328822               -0.18506090                0.67881460               -0.05171228               -1.61179911               -0.21208977
               5.79526190                0.74419163               43.20488300                0.66418887               -0.08888227               -0.05286005                0.23249736               -0.37887074               -1.11907283               -0.97707149
               6.79500435                0.45795657               43.07438249                0.71754178                0.24486412               -0.07295772               -0.35263514               -0.09542263               -0.72915193                0.22948575
               7.80015919                0.16675305               42.95044552                0.75077148                0.62422476                0.10114447               -0.77075353               -0.13189427               -0.25889082                0.05615882
               8.80748884               -0.12180775               42.82891947                0.71724662                0.80291286                0.17394834               -1.00515366               -0.04354454                0.22065471               -0.20530130
               9.81621744               -0.40535731               42.71258957                0.80018640                0.72814734                0.18835450               -0.96290107               -0.08862239                0.22794562                0.03923883
              10.82205179               -0.68381688               42.58790866                1.00000000                0.48301800                0.24691505               -0.95954011               -0.07705995               -0.43260058                0.69831876
              11.82587780               -0.96031130               42.45648340                1.00000000                0.39246452                0.33392054               -1.15964326               -0.03744424               -0.75778775                0.06590070
              12.82990108               -1.23637923               42.32500307                1.00000000                0.40232770                0.42241205               -1.42192984               -0.03798790               -0.75150489               -0.73406556
               3.07938150                2.57189119               43.55330681                1.00000000               -0.33783958               -0.43666226                1.36351385               -0.01369996               -0.24900266                1.48239555
               4.07600311                2.29655273               43.42042396                1.00000000               -0.26826892               -0.28969417                0.94754315                0.01741060               -0.38925461                0.26670153
               5.07401613                2.02063154               43.28503510                1.00000000               -0.11335616               -0.15519337                0.50876419               -0.00850556               -0.32443738               -0.41017630
               6.07373599                1.74366303               43.15340214                0.33425005                0.43766439               -0.01492833                0.08894554               -0.47766570                1.11354194               -1.33210756
               7.08276941                1.45722699               43.04632712                0.44188066                0.74932070               -0.11448777               -0.47506639               -0.13264218                2.11958434                0.62733165
               8.08872240                1.16776449               42.93288958                0.50243390                0.51695824                0.14569035               -0.86595483               -0.16184870                1.92628270                0.24558335
               9.09310858                0.87993174               42.82074472                0.41924561                0.38066943                0.28340343               -1.06478633               -0.08142292                2.48825258               -0.53064248
              10.09633579                0.59652623               42.71754265                0.48471548                0.28248013                0.28864657               -0.95165818               -0.10592875                2.64196673                0.32205726
              11.09875818                0.31865227               42.60839131                1.00000000                0.27243731                0.25462945               -0.88019573               -0.07097858                1.31108927                0.87763184
              12.10178453                0.04302791               42.47906972                1.00000000                0.34154773                0.32747046               -1.12793821                0.00384802                0.19382322                0.22003732
              13.10558914               -0.23215511               42.34782888                1.00000000                0.38046015                0.41776930               -1.39088686                0.00588791                0.08883542               -0.84506435
               3.35392556                3.56764882               43.50288040                1.00000000               -0.27900329               -0.41472589                1.19452297               -0.00987058                0.00893847                1.86173636
               4.35113553                3.29390026               43.36366069                1.00000000               -0.22119911               -0.24012953                0.77997207                0.00870263                0.15664666                0.28424800
               5.34950158                3.01937828               43.22758796                0.77227846               -0.10111959               -0.07345115                0.34657177               -0.04406898                0.45282902               -1.05067453
               6.34911314                2.74389307               43.09414664                0.00010000                0.93742323                0.03933626               -0.10542278               -0.69897761                3.83819114               -1.82438216
               7.36825004                2.45566681               43.02537216                0.00010000                1.25521636               -0.11922006               -0.75622334               -1.51163537                5.40761268               -0.96365707
               8.37421746                2.16966686               42.91814294                0.00010000                0.44243014                0.14490244               -1.08630336               -1.38589752                3.30754492               -0.04810807
               9.37709865                1.88386032               42.80504243                0.00010000                0.05804375                0.30528098               -1.30842796               -1.22585963                4.84725254                0.57195227
              10.37537834                1.60041562               42.72764894                0.00010000               -0.14840534                0.27818700               -1.10605470               -0.80960207                5.61683853                0.78105179
              11.37413054                1.32127571               42.63245547                0.36082437                0.06919011                0.18344311               -0.82052473               -0.32918628                2.93825687                1.69287971
              12.37676214                1.04623811               42.50472134                1.00000000                0.31271689                0.30281308               -1.09767031               -0.04404092                0.85091888                0.76499009
              13.38038488                0.77197616               42.36840772                1.00000000                0.36227367                0.40680911               -1.33773174               -0.00159146                0.39760242               -0.80956438
               3.62668120                4.56359667               43.45234049                1.00000000               -0.22335017               -0.38994529                1.02365419               -0.01958267                0.12492585                1.67993071
               4.62444770                4.29175014               43.30555848                1.00000000               -0.17696294               -0.18194405                0.61228883               -0.00360708                0.24224070                0.06853597
               5.62314194                4.01916251               43.16126903                0.35983976               -0.04898995                0.01194061                0.21694477               -0.11306598                1.13266697               -1.55629150
               6.62346790                3.74444976               43.03215770                0.00010000                0.18104880                0.12166564               -0.22546673               -0.92386297                5.03743162               -2.38384003
               7.62676292                3.45484259               42.96555987                0.00010000                0.46715188                0.08107775               -0.68610566               -2.35356072                8.01382706               -1.89825765
               8.63281094                3.17066254               42.89337897                0.00010000                0.55398529                0.08422607               -1.04818968               -2.30261578                7.62421670               -0.04466574
               9.63784262                2.88603736               42.81676747                0.00010000                0.49587133                0.11123725               -1.25864546               -2.21254926                7.43044768                1.75297912
              10.64272836                2.60208997               42.73986955                0.00010000                0.42546680                0.04809401               -1.29453874               -1.60372698                7.70843408                1.53753355
              11.64635196                2.32232113               42.66947749                0.07788047                0.37374512               -0.07868355               -0.82426732               -0.65927476                4.83349294                1.55378434
              12.65020327                2.04908417               42.53847143                0.48160139                0.38646313                0.10228313               -1.11997367               -0.11885959                1.02250587                1.87995593
              13.65408122                1.77598107               42.39222552                0.91412738                0.38779559                0.30338914               -1.31792278               -0.02120395                0.22346102                0.05769964
               3.89722696                5.55984991               43.39867694                1.00000000               -0.17294229               -0.35099890                0.84141790               -0.03875347                0.24149899                1.33202405
               4.89549754                5.29026138               43.24452475                0.72372790               -0.13431609               -0.10105565                0.43793485               -0.04161726                0.38703067               -0.36841127
               5.89454064                5.01961709               43.09337378                0.15762322               -0.02708690                0.11396244                0.04789410               -0.19210052                1.48186768               -1.88201930
               6.89495580                4.74632638               42.96095227                0.00010000                0.02127021                0.17567852               -0.35464653               -1.15624859                7.21373385               -1.95041403
               7.89496605                4.45728837               42.92406071                0.00010000                0.10072883                0.26072632               -0.68741580               -2.00879195               11.53986042               -0.33835702
               8.89697038                4.17135138               42.87540948                0.00010000                0.32270933                0.13184839               -1.05382961               -2.08469844               10.71351011                0.71290217
               9.90142023                3.88608507               42.81998123                0.00010000                0.50248243                0.02154898               -1.33419327               -2.11447039               10.24228409                1.66054760
              10.90702003                3.60137750               42.76040763                0.00010000                0.62653061               -0.09741799               -1.49249873               -1.88014726                9.60336564                2.24947926
              11.91395084                3.31970203               42.69176251                0.06215892                0.68524895               -0.26687657               -1.73534596               -0.93844360                7.23269867                1.93451659
              12.92072501                3.04828378               42.58693885                0.37191577                0.61080762               -0.19931787               -1.10476034               -0.14062063                2.68653684                2.99802231
              13.92616700                2.77804394               42.43078746                0.83111089                0.54419903                0.09805398               -1.27135534                0.02271125                0.11677174                1.05617826
               4.16508319                6.55657669               43.34147030                1.00000000               -0.12350157               -0.29163930                0.65072788               -0.03983640                0.10275397                1.00645308
               5.16384817                6.28972903               43.17760224                0.55040425               -0.09241280               -0.01578019                0.23755930               -0.06126961                0.41910748               -0.74333504
               6.16323493                6.02144176               43.02011532                0.07944170               -0.05882607                0.24827481               -0.14461550               -0.35358598                2.95230272               -2.37506758
               7.16267165                5.74796333               42.90675964                0.00010000               -0.08364256                0.05004762               -0.18923275               -1.44837288               10.22796086                0.71977144
               8.16156208                5.46005712               42.89364432                0.00010000               -0.01756926                0.28694456               -0.71058068               -2.15198726               14.53389867                0.64939376
               9.16232027                5.17329951               42.86345331                0.00010000                0.19825063                0.23236205               -1.11516213               -2.17644771               13.50456619                1.33362308
              10.16552710                4.88646834               42.82723577                0.00010000                0.45940927                0.08551122               -1.46644558               -2.25006430               12.99058192                2.16780233
              11.17150845                4.60014161               42.78470784                0.00010000                0.75748576               -0.10203136               -1.80534123               -2.06621342               12.21188278                2.93673397
              12.18067681                4.31698360               42.73195544                0.06635909                0.87702490               -0.33763076               -2.13490776               -1.16122225                9.86413728                3.68776060
              13.18904895                4.04509781               42.64438402                0.35113723                0.71691565               -0.23776246               -1.14924561               -0.23410391                3.99068802                3.19270916
              14.19501512                3.77794215               42.47726430                0.82403003                0.59661725                0.04997143               -1.34600102                0.01529363                0.02813473                1.01303117
               4.43012556                7.55401712               43.28151945                1.00000000               -0.07184855               -0.21662707                0.45641534               -0.03365297                0.03265415                0.81069687
               5.42940708                7.28994578               43.10883713                0.46657489               -0.04454702                0.04586470                0.04913322               -0.04516090                0.31186672               -0.84045216
               6.42923462                7.02458259               42.94174428                0.04367484               -0.10170413                0.34292975               -0.34730413               -0.64962394                6.32540916               -2.69311312
               7.42737299                6.74732733               42.88917833                0.00010000               -0.13222504                0.07619611               -0.22226249               -1.61939133               13.86688118                1.56377671
               8.42659012                6.46302726               42.87058801                0.00010000               -0.01713951                0.32034457               -0.79400007               -2.07393512               15.95575808                1.14158938
               9.42703020                6.17599862               42.85637170                0.00010000                0.14933629                0.31531061               -1.22088599               -2.27810516               16.17975577                1.71066966
              10.42957685                5.88779529               42.83921157                0.00010000                0.40751481                0.19242349               -1.63043989               -2.40933974               15.93078105                2.60550251
              11.43518050                5.59933687               42.81741410                0.00010000                0.80966759               -0.01369162               -2.09761703               -2.39166943               15.30861176                3.78297688
              12.44577020                5.31294942               42.78598630                0.07795596                0.99519381               -0.38848868               -2.67520390               -1.37670538               11.97610523                5.25649914
              13.45508438                5.04352853               42.69787347                0.34725486                0.75069984               -0.03865578               -1.29282643               -0.22493934                4.53380667                2.69838415
              14.46078419                4.77904337               42.51928853                0.82503880                0.56998189                0.22173086               -1.56223632                0.00941471                0.03510655                0.31100432
               4.69255282                8.55224415               43.22055352                1.00000000               -0.01733305               -0.13875402                0.26545896               -0.03068477                0.00694392                0.74466244
               5.69237949                8.29064632               43.03970124                0.44406988                0.01540381                0.09025698               -0.13614072               -0.01311340                0.13274456               -0.83424981
               6.69286090                8.02830036               42.86131880                0.02688410               -0.02701692                0.36240504               -0.53974266               -0.80281904                8.69892754               -2.73425456
               7.69183916                7.74948725               42.85157933                0.00010000               -0.07244028                0.32842245               -0.60028334               -1.66286542               17.68890910                0.07276997
               8.69141209                7.46646401               42.84921185                0.00010000                0.00754872                0.39899840               -0.96268867               -1.95480499               18.46377937                1.01241779
               9.69199013                7.17960572               42.85102281                0.00010000                0.12949764                0.41486791               -1.36375436               -2.20883901               18.93773460                1.73456877
              10.69400205                6.89031681               42.85436596                0.00010000                0.32654039                0.32883886               -1.78920367               -2.44078800               19.17108116                2.74561079
              11.69852094                6.59986778               42.85764684                0.00010000                0.74744996                0.14115195               -2.34311593               -2.63959161               19.03352087                4.31461850
              12.70895105                6.30921382               42.85560373                0.09754757                0.99676397               -0.24336563               -3.31543643               -1.50633558               13.47572184                6.95973026
              13.71845622                6.04432470               42.74560974                0.34903310                0.76113453                0.18178340               -1.47679797               -0.13472483                4.05905448                2.18273173
              14.72417374                5.78237677               42.55458966                0.82520590                0.57175205                0.43275178               -1.83960032                0.02116471                0.04948947               -0.35979926
               4.95270752                9.55124204               43.15939388                0.98758363                0.03810778               -0.06187378                0.07327040               -0.02942659                0.00303845                0.74864545
               5.95308860                9.29175092               42.97078406                0.47355563                0.08148950                0.12975200               -0.31850643                0.00439136               -0.03642773               -0.78873219
               6.95433731                9.03183069               42.78128565                0.01573709                0.14317190                0.33208954               -0.72258372               -0.84485317               10.50956146               -2.42463273
               7.95595204                8.75389578               42.80329055                0.00010000                0.15191195                0.44038546               -0.87767094               -1.61662410               21.21820580               -0.49254527
               8.95737555                8.47100723               42.82308972                0.00010000                0.15242929                0.44723993               -1.17485859               -1.70883467               21.41465180                0.59670655
               9.95900062                8.18429598               42.84389486                0.00010000                0.15617399                0.51586056               -1.53133459               -1.88482530               21.89978897                1.39997038
              10.96049903                7.89437207               42.86849002                0.00010000                0.22455139                0.53258663               -1.93923902               -2.18887642               22.66290304                2.39270863
              11.96349165                7.60215991               42.90039378                0.00010000                0.53437688                0.34403635               -2.43619110               -2.67432736               23.71680107                4.03334288
              12.97118657                7.30808211               42.94297047                0.12994586                0.78676424                0.09049701               -3.43901400               -1.64886562               14.64096840                7.60895705
              13.97922693                7.04716419               42.78823945                0.35525131                0.69583903                0.36333049               -1.64864877               -0.06890807                2.46363458                1.76782904
              14.98510335                6.78769840               42.58422788                0.82244795                0.58764126                0.59586712               -2.10592679                0.02669425                0.05721842               -0.87232345
               5.21094655               10.55100667               43.09858000                0.96988319                0.09321311                0.01315155               -0.11659003               -0.02907001               -0.01287628                0.67301687
               6.21187868               10.29324136               42.90227293                0.52220666                0.14362133                0.16930577               -0.50447185                0.00079815                0.01322932               -0.64058045
               7.21381897               10.03494215               42.70633458                0.00010000                0.42257289                0.31152825               -0.89415070               -0.87576776               12.23286159               -1.52589096
               8.22033014                9.75829496               42.75405334                0.00010000                0.65081169                0.24090656               -1.10059819               -1.19995383               24.31172031               -0.36407138
               9.22683521                9.47540881               42.79348150                0.00010000                0.52993221                0.39274570               -1.37879158               -1.10884821               24.19030086                0.26315542
              10.23092878                9.18992293               42.83189051                0.00010000                0.27626893                0.57774456               -1.71484224               -1.12693653               24.73042774                0.77963752
              11.23236059                8.90096854               42.87596806                0.00010000                0.01977870                0.75230014               -2.08953537               -1.46266597               25.97745335                1.42941582
              12.23132435                8.60674851               42.93374056                0.00010000               -0.06955679                0.83337172               -2.46096900               -2.11027290               28.64874954                2.60602364
              13.23096945                8.31102376               43.02552346                0.18622738                0.30687033                0.50924196               -2.44809145               -1.77997076               16.18773587                4.58980111
              14.23746176                8.05159131               42.82675240                0.36843829                0.63348786                0.48666980               -1.77000363               -0.10881264                0.88012576                1.25102388
              15.24363921                7.79429411               42.60899761                0.80937277                0.61774469                0.69197208               -2.32525901                0.01718078                0.00012813               -1.00629537
               5.46765674               11.55150508               43.03593839                0.99546415                0.15123418                0.04984026               -0.30489704                0.03421540                0.36330995                0.58368158
               6.46916908               11.29513703               42.83600800                0.80971917                0.20558063                0.18956717               -0.68943962                0.05684960                0.75540608               -0.51194067
               7.47176836               11.03806125               42.64371339                0.48533829                1.11586091                0.31191041               -1.07404543               -1.02621775               14.03276797               -0.88291957
               8.49148630               10.75871391               42.70892309                0.36941494                1.59011281                0.04189523               -1.29904693               -0.84433888               26.78982780               -0.28425028
               9.50357061               10.47886214               42.76185893                0.35935616                0.97079268                0.34533348               -1.57500611               -0.46961178               26.47531189                0.06993671
              10.51090216               10.19585087               42.81314840                0.36971114                0.54247625                0.59279340               -1.90668262               -0.47486567               27.04126902                0.36931253
              11.51442014                9.90941807               42.87082920                0.39978791                0.01644052                0.84495328               -2.27163319               -0.64522105               28.55846696                0.75777064
              12.51123097                9.61882734               42.94610535                0.50967282               -1.18378939                1.20788382               -2.53040349               -1.56689500               31.35626753                1.52510487
              13.49074435                9.31826695               43.05149664                0.62294122               -0.87253160                0.72431814               -2.28914170               -2.11899777               18.57934623                1.97613697
              14.49378033                9.05689759               42.85794034                0.70156960                0.46485037                0.53062825               -1.83949332               -0.20459764                2.16826494                0.94225131
              15.50004136                8.80153784               42.63483023                0.90245509                0.62610213                0.72437326               -2.45806293                0.10424023                0.76162948               -0.87214533
               2.92675511                1.64697733               44.62781528                1.00000000               -0.42363858               -0.47843220                1.64488054               -0.09178795               -1.18632995                1.11422852
               3.92251872                1.36106375               44.49048909                1.00000000               -0.35795699               -0.32448935                1.16925937               -0.05178182               -1.61436465                0.18936712
               4.91959597                1.07457491               44.34513868                1.00000000               -0.23149831               -0.17806289                0.66874094               -0.05902865               -1.68107304               -0.21126529
               5.91788876                0.78661614               44.20689237                0.67211224               -0.15325312               -0.01364923                0.16608889               -0.46002741               -1.26611505               -0.97247042
               6.91653091                0.48880302               44.07031220                0.72669116                0.19082413               -0.02100882               -0.45262282               -0.12736647               -0.90563164                0.21282287
               7.92170524                0.18513645               43.94194142                0.75379395                0.66977633                0.15820009               -0.92298615               -0.15524986               -0.30768890                0.02358949
               8.92992643               -0.11575727               43.81791326                0.70797703                0.93498544                0.23584904               -1.20534071               -0.03408583                0.39195468               -0.27902320
               9.94040495               -0.41024435               43.70229996                0.77710311                0.86930603                0.22048497               -1.11587517               -0.08687627                0.56047653               -0.02532045
              10.94731255               -0.69757214               43.57813571                1.00000000                0.54382915                0.24529787               -0.98815696               -0.08614149               -0.19734118                0.72999427
              11.95128153               -0.98233489               43.44475246                1.00000000                0.40434984                0.33433974               -1.18566538               -0.03672904               -0.68063649                0.07627631
              12.95539955               -1.26646373               43.31064264                1.00000000                0.41180193                0.42482021               -1.45583770               -0.04656338               -0.70637286               -0.68880483
               3.21175081                2.64219300               44.56733333                1.00000000               -0.35486948               -0.46476865                1.45091656               -0.01255976               -0.26620182                1.49672375
               4.20820211                2.35781885               44.43003227                1.00000000               -0.27606615               -0.29921110                0.97747502                0.02184375               -0.42157860                0.27576084
               5.20622948                2.07279428               44.29000479                1.00000000               -0.10138434               -0.14766263                0.48358740               -0.00688419               -0.36062302               -0.40342045
               6.20617443                1.78647965               44.15391383                0.35388651                0.48838029                0.02320744                0.00619268               -0.57283517                1.01064574               -1.34090560
               7.21599709                1.48859294               44.04087326                0.45953423                0.81292302               -0.08607970               -0.62083753               -0.20654765                1.98912057                0.54813784
               8.22243289                1.18671845               43.92324345                0.51209972                0.56394408                0.21344986               -1.07682768               -0.22064083                1.96165169                0.16049369
               9.22727597                0.88660122               43.80898387                0.41703433                0.40053675                0.37783582               -1.32180502               -0.10066163                2.80363516               -0.68532962
              10.23044362                0.59196050               43.70740165                0.46130159                0.26102189                0.36575330               -1.11400408               -0.13327964                3.11249635                0.17222666
              11.23249641                0.30488084               43.59970858                1.00000000                0.24582080                0.24662944               -0.84472955               -0.10432059                1.54112204                0.89389851
              12.23536004                0.02100851               43.46791631                1.00000000                0.32831749                0.32035345               -1.09799485                0.00386076                0.21058747                0.22792538
              13.23906276               -0.26221553               43.33404039                1.00000000                0.37027221                0.41220573               -1.36847672               -0.00175773                0.09526889               -0.78535492
               3.49525221                3.63768195               44.51514504                1.00000000               -0.28978923               -0.43912837                1.26555889               -0.01033950                0.00003153                1.87544252
               4.49235432                3.35507953               44.37152625                1.00000000               -0.22273625               -0.24573166                0.79507297                0.00858055                0.13594769                0.29707147
               5.49079749                3.07162166               44.23086682                0.78568290               -0.08604608               -0.06029038                0.30633036               -0.05125861                0.41597798               -1.02217112
               6.49063340                2.78708029               44.09268495                0.00010000                1.06818346                0.07829400               -0.19421502               -0.84791450                3.68532542               -1.81698251
               7.51216116                2.48708143               44.01691286                0.00010000                1.43253681               -0.06219674               -0.94537906               -1.76816108                5.26710151               -0.91484485
               8.51928414                2.18940544               43.90597593                0.00010000                0.52549942                0.27970082               -1.37033943               -1.61806578                3.39077021               -0.01913818
               9.52267115                1.89179945               43.79038707                0.00010000                0.00878017                0.50674327               -1.67383373               -1.44927972                5.24950260                0.54946813
              10.51945974                1.59707072               43.71551779                0.00010000               -0.32465049                0.47985635               -1.41822340               -0.99745301                6.32097180                0.63030841
              11.51617814                1.30736045               43.62467241                0.34056745               -0.05023113                0.14905259               -0.72008280               -0.45653507                3.25418161                1.65181916
              12.51845512                1.02407218               43.49411834                1.00000000                0.28171681                0.28141539               -1.01518211               -0.04730902                0.82080657                0.74051019
              13.52181247                0.74178038               43.35541379                1.00000000                0.33573560                0.38383244               -1.25914066               -0.00878712                0.38469456               -0.75300269
               3.77674887                4.63341044               44.46282524                1.00000000               -0.23148529               -0.40872497                1.07851517               -0.02166595                0.12245766                1.68359414
               4.77443402                4.35290422               44.31168654                1.00000000               -0.17726631               -0.18101093                0.61378028               -0.00626089                0.24503566                0.07795604
               5.77320355                4.07158847               44.16317998                0.35397587               -0.03388277                0.03267669                0.16047880               -0.12359590                1.12068944               -1.52638047
               6.77375636                3.78804553               44.02938745                0.00010000                0.25525857                0.16605296               -0.33749861               -1.05302615                4.99860214               -2.33844278
               7.77830872                3.48734900               43.95793415                0.00010000                0.57985938                0.18650806               -0.85140851               -2.63362797                8.00993564               -1.66654662
               8.78535355                3.19231246               43.88194072                0.00010000                0.61581927                0.25041654               -1.25736812               -2.58754280                7.73282426                0.16617091
               9.79062510                2.89673609               43.80322882                0.00010000                0.47900045                0.32848228               -1.47649031               -2.51086123                7.69186980                1.93356124
              10.79493356                2.60155763               43.72638384                0.00010000                0.28695721                0.25316473               -1.42638759               -1.97489933                8.30924668                1.50230433
              11.79636425                2.30786189               43.66179068                0.06410725                0.25301821                0.03078641               -0.70535211               -0.83883087                5.17221691                1.00621833
              12.79999392                2.02663682               43.52786148                0.44463468                0.35531822                0.05595259               -0.99231297               -0.09980413                0.96086439                1.83570646
              13.80347061                1.74546112               43.37968359                0.88573092                0.34766870                0.21366780               -1.18362310                0.00533818                0.20554832                0.10273452
               4.05583132                5.62950745               44.40727605                1.00000000               -0.17802592               -0.36455769                0.88209276               -0.04208432                0.24673520                1.32470023
               5.05405107                5.35145931               44.24885596                0.70933519               -0.13235325               -0.09259300                0.42763206               -0.04650189                0.39782417               -0.37378157
               6.05318426                5.07227519               44.09357061                0.15139659               -0.01193585                0.14217029               -0.01302895               -0.20273664                1.49282980               -1.87763032
               7.05381235                4.79040135               43.95685213                0.00010000                0.10187025                0.19216694               -0.47667750               -1.23683042                7.26935165               -1.74367402
               8.05522166                4.49081159               43.91655162                0.00010000                0.21669213                0.35053516               -0.82521449               -2.17890114               11.61987151               -0.12938420
               9.05814619                4.19441378               43.86415946                0.00010000                0.39935453                0.24748848               -1.20877964               -2.25446084               10.81307496                0.91028556
              10.06320876                3.89836910               43.80603133                0.00010000                0.53448787                0.14325607               -1.46603392               -2.30119956               10.44174902                1.78160812
              11.06883595                3.60213401               43.74529698                0.00010000                0.55567880                0.01716381               -1.53227176               -2.10935487                9.81318356                2.16311427
              12.07432233                3.30797618               43.67494817                0.05111538                0.50119287               -0.03151936               -1.60938692               -1.11893780                7.74817027                1.31289296
              13.07885981                3.02519123               43.57659162                0.34391267                0.49741491               -0.25063751               -0.95932730               -0.23445666                3.08246979                2.93479659
              14.08427063                2.74605374               43.41879778                0.81055145                0.54108237               -0.09083843               -1.12882390                0.07946641                0.10791566                0.99366951
               4.33200348                6.62611928               44.34810973                1.00000000               -0.12672349               -0.30122415                0.68002750               -0.04108422                0.09584512                0.99363548
               5.33073624                6.35105236               44.17988946                0.53515117               -0.08983548               -0.00241200                0.21829500               -0.06595623                0.42678510               -0.75297331
               6.33020677                6.07443188               44.01836354                0.07208576               -0.01264438                0.28591276               -0.21251911               -0.40063602                3.15306669               -2.38196710
               7.33048336                5.79188887               43.90449027                0.00010000                0.02557513                0.05785279               -0.26850533               -1.50471758               10.37435007                0.98101194
               8.33071827                5.49435970               43.88600161                0.00010000                0.11117373                0.34855940               -0.82819679               -2.25389688               14.51069500                0.82943128
               9.33270683                5.19726223               43.85172303                0.00010000                0.30813008                0.30348905               -1.23837702               -2.30499035               13.58220933                1.50002211
              10.33688087                4.89960121               43.81211282                0.00010000                0.52162746                0.15298486               -1.55974478               -2.39481354               13.10919594                2.25841409
              11.34313938                4.60190091               43.76657441                0.00010000                0.70236998               -0.01862263               -1.81275045               -2.20609721               12.33721089                2.82074950
              12.35092827                4.30723151               43.71140706                0.05599149                0.70439255               -0.17409202               -1.96374944               -1.37507087               10.53282759                3.31627859
              13.35722723                4.02162407               43.63336205                0.32893460                0.62033265               -0.25055532               -1.05944893               -0.36845820                4.56820373                3.07697776
              14.36333492                3.74364435               43.46415905                0.80807009                0.61076948               -0.13607749               -1.29629599                0.04039020                0.02309585                0.75987158
               4.60514348                7.62348297               44.28617252                1.00000000               -0.07241394               -0.22322712                0.47686447               -0.03408394                0.02903904                0.79884407
               5.60441934                7.35141107               44.10920993                0.45289459               -0.04042267                0.06008433                0.02355030               -0.04559220                0.31305190               -0.84123956
               6.60433503                7.07799345               43.93794468                0.03644886               -0.03145862                0.38555001               -0.41921745               -0.70741637                6.59539013               -2.69714060
               7.60379017                6.79155841               43.88642393                0.00010000                0.02176666                0.11633664               -0.34445223               -1.68738924               14.09621535                1.56426426
               8.60477036                6.49778278               43.86210451                0.00010000                0.15073530                0.35522398               -0.90786520               -2.15883930               15.92922438                1.25581673
               9.60680488                6.20048356               43.84363397                0.00010000                0.29517246                0.35380927               -1.33059723               -2.39350546               16.25261510                1.84106079
              10.61067381                5.90142879               43.82243580                0.00010000                0.51394158                0.23250902               -1.71980706               -2.53530132               16.00134474                2.68775869
              11.61708371                5.60176156               43.79621871                0.00010000                0.82119703                0.03408355               -2.11952322               -2.46394557               15.31232516                3.71166496
              12.62709775                5.30449434               43.75989799                0.06679060                0.89970433               -0.29229156               -2.50652172               -1.52822131               12.78457622                4.75969214
              13.63507780                5.02018013               43.68499689                0.32905103                0.69700558               -0.01095817               -1.29317351               -0.35243854                5.34823013                2.55537185
              14.64103786                4.74333219               43.50343659                0.81221802                0.59600686                0.13021820               -1.64066370                0.02385494                0.04249950               -0.03412615
               4.87546560                8.62165474               44.22325815                0.99975542               -0.01516827               -0.14342440                0.27675564               -0.03170053                0.00560239                0.73379862
               5.87531392                8.35225405               44.03818933                0.43233321                0.02227476                0.10477658               -0.16723835               -0.00952118                0.13036236               -0.83121900
               6.87591110                8.08214288               43.85557513                0.02005812                0.08161577                0.40242917               -0.61496067               -0.86090072                8.86798318               -2.72765618
               7.87694624                7.79421560               43.84499635                0.00010000                0.13526179                0.36136502               -0.72363486               -1.75445156               17.92691598               -0.02816293
               8.87861634                7.50146418               43.83906662                0.00010000                0.21222348                0.40736097               -1.07154626               -2.05616439               18.57371696                1.06602776
               9.88119071                7.20433842               43.83684952                0.00010000                0.31402523                0.42330475               -1.47094830               -2.31413023               19.03996288                1.82728603
              10.88489684                6.90425139               43.83589118                0.00010000                0.48021070                0.35559620               -1.89699603               -2.55085507               19.21783378                2.82452169
              11.89079492                6.60258258               43.83350565                0.00010000                0.85242201                0.18196244               -2.45128756               -2.69850463               18.83345635                4.33057469
              12.90194528                6.30138567               43.82194276                0.08397604                1.02728432               -0.20568205               -3.29760444               -1.61330334               14.42066834                6.58848049
              13.91134061                6.02140490               43.73049189                0.33326797                0.77813076                0.23107356               -1.55795921               -0.23520158                5.19586018                2.06312036
              14.91750790                5.74624872               43.53544424                0.81424184                0.61672882                0.42381879               -2.02196340                0.03309668                0.06418735               -0.68995607
               5.14331086                9.62061448               44.16013839                0.98261148                0.04299230               -0.06476559                0.07776309               -0.03147312                0.00558750                0.73743111
               6.14374078                9.35350660               43.96741187                0.46366458                0.09223010                0.14529166               -0.35806253                0.00877284               -0.03911449               -0.78521604
               7.14515546                9.08604203               43.77369190                0.00952864                0.28195275                0.36529679               -0.80228625               -0.92166952               10.63188337               -2.40671031
               8.14937984                8.79878571               43.79401578                0.00010000                0.41843994                0.43152486               -0.98133704               -1.75313030               21.44203620               -0.51556786
               9.15352426                8.50593000               43.81084008                0.00010000                0.41776150                0.41081228               -1.27721500               -1.81697436               21.58177792                0.62227223
              10.15773507                8.20894965               43.82802152                0.00010000                0.39441471                0.48857414               -1.64049219               -1.95934717               22.04119034                1.45635156
              11.16141255                7.90854072               43.84835583                0.00010000                0.41221336                0.54155856               -2.07626962               -2.23987825               22.74582934                2.45558024
              12.16597933                7.60540081               43.87478781                0.00010000                0.72984032                0.42089744               -2.65971264               -2.67716299               23.42965527                4.13346481
              13.17600936                7.30038070               43.90514583                0.11205431                0.97656949                0.12332336               -3.97886201               -1.68865871               15.61714444                8.10869462
              14.18551072                7.02480160               43.77108456                0.34055850                0.80014074                0.42137168               -1.79189685               -0.13223296                3.75966032                1.70592519
              15.19201217                6.75180857               43.56203949                0.81223603                0.65014512                0.64013552               -2.36002809                0.03520281                0.07689728               -1.13529421
               5.40905191               10.62035943               44.09738260                0.96474151                0.10099218                0.01306340               -0.12148066               -0.03052820               -0.01347594                0.66327441
               6.41006183               10.35515988               43.89700062                0.51382474                0.15733456                0.18601167               -0.55234716                0.00333933                0.01297418               -0.63791847
               7.41219860               10.08944882               43.69698896                0.00010000                0.59669158                0.34047118               -0.98090608               -0.99671925               12.33364448               -1.50437847
               8.42199566                9.80284610               43.74259661                0.00010000                0.99571524                0.15754438               -1.19422036               -1.33620287               24.51863344               -0.36354068
               9.43211291                9.50968043               43.77920244                0.00010000                0.86986915                0.31055138               -1.47743922               -1.18850405               24.37609363                0.27774373
              10.43939305                9.21410990               43.81415252                0.00010000                0.57676055                0.51495192               -1.82749060               -1.15683178               24.89372126                0.80429958
              11.44364812                8.91508256               43.85420155                0.00010000                0.30093172                0.72912473               -2.25350577               -1.43324793               26.10986805                1.46106458
              12.44541168                8.61100053               43.90739254                0.00010000                0.25616015                0.87263695               -2.79388228               -2.01817829               28.87643188                2.73656606
              13.44877132                8.30385214               43.99708701                0.16206262                0.59282000                0.66020308               -3.34600629               -1.67243540               17.13468111                5.41381168
              14.45726808                8.02983234               43.80815888                0.35464986                0.77133478                0.54697922               -1.95647961               -0.16743828                1.67990941                1.26065850
              15.46419802                7.75905143               43.58438016                0.79917606                0.69299347                0.76922117               -2.62542001                0.02159425                0.01674254               -1.17058477
               5.67309939               11.62087575               44.03281509                0.99281958                0.16187912                0.05163219               -0.31881306                0.03985615                0.35604605                0.57410653
               6.67471818               11.35722683               43.82884138                0.80616420                0.22177330                0.20669513               -0.74669279                0.06442008                0.75000436               -0.50739942
               7.67753486               11.09285145               43.63252728                0.48260933                1.38529918                0.34026383               -1.16960839               -1.23088638               14.11924515               -0.86221467
               8.70242416               10.80193660               43.69547356                0.36938347                2.04777602               -0.09095049               -1.39566808               -0.99267125               26.98830172               -0.29200715
               9.71849038               10.51214103               43.74559357                0.35948084                1.33860667                0.24605965               -1.67919206               -0.49664827               26.66295885                0.06883470
              10.72919630               10.21924869               43.79346532                0.36947244                0.86832976                0.51387873               -2.02508452               -0.47056558               27.20936108                0.37205597
              11.73585697                9.92312321               43.84719984                0.39879138                0.38249453                0.80406489               -2.44411790               -0.59887158               28.73442499                0.76660603
              12.73684619                9.62285355               43.91894687                0.49599154               -0.60640655                1.18530233               -2.91124841               -1.33347181               31.78350102                1.65524346
              13.72372884                9.31358476               44.02536255                0.60884871               -0.49417576                0.97326176               -3.05971547               -1.85986631               19.63611936                2.49335267
              14.72696267                9.03574118               43.83857070                0.69498604                0.51385209                0.59088445               -2.04315330               -0.35012924                2.86696624                0.98920011
              15.73400588                8.76719299               43.60879818                0.89717677                0.70432087                0.81415632               -2.77501288                0.12596740                0.80160077               -0.97017590
               3.05444842                1.71963053               45.64481578                1.00000000               -0.45314447               -0.51346306                1.76466679               -0.10242276               -1.20861008                1.12297615
               4.04991698                1.42439514               45.50241867                1.00000000               -0.38455816               -0.33643429                1.22048012               -0.05698604               -1.65249530                0.19329858
               5.04675726                1.12852461               45.35177807                1.00000000               -0.25754496               -0.16896308                0.65906400               -0.06830670               -1.73704109               -0.20976621
               6.04476608                0.83069931               45.20820478                0.68011046               -0.24572998                0.03530316                0.09375613               -0.54024967               -1.38038659               -0.96153882
               7.04184266                0.52109091               45.06533003                0.73679864                0.08191369                0.04981723               -0.53066285               -0.16597216               -1.04341223                0.19583443
               8.04640435                0.20462078               44.93198580                0.75823676                0.65633712                0.23190842               -1.05091000               -0.18697087               -0.35845099               -0.00444269
               9.05496940               -0.10952944               44.80481265                0.69701254                1.04000850                0.32807695               -1.41511711               -0.02902672                0.56640287               -0.36797241
              10.06720452               -0.41606711               44.69027207                0.74366313                1.03415318                0.28200456               -1.32439215               -0.07601569                0.96713149               -0.13067253
              11.07565246               -0.71236273               44.56814552                1.00000000                0.62768095                0.23562712               -0.99693000               -0.11096692                0.12083619                0.77397697
              12.07975814               -1.00511346               44.43277009                1.00000000                0.41703962                0.33339982               -1.20913379               -0.03877103               -0.60318680                0.08525454
              13.08399326               -1.29695082               44.29588632                1.00000000                0.42351167                0.43174630               -1.50469284               -0.05842640               -0.66481495               -0.64461387
               3.34865959                2.71449590               45.58232514                1.00000000               -0.37595123               -0.49823866                1.55619438               -0.01074292               -0.28137183                1.50328692
               4.34490008                2.42103080               45.43997346                1.00000000               -0.28687402               -0.31038603                1.01380215                0.02774015               -0.45010647                0.28244235
               5.34292211                2.12683498               45.29470685                1.00000000               -0.09098216               -0.13824758                0.45524652               -0.00366413               -0.39324871               -0.39536513
               6.34308043                1.83105234               45.15352600                0.37656701                0.51500462                0.06902435               -0.09028421               -0.66191874                0.90932254               -1.33767089
               7.35322220                1.52158908               45.03391037                0.48191744                0.83821931               -0.03909443               -0.77074080               -0.28270162                1.84499089                0.47368186
               8.35984482                1.20693986               44.91135303                0.52638097                0.59004404                0.29830218               -1.30498855               -0.28417233                1.97938226                0.07640188
               9.36502308                0.89375133               44.79430862                0.41462503                0.40080963                0.50670878               -1.64722619               -0.13047495                3.18452068               -0.87064675
              10.36786101                0.58675293               44.69526257                0.42728717                0.20214446                0.50533566               -1.38343964               -0.17249362                3.80403174               -0.08878924
              11.36906597                0.28999354               44.59149672                1.00000000                0.19017309                0.22963590               -0.77943017               -0.17856193                1.90158570                0.91769361
              12.37166447               -0.00177946               44.45710982                1.00000000                0.30901897                0.31083043               -1.05778442                0.00259287                0.22372245                0.23189259
              13.37524635               -0.29263335               44.32045935                1.00000000                0.35818764                0.41118579               -1.35308214               -0.01065842                0.09759379               -0.72439566
               3.64116378                3.70966576               45.52819158                1.00000000               -0.30310774               -0.46791794                1.35094375               -0.01042650               -0.00936679                1.87966833
               4.63813270                3.41818742               45.37956215                1.00000000               -0.22506711               -0.25256237                0.81391934                0.00937466                0.11504737                0.30726399
               5.63666243                3.12575966               45.23371457                0.79617389               -0.06795480               -0.04519357                0.26039321               -0.05874544                0.38284422               -0.99282306
               6.63677360                2.83207979               45.09026234                0.00010000                1.18193328                0.12306931               -0.29725996               -0.99226474                3.51547612               -1.80132972
               7.66030110                2.52030902               45.00646458                0.00010000                1.58925282                0.01419062               -1.14952198               -2.01534037                5.08259433               -0.82052743
               8.66855866                2.21058682               44.89073615                0.00010000                0.61228675                0.44312791               -1.68505149               -1.86881777                3.43293119                0.07852734
               9.67254683                1.90060474               44.77156576                0.00010000               -0.05231093                0.76564997               -2.12373999               -1.71667019                5.67878292                0.61034620
              10.66751244                1.59403960               44.69928447                0.00010000               -0.59666060                0.78019689               -2.00281516               -1.29421605                7.41255727                0.55832158
              11.66061362                1.29222999               44.61805381                0.31747058               -0.25377742                0.10880964               -0.58247204               -0.68418806                3.82572995                1.58426044
              12.66243689                1.00110315               44.48441770                1.00000000                0.24371247                0.25522450               -0.91620379               -0.05469587                0.77663793                0.70552939
              13.66548787                0.71127290               44.34322490                1.00000000                0.30509798                0.36425612               -1.18102506               -0.01794451                0.36591604               -0.69162666
               3.93140774                4.70513754               45.47391079                1.00000000               -0.24140755               -0.43031706                1.14395053               -0.02389624                0.11861604                1.67954398
               4.92899367                4.41597955               45.31783409                1.00000000               -0.17764587               -0.18022924                0.61626008               -0.00898371                0.24362092                0.08632932
               5.92785482                4.12593111               45.16447860                0.34780867               -0.01539442                0.05606306                0.09423963               -0.13635954                1.10373825               -1.49073190
               6.92868578                3.83351372               45.02540773                0.00010000                0.32767691                0.21351423               -0.46678566               -1.17349961                4.95641569               -2.28693295
               7.93440836                3.52187290               44.94853170                0.00010000                0.67434865                0.31620999               -1.04057625               -2.89781287                8.00670535               -1.36642270
               8.94217275                3.21580242               44.86823161                0.00010000                0.64142697                0.45939787               -1.49922064               -2.88075248                7.86316143                0.49348294
               9.94723690                2.90906433               44.78723767                0.00010000                0.40893452                0.61142513               -1.74863706               -2.84373440                8.04090713                2.29103211
              10.95035144                2.60235687               44.71134179                0.00010000                0.05408805                0.52048085               -1.59958068               -2.50200922                9.13247655                1.70225345
              11.94831866                2.29216973               44.65537045                0.05014944                0.05881016                0.20567670               -0.56832759               -1.10129262                5.66614999                0.41798773
              12.95152764                2.00332503               44.51862517                0.40387568                0.31146478                0.01879913               -0.84209187               -0.07150324                0.89617649                1.75677756
              13.95454796                1.71465177               44.36855305                0.85490573                0.30203140                0.10844865               -1.04234581                0.05392908                0.18279137                0.12689847
               4.21900184                5.70105942               45.41631879                1.00000000               -0.18423858               -0.37923085                0.93002283               -0.04601359                0.24994426                1.31319201
               5.21715945                5.41458283               45.25307740                0.69187537               -0.13003871               -0.08319770                0.41588060               -0.05210473                0.40717598               -0.37793097
               6.21640107                5.12688092               45.09311320                0.14415597                0.01011854                0.17486233               -0.08361739               -0.21960617                1.49689914               -1.86439893
               7.21736183                4.83635008               44.95141872                0.00010000                0.18275380                0.22490220               -0.61815024               -1.32064442                7.33752967               -1.49538869
               8.22005614                4.52663322               44.90755642                0.00010000                0.31951752                0.46099806               -0.98509687               -2.32202146               11.73137336                0.14407586
               9.22375218                4.21977478               44.85123389                0.00010000                0.45307780                0.40115100               -1.39154354               -2.40597427               10.96618965                1.19712925
              10.22911770                3.91283324               44.79066055                0.00010000                0.53073386                0.30839073               -1.61995645               -2.48514151               10.75180126                2.01757697
              11.23436685                3.60444922               44.72976219                0.00010000                0.42509575                0.16390003               -1.57917451               -2.39413641               10.21521334                2.17833889
              12.23761961                3.29634352               44.65957477                0.04051041                0.20789690                0.30948096               -1.46130898               -1.33715179                8.40441340                0.69883715
              13.23852479                3.00147913               44.56775231                0.31473321                0.31466788               -0.25464685               -0.80496774               -0.33841305                3.48847563                2.81185512
              14.24391297                2.71344187               44.40821098                0.78887223                0.53881798               -0.30754929               -1.00405529                0.16302878                0.09858518                0.81482079
               4.50344064                6.69755293               45.35507085                1.00000000               -0.13105739               -0.31069152                0.71539515               -0.04224883                0.08699561                0.98026707
               5.50213006                6.41431559               45.18196814                0.51858839               -0.08725918                0.01191409                0.19579986               -0.06940333                0.43212101               -0.75875919
               6.50169546                6.12942836               45.01586494                0.06401081                0.01952621                0.32736314               -0.29499623               -0.43882365                3.37428940               -2.38054986
               7.50252059                5.83801177               44.90138954                0.00010000                0.14238866                0.08782309               -0.34683946               -1.52799288               10.52887330                1.26789726
               8.50454323                5.53109286               44.87708039                0.00010000                0.26663298                0.42226786               -0.97132724               -2.31389516               14.51119101                1.06044608
               9.50785325                5.22382544               44.83868577                0.00010000                0.41582033                0.39592792               -1.37984355               -2.39308396               13.72992476                1.73498711
              10.51285963                4.91523214               44.79604088                0.00010000                0.55525910                0.24694306               -1.66161212               -2.51446329               13.34956299                2.41672647
              11.51895843                4.60563487               44.74845284                0.00010000                0.58430393                0.10948557               -1.81381849               -2.36374165               12.65996792                2.74839533
              12.52454571                4.29835935               44.69268045                0.04656638                0.43513002                0.06320193               -1.79152433               -1.61694296               11.31001398                2.97657482
              13.52766103                3.99823209               44.62319504                0.30713199                0.46686682               -0.19865005               -0.98533625               -0.49364884                5.13620419                2.88642929
              14.53388305                3.70850078               44.45133838                0.79180662                0.62220190               -0.31831092               -1.30849909                0.06896070                0.02576824                0.33514527
               4.78463153                7.69484559               45.29105674                1.00000000               -0.07355724               -0.22993374                0.50263110               -0.03435361                0.02437091                0.78732816
               5.78389596                7.41482111               45.10930813                0.43856948               -0.03515542                0.07521995               -0.00547935               -0.04388531                0.31305405               -0.83651105
               6.78392842                7.13342819               44.93335993                0.02866365                0.06207567                0.42858270               -0.50486899               -0.74982426                6.86093226               -2.69201582
               7.78513747                6.83810654               44.88228929                0.00010000                0.20180725                0.16601854               -0.49888440               -1.69921047               14.35857818                1.57071707
               8.78796456                6.53507858               44.85243070                0.00010000                0.33068706                0.39780643               -1.03559726               -2.19615819               15.97290640                1.41181869
               9.79175121                6.22769334               44.82975976                0.00010000                0.45272202                0.39692247               -1.45161096               -2.45974506               16.40594469                2.02554456
              10.79701900                5.91777210               44.80481543                0.00010000                0.61068014                0.28275360               -1.80457880               -2.61057248               16.19568774                2.81152833
              11.80396481                5.60663893               44.77502363                0.00010000                0.78322655                0.11376510               -2.11018501               -2.49922426               15.52744656                3.63503119
              12.81268354                5.29760756               44.73585586                0.05699264                0.72727854               -0.13118775               -2.30225104               -1.66501710               13.67240779                4.24472826
              13.81851038                4.99750613               44.67201000                0.31209794                0.60356325                0.06336759               -1.31891630               -0.46604988                6.11543789                2.34247659
              14.82475480                4.70707565               44.48647526                0.79954427                0.62444170                0.07369824               -1.79451411                0.04043901                0.05958553               -0.51354403
               5.06280251                8.69295425               45.22608864                0.99299595               -0.01327523               -0.14896832                0.29269319               -0.03138722                0.00791747                0.72519119
               6.06266976                8.41581999               45.03635647                0.41980481                0.03055166                0.12070981               -0.20221789               -0.00486979                0.12954652               -0.82532402
               7.06341355                8.13800001               44.84901959                0.01273387                0.21081131                0.44272326               -0.70179719               -0.90226027                9.03741691               -2.71405368
               8.06688599                7.84133214               44.83710663                0.00010000                0.38098594                0.39388118               -0.86065613               -1.82219603               18.20214787               -0.08726622
               9.07103326                7.53904899               44.82778092                0.00010000                0.45394209                0.41191386               -1.19403273               -2.12637215               18.76048591                1.16142080
              10.07596483                7.23176389               44.82160384                0.00010000                0.53346662                0.42133355               -1.58225300               -2.38021479               19.22824868                1.96557219
              11.08170260                6.92088722               44.81642604                0.00010000                0.65868296                0.37006036               -1.99062868               -2.61116966               19.37192896                2.93140544
              12.08913849                6.60791017               44.80862109                0.00010000                0.93377875                0.21516899               -2.49222022               -2.69108400               18.84183378                4.29614803
              13.10037817                6.29573560               44.78965164                0.07229047                0.98667261               -0.12479056               -3.10001249               -1.69307813               15.46006214                5.92423009
              14.10887194                5.99949944               44.71445056                0.31912508                0.75873053                0.30547906               -1.66091807               -0.33723746                6.28676780                1.89033236
              15.11555278                5.70997475               44.51415040                0.80362993                0.66808431                0.44904753               -2.26752525                0.04636224                0.08418452               -1.09908417
               5.33827230                9.69186622               45.16094914                0.97751802                0.04804985               -0.06793968                0.08663168               -0.03116727                0.00789050                0.72841095
               6.33875280                9.41723531               44.96362281                0.45261229                0.10493843                0.16167446               -0.40339604                0.01392331               -0.03978616               -0.78058066
               7.34037107                9.14228265               44.76523993                0.00285325                0.44458884                0.40095942               -0.89422135               -0.98844122               10.76950494               -2.38434121
               8.34764457                8.84598416               44.78366381                0.00010000                0.73171497                0.41171161               -1.09435972               -1.86812240               21.71432705               -0.50009702
               9.35500537                8.54331686               44.79754542                0.00010000                0.73320547                0.35806036               -1.38812910               -1.90481208               21.82487266                0.68560545
              10.36230868                8.23612001               44.81108502                0.00010000                0.68219816                0.44006186               -1.74825261               -2.01521435               22.27025677                1.55004839
              11.36864933                7.92517331               44.82696463                0.00010000                0.64930342                0.52293023               -2.19058654               -2.27811903               22.90855451                2.53379184
              12.37529475                7.61094231               44.84719952                0.00010000                0.92916869                0.47052970               -2.82245270               -2.66162590               23.16882674                4.15975421
              13.38723270                7.29511175               44.86339323                0.09628602                1.11158656                0.16738401               -4.14888048               -1.74040155               16.77855406                8.04641875
              14.39752648                7.00361571               44.75240151                0.32777863                0.87493653                0.49094492               -1.95172611               -0.20801395                5.24593022                1.60590272
              15.40473144                6.71605660               44.53702732                0.80254834                0.72049514                0.70744877               -2.66176767                0.04302538                0.09787147               -1.44266828
               5.61144099               10.69159546               45.09615039                0.95900530                0.10908083                0.01279977               -0.12352331               -0.03155842               -0.01335934                0.65369636
               6.61253180               10.41905348               44.89122599                0.50381825                0.17274407                0.20361011               -0.60500733                0.00639664                0.01560965               -0.63378069
               7.61489587               10.14601920               44.68671646                0.00010000                0.79787683                0.37288402               -1.07981648               -1.11685481               12.45844677               -1.48073154
               8.62848933                9.84956637               44.73016893                0.00010000                1.39526530                0.05678562               -1.29803553               -1.46337693               24.78441204               -0.34265654
               9.64280117                9.54621019               44.76393272                0.00010000                1.26573794                0.20698532               -1.58230356               -1.25842898               24.64249148                0.31562524
              10.65380409                9.24056513               44.79534070                0.00010000                0.92583720                0.42731865               -1.93428283               -1.18449737               25.14770189                0.85292476
              11.66131792                8.93134582               44.83089794                0.00010000                0.60817190                0.67901533               -2.39161486               -1.41333031               26.29461067                1.49814177
              12.66596753                8.61732077               44.87786291                0.00010000                0.57894102                0.89406298               -3.06137482               -1.94095113               28.87855315                2.77350231
              13.67289674                8.29908328               44.95860333                0.13979825                0.88996376                0.82355854               -4.29524196               -1.56961122               18.33206254                5.98670192
              14.68376680                8.00931834               44.78762281                0.34316802                0.93173819                0.61211231               -2.15531765               -0.24010037                2.95368085                1.24904820
              15.69153150                7.72412372               44.55648921                0.78979011                0.77646988                0.86208360               -2.96633436                0.02488657                0.02975952               -1.35655279
               5.88272508               11.69212222               45.02956213                0.99002998                0.17319058                0.05267592               -0.33081478                0.04693909                0.34850193                0.56491616
               6.88445699               11.42130751               44.82107414                0.80167409                0.23980008                0.22540309               -0.80995013                0.07342496                0.74682873               -0.50206458
               7.88752108               11.14974033               44.62032123                0.47974800                1.68645284                0.37211311               -1.27869206               -1.44686042               14.23222535               -0.84052051
               8.91818604               10.84711988               44.68100973                0.36935803                2.56584731               -0.24464954               -1.50572012               -1.14451722               27.24791555               -0.29285582
               9.93883803               10.54745656               44.72827509                0.35954911                1.76485327                0.12463707               -1.79160943               -0.51898910               26.93466590                0.07669008
              10.95348311               10.24466638               44.77264671                0.36925673                1.23945288                0.41012543               -2.13934428               -0.46724564               27.48003692                0.38220380
              11.96362709                9.93875361               44.82194685                0.39780229                0.76275823                0.74077933               -2.58962435               -0.56122395               28.95387190                0.76486847
              12.96873827                9.62882357               44.88788038                0.48234318                0.01079102                1.15028008               -3.25466539               -1.08146026               32.03962720                1.67544467
              13.96384291                9.31158292               44.99030234                0.59556522               -0.05271216                1.24996417               -3.99420906               -1.55366375               20.89623604                3.04167800
              14.96768403                9.01585796               44.81707728                0.68973457                0.58877477                0.65396159               -2.26087780               -0.52250946                3.97631379                1.02415638
              15.97561840                8.73329828               44.57932997                0.89243522                0.79343719                0.91745532               -3.13076272                0.15272192                0.84101167               -1.08286787
               3.18737713                1.79441813               46.66310861                1.00000000               -0.48705986               -0.55351881                1.90183636               -0.11483981               -1.22055828                1.12373298
               4.18250653                1.48982014               46.51489870                1.00000000               -0.41540402               -0.34959122                1.27825190               -0.06363062               -1.67449955                0.19488101
               5.17906905                1.18452203               46.35831996                1.00000000               -0.28887321               -0.15715482                0.64873063               -0.07956786               -1.77002983               -0.20863056
               6.17672906                0.87674292               46.20876749                0.68767324               -0.35937027                0.09257509                0.01663401               -0.60531918               -1.42946580               -0.94565781
               7.17188164                0.55555905               46.05969894                0.74674794               -0.08377317                0.13729800               -0.58501558               -0.20266629               -1.08854433                0.17665707
               8.17505360                0.22631312               45.92092322                0.76419009                0.55432897                0.31830038               -1.14058689               -0.22651787               -0.37444031               -0.02028029
               9.18296822               -0.10210865               45.78961092                0.68573081                1.06805578                0.45438381               -1.60828510               -0.04873280                0.74642358               -0.45358908
              10.19641472               -0.42283879               45.67581212                0.69793460                1.21315164                0.40111040               -1.61011816               -0.04217310                1.46585161               -0.29135193
              11.20723125               -0.72879500               45.55819711                1.00000000                0.75311375                0.21214246               -0.97009966               -0.17856143                0.58121854                0.82319679
              12.21147699               -1.02930925               45.42056979                1.00000000                0.43197712                0.33080117               -1.22805380               -0.04586583               -0.52511968                0.09051600
              13.21587080               -1.32850206               45.28054879                1.00000000                0.43938041                0.44600340               -1.57357405               -0.07480157               -0.62871565               -0.60293963
               3.49082672                2.78888295               46.59845722                1.00000000               -0.40084503               -0.53642315                1.67780897               -0.00854136               -0.29295227                1.49969717
               4.48681827                2.48632423               46.45030831                1.00000000               -0.30073738               -0.32279786                1.05547993                0.03466431               -0.47198627                0.28594056
               5.48481198                2.18295048               46.29910972                1.00000000               -0.08304559               -0.12642937                0.42301129                0.00147917               -0.41891721               -0.38661535
               6.48515736                1.87766867               46.15210814                0.40184440                0.51289496                0.12145227               -0.20001708               -0.72773009                0.82479009               -1.32185721
               7.49506988                1.55693203               46.02545844                0.50832501                0.82324559                0.02452510               -0.91343599               -0.33574782                1.70608445                0.40622150
               8.50162227                1.22949613               45.89714368                0.54646747                0.59934877                0.38921425               -1.52722057               -0.33544344                1.96802335                0.01465037
               9.50705685                0.90243518               45.77603935                0.41522759                0.38569434                0.65929916               -2.01916277               -0.17967777                3.59830878               -1.04350600
              10.50933616                0.58117231               45.67973286                0.38302310                0.08120088                0.74983574               -1.83560147               -0.21503233                4.83063626               -0.53816160
              11.50868087                0.27332642               45.58411997                1.00000000                0.07678497                0.19834686               -0.67796341               -0.34226454                2.48922328                0.94277874
              12.51087186               -0.02600124               45.44676062                1.00000000                0.28173580                0.29883382               -1.00499647               -0.00143278                0.23091247                0.23179604
              13.51431558               -0.32404202               45.30697875                1.00000000                0.34437248                0.41781002               -1.35374622               -0.02179921                0.09246275               -0.66477420
               3.79232374                3.78368967               46.54216391                1.00000000               -0.31914605               -0.50044221                1.45009950               -0.01015550               -0.01827685                1.87158097
               4.78913228                3.48336418               46.38780463                1.00000000               -0.22847772               -0.26043325                0.83626975                0.01120598                0.09553252                0.31407089
               5.78775418                3.18199344               46.23607469                0.80249766               -0.04696822               -0.02876389                0.20871769               -0.06497616                0.35518412               -0.96177542
               6.78819291                2.87917197               46.08673975                0.00010000                1.27925215                0.17409078               -0.41560263               -1.11348330                3.33637297               -1.77370379
               7.81333923                2.55604955               45.99392242                0.00010000                1.73243319                0.09983363               -1.35744674               -2.22627448                4.84758607               -0.67488967
               8.82284158                2.23409741               45.87227490                0.00010000                0.71796276                0.60941302               -1.99822472               -2.13418450                3.40703858                0.27228761
               9.82769848                1.91107733               45.74791227                0.00010000               -0.08093720                1.05133766               -2.58890630               -2.03316385                5.98583733                0.81093617
              10.82122283                1.59215792               45.67546149                0.00010000               -1.00694839                1.19763368               -2.98178613               -1.78956221                9.06990523                0.63873400
              11.80755951                1.27517193               45.61302297                0.29265951               -0.62030267                0.06871316               -0.40328044               -1.08837461                4.86129147                1.47512036
              12.80881678                0.97666742               45.47579427                1.00000000                0.19784310                0.22194992               -0.79117578               -0.07274025                0.71462051                0.65973406
              13.81151638                0.67985414               45.33179329                1.00000000                0.26995963                0.35275192               -1.11620140               -0.03357428                0.33543623               -0.62893668
               4.09127459                4.77887410               46.48570425                1.00000000               -0.25359718               -0.45392197                1.21965101               -0.02639061                0.11335730                1.66519495
               5.08873862                4.48111556               46.32401174                1.00000000               -0.17849624               -0.17987747                0.61979910               -0.01154990                0.23826835                0.09299723
               6.08770467                4.18237520               46.16506478                0.34134909                0.00464824                0.08037171                0.02066199               -0.14691715                1.08202172               -1.44703405
               7.08883159                3.88115049               46.02005174                0.00010000                0.39571369                0.26699033               -0.61209290               -1.27598469                4.90786463               -2.21926386
               8.09561894                3.55892870               45.93712263                0.00010000                0.75396100                0.45474324               -1.25459841               -3.13856795                8.00423720               -0.98837525
               9.10391081                3.24168439               45.85195631                0.00010000                0.63570600                0.69023943               -1.76687545               -3.19712450                8.01063286                0.95432484
              10.10833306                2.92346194               45.76825608                0.00010000                0.27697532                0.94200491               -2.07362246               -3.22707046                8.50308283                2.85478985
              11.10945031                2.60512498               45.69439223                0.00010000               -0.29645936                0.82159150               -1.78471728               -3.28790465               10.23082351                2.30091630
              12.10240388                2.27470068               45.65042413                0.03625822               -0.23577336                0.47354933               -0.41056651               -1.49131301                6.37461235               -0.22867429
              13.10473485                1.97843776               45.51101964                0.36036357                0.24333932                0.00955179               -0.66051588               -0.02556688                0.84088528                1.62955686
              14.10727066                1.68301301               45.35883668                0.82209647                0.25358158               -0.01446533               -0.91744483                0.14795632                0.15650517                0.10920610
               4.38731301                5.77461123               46.42587650                1.00000000               -0.19128298               -0.39437123                0.98536612               -0.05074952                0.25002107                1.29655722
               5.38540018                5.47976663               46.25717357                0.67080658               -0.12660461               -0.07345613                0.40070619               -0.05822016                0.41469413               -0.38064386
               6.38478092                5.18360088               46.09189827                0.13590619                0.03597717                0.20994733               -0.16555385               -0.23441817                1.49736057               -1.84397292
               7.38611972                4.88451177               45.94448913                0.00010000                0.26265256                0.26128824               -0.76824841               -1.37213359                7.40959983               -1.17293300
               8.39003397                4.56514442               45.89684969                0.00010000                0.41230658                0.58828203               -1.17027035               -2.42913319               11.87910110                0.48332876
               9.39436585                4.24790220               45.83632859                0.00010000                0.48412559                0.58758597               -1.60630782               -2.53964800               11.18655664                1.59134157
              10.39971648                3.92991743               45.77363220                0.00010000                0.49300710                0.51594644               -1.80350819               -2.67702191               11.20176494                2.39987135
              11.40422599                3.60858975               45.71371349                0.00010000                0.23520019                0.32411939               -1.64814634               -2.75128287               10.85617007                2.31922723
              12.40442048                3.28464292               45.64572199                0.03063779               -0.21164412                0.78906139               -1.33212953               -1.58744120                9.25102760                0.09075965
              13.39999311                2.97685846               45.56049226                0.28512873                0.04522534               -0.16714003               -0.64661738               -0.42597708                3.93986231                2.62217893
              14.40532499                2.67956484               45.39871668                0.76640864                0.53318764               -0.54650166               -0.92870077                0.28528578                0.09936467                0.47069997
               4.67994880                6.77098668               46.36241764                1.00000000               -0.13642294               -0.31997418                0.75751227               -0.04326844                0.07564221                0.96690254
               5.67858457                6.47964644               46.18380546                0.50155989               -0.08388190                0.02629434                0.17052526               -0.07177356                0.43337002               -0.75995611
               6.67827116                6.18657415               46.01246362                0.05544710                0.06304008                0.36988028               -0.39434168               -0.47392893                3.63282156               -2.37272442
               7.67984537                5.88637625               45.89755348                0.00010000                0.26873441                0.13719393               -0.42653642               -1.50542824               10.73901153                1.56702405
               8.68364585                5.57069434               45.86657507                0.00010000                0.42497306                0.50871006               -1.13997006               -2.31080446               14.53845155                1.35225194
               9.68834484                5.25343611               45.82412616                0.00010000                0.52296090                0.50870906               -1.54675979               -2.43701405               13.96645343                2.05375107
              10.69410507                4.93378087               45.77888057                0.00010000                0.56771639                0.36783830               -1.78599591               -2.61107613               13.73862658                2.66276426
              11.69969916                4.61160737               45.73029804                0.00010000                0.41406366                0.28520899               -1.83540856               -2.54663735               13.21024267                2.74678094
              12.70238634                4.29048191               45.67557657                0.03824396                0.07971122                0.38873978               -1.65829232               -1.86866814               12.23693301                2.68855953
              13.70129339                3.97509496               45.61365533                0.28652189                0.25886401               -0.05421577               -0.94167247               -0.58124404                5.73525327                2.62866983
              14.70756362                3.67208298               45.43798907                0.77568918                0.62702362               -0.46577729               -1.42249845                0.09750662                0.04418366               -0.26974926
               4.96912812                7.76821175               46.29622514                1.00000000               -0.07508827               -0.23602578                0.53407291               -0.03494891                0.01971125                0.77733821
               5.96837723                7.48029252               46.10910034                0.42420616               -0.02777962                0.08932242               -0.03767099               -0.04119692                0.31167292               -0.82631454
               6.96857252                7.19099848               45.92784730                0.02059458                0.17568653                0.47038296               -0.60305360               -0.76993778                7.11661858               -2.67599724
               7.97189096                6.88725565               45.87644624                0.00010000                0.40927489                0.23597531               -0.68219505               -1.66486889               14.65264383                1.57183566
               8.97675802                6.57531862               45.84139256                0.00010000                0.53240427                0.44417713               -1.18340026               -2.17481395               16.09909845                1.62156113
               9.98253905                6.25807638               45.81460175                0.00010000                0.62828355                0.44442451               -1.59131651               -2.46393500               16.65395217                2.27353772
              10.98932369                5.93727419               45.78634423                0.00010000                0.70265769                0.34747172               -1.89767140               -2.62846732               16.54042045                2.99061570
              11.99659220                5.61429393               45.75401501                0.00010000                0.71179216                0.23611359               -2.09876523               -2.50748211               15.97940101                3.59068951
              13.00355954                5.29241771               45.71385297                0.04889863                0.50874797                0.09255001               -2.12446147               -1.77945383               14.65846373                3.80146487
              14.00676716                4.97577414               45.65861857                0.29698219                0.48697684                0.18625444               -1.37405396               -0.54423033                6.85302632                2.07542240
              15.01329907                4.67024929               45.46754630                0.78727595                0.65319098                0.08159956               -2.03352583                0.05892889                0.08603388               -1.08745089
               5.25508828                8.76626616               46.22911202                0.98625523               -0.01143826               -0.15454002                0.31438645               -0.03366693                0.01081434                0.71902691
               6.25497390                8.48143289               46.03414497                0.40692971                0.04104966                0.13664747               -0.24239970               -0.00036562                0.13067275               -0.81677840
               7.25590928                8.19598181               45.84153919                0.00513502                0.36269804                0.48299255               -0.80061677               -0.92025425                9.21199058               -2.69044929
               8.26222786                7.89109576               45.82778323                0.00010000                0.67097846                0.42329104               -1.01002509               -1.84670001               18.51736811               -0.09510228
               9.26932885                7.57957789               45.81518597                0.00010000                0.74413497                0.40858472               -1.33620550               -2.14643418               19.02809999                1.30150375
              10.27711056                7.26232460               45.80520446                0.00010000                0.79946635                0.40686929               -1.70607775               -2.38328204               19.51562223                2.15599640
              11.28531817                6.94073030               45.79607861                0.00010000                0.86477196                0.37352296               -2.07780903               -2.59247538               19.66621957                3.07609105
              12.29440600                6.61632964               45.78366124                0.00010000                0.99994413                0.25300709               -2.47991231               -2.60311636               19.11130387                4.22986743
              13.30531706                6.29233291               45.75994251                0.06286895                0.90856034               -0.00301687               -2.83840861               -1.73453399               16.56722164                5.19348739
              14.31257721                5.97882004               45.69727353                0.30717439                0.72374275                0.39866296               -1.77862777               -0.42949309                7.28113830                1.67891865
              15.31979191                5.67371497               45.49009374                0.79348143                0.72147033                0.51835482               -2.55989619                0.06043870                0.10451970               -1.53947379
               5.53812133                9.76512095               46.16187102                0.97200815                0.05329459               -0.07228981                0.09895345               -0.03228593                0.00727515                0.72087631
               6.53865427                9.48302547               45.95934395                0.44109622                0.11916202                0.18000249               -0.45358872                0.01857192               -0.03803643               -0.77326037
               7.54050457                9.20065833               45.75580747                0.00010000                0.63533075                0.43855384               -0.99692619               -1.03943382               10.92872752               -2.35473293
               8.55136089                8.89572147               45.77212859                0.00010000                1.10479653                0.37756460               -1.22106970               -1.94641175               22.04063613               -0.44533226
               9.56260050                8.58349031               45.78307750                0.00010000                1.11800532                0.28426869               -1.51602558               -1.95227921               22.14913297                0.79081841
              10.57372099                8.26621377               45.79305647                0.00010000                1.04343209                0.36410551               -1.86362648               -2.02371814               22.60053011                1.68792563
              11.58346914                7.94474465               45.80454410                0.00010000                0.96031357                0.46664388               -2.28501675               -2.25798749               23.17609053                2.64036166
              12.59292727                7.61935407               45.81833875                0.00010000                1.14546578                0.47300348               -2.89996028               -2.57579619               23.10829431                4.13333399
              13.60637845                7.29235738               45.82216822                0.08346180                1.19339876                0.21720814               -3.94054369               -1.76355260               18.05233195                7.41855333
              14.61679524                6.98374740               45.73205004                0.31742040                0.91697687                0.56587455               -2.11602723               -0.29311887                6.70452835                1.47730583
              15.62471799                6.68061639               45.50880413                0.79348155                0.79227519                0.79513726               -2.98062933                0.05032271                0.11418799               -1.76118631
               5.81863352               10.76482037               46.09491213                0.95306185                0.11744294                0.01148191               -0.12255169               -0.03253886               -0.01194704                0.64389089
               6.81980795               10.48503294               45.88490047                0.49250387                0.18955361                0.22318810               -0.66263787                0.00869555                0.02168301               -0.62674258
               7.82242460               10.20475289               45.67539263                0.00010000                1.03298470                0.40865889               -1.18944480               -1.23233359               12.61084603               -1.45308378
               8.84046765                9.89864705               45.71663590                0.00010000                1.86831861               -0.06617925               -1.41898544               -1.57109526               25.11419547               -0.30181176
               9.85979097                9.58526326               45.74755636                0.00010000                1.74571053                0.07498817               -1.70397035               -1.30470648               24.99684102                0.37980217
              10.87538186                9.26960671               45.77546686                0.00010000                1.36135734                0.30334867               -2.04559658               -1.18978961               25.50926379                0.93156009
              11.88701812                8.95006318               45.80636925                0.00010000                0.99477468                0.57890610               -2.49861005               -1.37926997               26.57520525                1.55635346
              12.89527735                8.62578971               45.84616505                0.00010000                0.93172795                0.84867121               -3.21356880               -1.85150631               28.70500759                2.74210855
              13.90565267                8.29667707               45.91118217                0.12094110                1.15892349                0.93314703               -4.89294035               -1.47869822               19.75657775                6.03730506
              14.91845582                7.99013754               45.76505252                0.33449796                1.07038622                0.67839845               -2.35554128               -0.31966416                4.64705270                1.21967989
              15.92706040                7.68961772               45.52505347                0.78145115                0.86045770                0.96188641               -3.30932225                0.02815490                0.03090494               -1.54870985
               6.09704541               11.76535059               46.02619880                0.98676769                0.18502554                0.05302206               -0.34064073                0.05505267                0.34014079                0.55591806
               7.09889566               11.48748923               45.81264238                0.79616224                0.25991874                0.24562935               -0.87840361                0.08281711                0.74554400               -0.49637876
               8.10224378               11.20883151               45.60695344                0.47671591                2.02664735                0.40786246               -1.40090154               -1.67264864               14.37359389               -0.81757584
               9.13942861               10.89439789               45.66535916                0.36934011                3.16514640               -0.42491633               -1.63615226               -1.29597563               27.57183601               -0.28614526
              10.16554671               10.58499008               45.70976138                0.35966156                2.28483371               -0.02731841               -1.92339702               -0.53028331               27.29719766                0.09621358
              11.18512528               10.27228074               45.75067843                0.36899941                1.70770128                0.26740300               -2.26052395               -0.45902254               27.87204886                0.40465519
              12.19970073                9.95632277               45.79540735                0.39682588                1.20789799                0.62595964               -2.70422228               -0.52940008               29.26631456                0.76544959
              13.20928324                9.63632750               45.85385356                0.46945625                0.63779665                1.05377838               -3.46553505               -0.86453369               32.11585033                1.58660038
              14.21245667                9.31102032               45.94547837                0.58422016                0.40890356                1.43432437               -4.78990925               -1.27020689               22.35159567                3.37104667
              15.21746131                8.99731537               45.79335314                0.68616098                0.69320300                0.71778356               -2.48458318               -0.65776091                5.53840649                1.04616616
              16.22632073                8.69985411               45.54618293                0.88829449                0.88594138                1.02363969               -3.48640155                0.17990721                0.87339218               -1.20627384
               3.32645709                1.87140799               47.68285251                1.00000000               -0.52414495               -0.59734412                2.05257785               -0.12932030               -1.21923301                1.11460080
               4.32121564                1.55747353               47.52798371                1.00000000               -0.44846125               -0.36298567                1.34029133               -0.07255533               -1.67513799                0.19348115
               5.31748787                1.24277248               47.36475269                1.00000000               -0.32089347               -0.14245288                0.63661423               -0.09282769               -1.77038579               -0.20966274
               6.31479777                0.92510484               47.20853746                0.69388086               -0.47859146                0.15380875               -0.06511651               -0.64039707               -1.38540342               -0.92929087
               7.30791604                0.59310506               47.05362972                0.75420535               -0.28970999                0.23849759               -0.62663523               -0.22729811               -0.99335946                0.14988931
               8.30900357                0.25177426               46.90917406                0.77068936                0.35464709                0.41069411               -1.19838971               -0.26607686               -0.30555222               -0.02209077
               9.31500898               -0.09145809               46.77264695                0.67789754                0.94658926                0.60379397               -1.75812786               -0.13638541                0.94386318               -0.50019980
              10.32793536               -0.42973564               46.65806970                0.64103282                1.37550933                0.60759713               -1.96160524                0.03145337                2.11228189               -0.49832979
              11.34251917               -0.74774452               46.54874352                1.00000000                0.94843556                0.17677803               -0.87477437               -0.36710711                1.28053535                0.86071846
              12.34690407               -1.05568481               46.40820902                1.00000000                0.44708865                0.33167853               -1.22468370               -0.05426221               -0.44816977                0.10238750
              13.35146094               -1.36186953               46.26441484                1.00000000                0.45568693                0.46961881               -1.67404261               -0.09863118               -0.60070795               -0.56752157
               3.63909835                2.86543455               47.61588132                1.00000000               -0.42905052               -0.57788203                1.81265128               -0.00610243               -0.29949112                1.48414443
               4.63480785                2.55384367               47.46108306                1.00000000               -0.31772095               -0.33540620                1.10047568                0.04151661               -0.48502649                0.28554887
               5.63274393                2.24134795               47.30316708                1.00000000               -0.07901669               -0.11016889                0.38625048                0.00711951               -0.43472959               -0.37870707
               6.63322751                1.92664293               47.14952566                0.42670374                0.47822090                0.17786394               -0.32115791               -0.75011822                0.77746191               -1.29716196
               7.64230835                1.59549003               47.01564165                0.53573774                0.76984330                0.10209946               -1.04148051               -0.34800470                1.60089567                0.34146009
               8.64862438                1.25588120               46.88080862                0.57146243                0.60458633                0.47228460               -1.72257421               -0.36020874                1.91410705               -0.00931487
               9.65440008                0.91457985               46.75392537                0.42449505                0.38843665                0.80324074               -2.37891338               -0.27364307                3.92841191               -1.11903775
              10.65639311                0.57634033               46.65855054                0.33495395               -0.12886990                1.09452789               -2.51076515               -0.23460520                6.28724532               -1.21981567
              11.65182268                0.25402326               46.57793745                1.00000000               -0.14845802                0.15863811               -0.56887780               -0.68604225                3.44861451                0.94097506
              12.65342395               -0.05236802               46.43700989                1.00000000                0.24183348                0.28618079               -0.92751476               -0.00708429                0.23707012                0.23215557
              13.65665935               -0.35717334               46.29338442                1.00000000                0.32353977                0.43528815               -1.39324004               -0.04365128                0.08083737               -0.60052610
               3.94951680                3.85985035               47.55719357                1.00000000               -0.33842230               -0.53528474                1.56052524               -0.01041748               -0.02517264                1.84872161
               4.94613257                3.55076540               47.39628754                1.00000000               -0.23429009               -0.26865578                0.86187949                0.01547038                0.07973663                0.31722449
               5.94483100                3.24056910               47.23788892                0.80002108               -0.02396262               -0.00905486                0.14880679               -0.06959737                0.33437225               -0.92921906
               6.94565332                2.92866212               47.08195028                0.00010000                1.34433400                0.23680711               -0.55614702               -1.19321711                3.16301729               -1.73830147
               7.97171768                2.59514705               46.97931564                0.00010000                1.85281291                0.18440476               -1.55255052               -2.35809934                4.55695498               -0.48743323
               8.98270958                2.26121995               46.85077166                0.00010000                0.86796565                0.74770120               -2.28413877               -2.39563740                3.27808170                0.57793580
               9.98907699                1.92460673               46.71978763                0.00010000                0.05451350                1.29301752               -2.98361652               -2.43012362                5.87970929                1.22347288
              10.98379985                1.59215492               46.63964875                0.00010000               -1.57851577                1.68914336               -4.15088546               -2.63858686               11.27586496                0.98220522
              11.95750667                1.25542824               46.60998820                0.26696363               -1.29204347                0.04369823               -0.20534023               -1.73776453                6.57338668                1.26597574
              12.95795898                0.95003881               46.46859418                1.00000000                0.13459376                0.17930960               -0.61385147               -0.10415762                0.63007839                0.61283771
              13.96019855                0.64683623               46.32090088                1.00000000                0.22395677                0.35429201               -1.09827720               -0.05102542                0.28873754               -0.57171045
               4.25705989                4.85472885               47.49830381                1.00000000               -0.26613883               -0.47865875                1.30622722               -0.03126347                0.11021937                1.63773732
               5.25439850                4.54847055               47.33023007                0.99976640               -0.18023133               -0.17945799                0.62142881               -0.01315024                0.23296543                0.09662813
               6.25345526                4.24116685               47.16489184                0.33254129                0.01933590                0.10167615               -0.04875612               -0.14448768                1.05937665               -1.39241502
               7.25478522                3.93137907               47.01316587                0.00010000                0.45666354                0.33637745               -0.78621888               -1.35198210                4.87425745               -2.15221717
               8.26258854                3.59917813               46.92343973                0.00010000                0.82333646                0.58501554               -1.48516146               -3.32314146                8.00487192               -0.53083028
               9.27125195                3.27083522               46.83289410                0.00010000                0.61370518                0.91059071               -2.05223070               -3.53733548                8.15245547                1.56231111
              10.27486264                2.94044020               46.74576522                0.00010000                0.07739564                1.27997239               -2.44343021               -3.70104571                9.09870224                3.63793889
              11.27279986                2.61012320               46.67564745                0.00010000               -0.78395714                1.13865182               -1.98564882               -4.49711865               11.65700373                3.47928220
              12.25918350                2.25489722               46.64715912                0.02286470               -0.64335305                0.87890177               -0.29677676               -2.02751539                7.39918139               -0.93375680
              13.25993280                1.95121817               46.50541485                0.31531080                0.14302451                0.06241052               -0.45093617                0.06918248                0.85258677                1.45789834
              14.26204399                1.64991250               46.35020416                0.78734524                0.21111842               -0.15663777               -0.83207854                0.33207699                0.13024362                0.01229386
               4.56140812                5.85027717               47.43602612                1.00000000               -0.19765520               -0.40932575                1.05186120               -0.05419545                0.24637662                1.27339351
               5.55943157                5.54717624               47.26109152                0.64938657               -0.11877006               -0.06404254                0.37717785               -0.06607861                0.41753185               -0.38104632
               6.55903272                5.24260262               47.08980212                0.12707950                0.05854146                0.24289949               -0.25995353               -0.23189876                1.49142137               -1.80036919
               7.56060240                4.93538967               46.93605375                0.00010000                0.33829868                0.30080295               -0.93044473               -1.36755546                7.49795486               -0.80245318
               8.56579870                4.60684736               46.88415101                0.00010000                0.50491980                0.72084459               -1.37984945               -2.49034279               12.05268954                0.90731498
               9.57070080                4.27943176               46.81910773                0.00010000                0.49847026                0.78960401               -1.85256371               -2.65081617               11.47683477                2.11146880
              10.57576810                3.95020618               46.75459039                0.00010000                0.43498308                0.76675991               -2.03248101               -2.89530825               11.80731398                2.96773441
              11.57940046                3.61492795               46.69679926                0.00010000                0.00466456                0.50728867               -1.78195534               -3.17662381               11.76708331                2.59615166
              12.57586139                3.27300627               46.63293218                0.02173793               -0.75365536                1.45511716               -1.28603215               -1.84486748               10.36705587               -0.50233868
              13.56432735                2.95128702               46.55481996                0.25686276               -0.32049829                0.07305045               -0.49572012               -0.46409997                4.52993947                2.36591978
              14.56945143                2.64370348               46.38963696                0.74447363                0.51240754               -0.78181641               -0.94718019                0.44440910                0.13930953               -0.07877292
               4.86217784                6.84654234               47.37022110                1.00000000               -0.14263593               -0.32896001                0.80638829               -0.04190176                0.06273526                0.95322140
               5.86075148                6.54718970               47.18537865                0.48544565               -0.07869904                0.03895320                0.14434396               -0.07209061                0.42889843               -0.75457375
               6.86060386                6.24602484               47.00797811                0.04675611                0.12189465                0.41150255               -0.50272191               -0.49562030                3.93515669               -2.35037667
               7.86318937                5.93739513               46.89285881                0.00010000                0.40678631                0.19619180               -0.52305583               -1.41935703               10.98310891                1.88023925
               8.86873959                5.61359502               46.85428099                0.00010000                0.58437173                0.60257710               -1.32974958               -2.23877522               14.58560046                1.70850346
               9.87487681                5.28662730               46.80775058                0.00010000                0.63603499                0.63270126               -1.74429538               -2.43209140               14.29490774                2.46995320
              10.88146029                4.95577540               46.76032096                0.00010000                0.57952392                0.50901018               -1.94935159               -2.68561384               14.28911767                3.02068823
              11.88646729                4.62026897               46.71174466                0.00010000                0.22333971                0.50807800               -1.91117420               -2.75661035               14.00739993                2.85309730
              12.88592708                4.28399956               46.65951460                0.03143437               -0.32568454                0.81323208               -1.60438825               -2.11009675               13.37388970                2.48600398
              13.87995360                3.95267918               46.60436159                0.26835815                0.00860828                0.20546800               -0.94176635               -0.60865836                6.42836690                2.31472711
              14.88609925                3.63427617               46.42288841                0.76039847                0.61456490               -0.52407557               -1.65825664                0.11812837                0.08038317               -1.01417496
               5.15927536                7.84369797               47.30173820                1.00000000               -0.07680993               -0.24267148                0.57147128               -0.03551451                0.01579992                0.76801240
               6.15850726                7.54795531               47.10855471                0.41014199               -0.01802344                0.10255536               -0.07321704               -0.03803704                0.31031827               -0.81034767
               7.15891489                7.25083267               46.92129886                0.01245676                0.30689111                0.51030063               -0.71047111               -0.76152784                7.35887042               -2.64019239
               8.16464508                6.93931351               46.86864538                0.00010000                0.64380666                0.31763067               -0.88391552               -1.57682885               14.97960082                1.56690082
               9.17179102                6.61889890               46.82876270                0.00010000                0.76167548                0.48995506               -1.35524282               -2.08966365               16.31201560                1.88084279
              10.17987859                6.29208579               46.79793343                0.00010000                0.83115690                0.49008999               -1.75645222               -2.40023496               17.00235004                2.58861763
              11.18841416                5.96038638               46.76686200                0.00010000                0.80827496                0.42168829               -2.01453819               -2.59431791               17.04883374                3.24074053
              12.19604409                5.62508951               46.73304833                0.00010000                0.64175454                0.39574032               -2.11681221               -2.50410442               16.67636789                3.62262084
              13.20124925                5.28927092               46.69336663                0.04276871                0.29167443                0.36452653               -2.01360995               -1.87549477               15.77831360                3.48294744
              14.20187758                4.95539638               46.64452892                0.28451078                0.36853788                0.34835845               -1.45009874               -0.58295330                7.59965709                1.77940588
              15.20862001                4.63322197               46.44580474                0.77566692                0.67424303                0.18256349               -2.33214581                0.07773470                0.11517845               -1.66464827
               5.45295288                8.84168891               47.23237637                0.97944306               -0.00968407               -0.16071702                0.34044770               -0.03498052                0.01401556                0.71320188
               6.45285604                8.54924081               47.03150848                0.39401281                0.05311105                0.15296499               -0.28663443                0.00451536                0.13408939               -0.80265318
               7.45401510                8.25623085               46.83300725                0.00010000                0.53652644                0.52509382               -0.91084375               -0.91234850                9.39653960               -2.65270779
               8.46358657                7.94374775               46.81690613                0.00010000                1.00794644                0.44556686               -1.17226783               -1.81472714               18.87256192               -0.04980074
               9.47417403                7.62339412               46.80105681                0.00010000                1.08990308                0.39319645               -1.50252195               -2.10247594               19.37323135                1.48217014
              10.48538463                7.29642910               46.78748229                0.00010000                1.11980871                0.37651671               -1.85026459               -2.31054271               19.90783011                2.39590544
              11.49657021                6.96420917               46.77486986                0.00010000                1.10580157                0.36517590               -2.16869345               -2.48853140               20.12084837                3.26286935
              12.50750066                6.62818378               46.75902284                0.00010000                1.07700566                0.30078353               -2.44755154               -2.45633224               19.65023827                4.17306824
              13.51811032                6.29129009               46.73288347                0.05614727                0.84214079                0.14861181               -2.60023427               -1.76093087               17.74000157                4.58313517
              14.52434348                5.95964635               46.67887800                0.29794147                0.69462212                0.49932258               -1.89159995               -0.51295464                8.18098258                1.45292296
              15.53200276                5.63792744               46.46295247                0.78394557                0.76592824                0.63255885               -2.85392022                0.07245905                0.11718989               -1.93299214
               5.74347194                9.84048363               47.16292821                0.96687425                0.05836794               -0.07717035                0.11420562               -0.03327829                0.00641802                0.71362307
               6.74405562                9.55101461               46.95455104                0.42863077                0.13445210                0.19896961               -0.50635874                0.02399145               -0.03217313               -0.76094344
               7.74616098                9.26133455               46.74530140                0.00010000                0.85658236                0.47903544               -1.11008834               -1.07137527               11.11054891               -2.31528350
               8.76118727                8.94822485               46.75924241                0.00010000                1.54495812                0.32759110               -1.36663861               -1.97743893               22.41748859               -0.35641854
               9.77706014                8.62676283               46.76722491                0.00010000                1.58327118                0.18641171               -1.66808525               -1.94378583               22.55030378                0.93400860
              10.79285269                8.29961612               46.77381249                0.00010000                1.49143567                0.25726330               -1.99522544               -1.96405426               23.03373587                1.86593017
              11.80688886                7.96768990               46.78126429                0.00010000                1.34919124                0.37002342               -2.36627108               -2.14786558               23.57289007                2.77802213
              12.81983652                7.63110518               46.78920032                0.00010000                1.38396016                0.42321781               -2.87917385               -2.38463239               23.34762145                4.07679001
              13.83456806                7.29224315               46.78458236                0.07421597                1.25723110                0.26145664               -3.53120741               -1.73459273               19.36204080                6.51054540
              14.84498114                6.96538283               46.71008097                0.31000907                0.94694692                0.63812432               -2.25942492               -0.39384621                7.98077427                1.33409104
              15.85350700                6.64587314               46.47741473                0.78511071                0.85258623                0.89216454               -3.26394467                0.05627917                0.11919868               -2.03796468
               6.03122537               10.84014550               47.09369936                0.94641501                0.12595869                0.00918075               -0.11839824               -0.03409039               -0.01018936                0.63444591
               7.03248495               10.55322020               46.87797323                0.47991590                0.20759964                0.24407558               -0.72450058                0.01118343                0.03234442               -0.61637975
               8.03537736               10.26581156               46.66292756                0.00010000                1.30622789                0.44663310               -1.30942967               -1.34027160               12.79046675               -1.42144792
               9.05860951                9.95029957               46.70178922                0.00010000                2.42648384               -0.21371926               -1.56253404               -1.65308270               25.50118678               -0.24340124
              10.08390704                9.62712236               46.72985331                0.00010000                2.32834839               -0.08960145               -1.85120810               -1.31613185               25.43291480                0.46752317
              11.10517648                9.30157437               46.75442876                0.00010000                1.91083997                0.13601095               -2.17155948               -1.15436478               25.97830255                1.03758585
              12.12212384                8.97160964               46.78092574                0.00010000                1.50391408                0.41482544               -2.57816534               -1.30184221               26.97532198                1.64024819
              13.13525476                8.63664813               46.81359153                0.00010000                1.35084910                0.70366852               -3.23078096               -1.69713306               28.55391459                2.68551742
              14.14914082                8.29651923               46.86074453                0.10674208                1.37909005                0.90841515               -4.82383059               -1.37160603               21.26567867                5.57818643
              15.16283656                7.97240883               46.74051198                0.32934829                1.15034488                0.73986094               -2.53165240               -0.39910141                6.45744881                1.17419446
              16.17214772                7.65577073               46.49030277                0.77407694                0.93111535                1.05203689               -3.59415707                0.03217358                0.01426520               -1.71728858
               6.31664073               11.84066725               47.02274932                0.98326702                0.19724996                0.05217463               -0.34806057                0.06442338                0.33177775                0.54715509
               7.31861323               11.55589612               46.80350607                0.78971239                0.28177283                0.26759156               -0.95159524                0.09282570                0.74616181               -0.48844965
               8.32227619               11.27026721               46.59230320                0.47368684                2.41007949                0.44556497               -1.53373238               -1.90740030               14.54041112               -0.79475924
               9.36681482               10.94395046               46.64828668                0.36929157                3.85932605               -0.63491083               -1.79144950               -1.44428983               27.95247884               -0.27078605
              10.39946271               10.62497080               46.68980715                0.35973787                2.92316492               -0.21515563               -2.08214251               -0.52513880               27.74225105                0.12792977
              11.42527812               10.30233634               46.72743623                0.36878346                2.31577724                0.07619734               -2.39729092               -0.43905595               28.37939821                0.44133742
              12.44577825                9.97598641               46.76786240                0.39581590                1.78530727                0.43767706               -2.79365886               -0.49244790               29.70653393                0.77815461
              13.46098426                9.64517855               46.81856968                0.45811331                1.27984944                0.85304207               -3.50177207               -0.70579742               32.11929502                1.45989974
              14.47137524                9.31041145               46.89450415                0.57565302                0.83816715                1.38922269               -5.01761143               -1.02648297               23.90447058                3.28771436
              15.47774760                8.98018005               46.76738561                0.68454830                0.80257172                0.77712151               -2.69306593               -0.68377426                7.35272030                1.04776636
              16.48742667                8.66691388               46.50960194                0.88484290                0.96790695                1.11431503               -3.78233034                0.20127933                0.88758801               -1.32393975
               3.47273006                1.95065253               48.70416017                1.00000000               -0.56264702               -0.64277555                2.21160616               -0.14581185               -1.20144215                1.09419209
               4.46710359                1.62749106               48.54170452                1.00000000               -0.48112383               -0.37596878                1.40361743               -0.08478748               -1.64929426                0.18842212
               5.46310759                1.30349999               48.37105224                1.00000000               -0.34798178               -0.12598905                0.62097570               -0.10879761               -1.72990159               -0.21245657
               6.46014396                0.97618070               48.20746516                0.69652500               -0.58648695                0.21319030               -0.15409649               -0.63954285               -1.23246903               -0.91472923
               7.45137785                0.63453299               48.04716624                0.75625902               -0.51093156                0.35423219               -0.67650909               -0.23622776               -0.73125969                0.10989756
               8.44992533                0.28260219               47.89695543                0.77376169                0.07859952                0.51100425               -1.25343071               -0.29058703               -0.09989887               -0.02084177
               9.45294984               -0.07466948               47.75444836                0.67401088                0.63192281                0.75832306               -1.87500701               -0.32512865                1.17985033               -0.48086102
              10.46256378               -0.43376705               47.63658001                0.58555469                1.48764047                0.89640020               -2.32190171                0.08556963                3.01610132               -0.67644938
              11.48270265               -0.76996849               47.54070162                1.00000000                1.21392482                0.08697355               -0.70046396               -0.90569441                2.19393819                0.83544670
              12.48684228               -1.08486325               47.39607611                1.00000000                0.43711709                0.31199595               -1.16052621               -0.05875686               -0.40099275                0.14341041
              13.49144499               -1.39779165               47.24706794                1.00000000                0.46027105                0.52530715               -1.86922902               -0.11901190               -0.56959327               -0.52937515
               3.79443342                2.94422478               48.63471024                1.00000000               -0.46014286               -0.62054583                1.95575432               -0.00422663               -0.30046907                1.45455334
               4.78983199                2.62373137               48.47231783                1.00000000               -0.33793127               -0.34646981                1.14657690                0.04716953               -0.48642241                0.28119117
               5.78767479                2.30224010               48.30683473                1.00000000               -0.07999785               -0.09078494                0.34516194                0.01262664               -0.43436813               -0.37354076
               6.78823203                1.97831260               48.14568499                0.44720186                0.40650179                0.22925103               -0.45065256               -0.71411038                0.79136490               -1.27069343
               7.79580483                1.63807531               48.00462883                0.55936652                0.66943309                0.19849082               -1.15664262               -0.31606341                1.56846298                0.27283811
               8.80162069                1.28771223               47.86269220                0.59518444                0.60391731                0.54842269               -1.88557281               -0.35778345                1.83318534                0.00001975
               9.80788317                0.93291375               47.72846108                0.44146042                0.47241457                0.91882089               -2.68198675               -0.45247726                4.00658444               -1.02223613
              10.81106898                0.57519695               47.62951756                0.30025276               -0.43446843                1.42360828               -3.28185500               -0.40183611                8.03529059               -1.84293788
              11.79919380                0.23090124               47.57274242                0.85463079               -0.54513460                0.06191368               -0.57130304               -1.47805349                4.95589942                1.00592832
              12.80016629               -0.08174329               47.42821032                1.00000000                0.19947338                0.26912365               -0.83616830                0.01117838                0.27715606                0.29118895
              13.80318327               -0.39253858               47.27911395                1.00000000                0.30169797                0.46959250               -1.50103559               -0.01789156                0.05763755               -0.54200956
               4.11363234                3.93824161               48.57337442                1.00000000               -0.36006806               -0.57142369                1.67897276               -0.00834295               -0.02800843                1.81119356
               5.11003166                3.62056166               48.40504222                1.00000000               -0.24267246               -0.27436115                0.88818523                0.02102937                0.06579374                0.31148692
               6.10877889                3.30168429               48.23905082                0.80244888               -0.00025583                0.01868004                0.08117347               -0.07571670                0.31498698               -0.88926734
               7.11002654                2.98076572               48.07561681                0.00010000                1.34390319                0.28450356               -0.72023377               -1.18223327                3.01840119               -1.70210981
               8.13565695                2.63850281               47.96287141                0.00010000                1.89523404                0.27007066               -1.71875337               -2.35058775                4.23438789               -0.27870257
               9.14793122                2.29357064               47.82659212                0.00010000                1.03793114                0.84411542               -2.52126013               -2.58910698                3.03133353                0.98690254
              10.15641558                1.94370694               47.68823994                0.00010000                0.43041720                1.42521054               -3.29973226               -2.95974707                5.23659184                1.90967824
              11.15653957                1.59470511               47.59244378                0.00010000               -2.31668771                2.11815843               -4.85028406               -4.11548236               13.43313745                2.00117116
              12.11008182                1.23126978               47.60891616                0.23967523               -2.30169460                0.10901606               -0.11552099               -2.63797966                9.07826447                1.09046211
              13.11050567                0.92051922               47.46351724                1.00000000                0.12979575                0.15566186               -0.42912751               -0.05471695                0.60320862                0.59336710
              14.11267774                0.61160020               47.30982775                1.00000000                0.21720628                0.35306924               -1.13030081               -0.03622023                0.18868386               -0.51437162
               4.42962646                4.93279630               48.51182879                1.00000000               -0.28165631               -0.50398996                1.39934610               -0.03134538                0.10326226                1.60165126
               5.42680990                4.61824415               48.33644032                0.96168383               -0.18350295               -0.17822685                0.62756735               -0.01197242                0.23942595                0.08566726
               6.42595640                4.30261370               48.16408965                0.32236665                0.04794787                0.14114683               -0.11332724               -0.16866278                1.03293895               -1.34881383
               7.42776885                3.98400267               48.00432736                0.00010000                0.50158754                0.40020267               -0.98113739               -1.37167953                4.85077608               -2.06895193
               8.43598815                3.64347673               47.90741940                0.00010000                0.84327855                0.69733257               -1.71104419               -3.35156537                8.01617795               -0.01314589
               9.44463442                3.30459454               47.81091169                0.00010000                0.57828052                1.08522285               -2.34066726               -3.82634067                8.24831249                2.31264103
              10.44755376                2.96141796               47.71938748                0.00010000               -0.17189667                1.55047207               -2.82174869               -4.26393854                9.75875054                4.69991380
              11.44119649                2.61756012               47.65467925                0.00010000               -1.34668286                1.48552287               -2.30097036               -6.18250461               13.44064174                5.30516762
              12.42062010                2.23308156               47.64448859                0.01044570               -1.12274756                1.54854383               -0.38733402               -2.62655461                8.87149664               -1.60148619
              13.41874154                1.92136994               47.50200092                0.27238425               -0.01615945                0.23554449               -0.22104368                0.24113423                1.06275898                1.21945933
              14.42029691                1.61452280               47.34219511                0.75402888                0.15553756               -0.31475336               -0.77632900                0.60525762                0.14083578               -0.18477002
               4.74210974                5.92816182               48.44691373                1.00000000               -0.21349281               -0.42286395                1.12609816               -0.05337171                0.22891382                1.24149260
               5.73997481                5.61699713               48.26471713                0.62836353               -0.12313139               -0.05761902                0.35550161               -0.05294744                0.42467022               -0.38147385
               6.73964711                5.30450723               48.08669920                0.11774557                0.08775604                0.27280888               -0.37022444               -0.23448057                1.50654506               -1.77680077
               7.74172993                4.98876977               47.92588023                0.00010000                0.41933363                0.36933661               -1.11287043               -1.33109757                7.61827156               -0.37207581
               8.74803378                4.65244946               47.86925270                0.00010000                0.58666231                0.83880015               -1.60197096               -2.45083671               12.25157717                1.41058061
               9.75346317                4.31527510               47.79927732                0.00010000                0.50687229                0.97074694               -2.11826431               -2.70822429               11.81379757                2.76923829
              10.75817123                3.97471638               47.73298258                0.00010000                0.38813466                1.02525308               -2.31363757               -3.12599758               12.54615179                3.76434433
              11.76122587                3.62441557               47.67807438                0.00010000               -0.22151615                0.74300688               -2.02576535               -3.65093461               12.93345195                3.07952454
              12.75374090                3.26224066               47.62000135                0.01396749               -1.36693732                2.33429868               -1.41905765               -2.12791778               11.85703327               -0.95429077
              13.73388712                2.92523011               47.55057786                0.23261985               -0.76318660                0.51552947               -0.38891378               -0.45950731                5.38250849                2.05425023
              14.73847717                2.60530513               47.37977308                0.72478225                0.45900502               -0.94455482               -1.08441046                0.59853926                0.21540094               -0.84282889
               5.05088840                6.92433902               48.37854540                1.00000000               -0.14828701               -0.33725439                0.86132345               -0.03965796                0.05394213                0.93290780
               6.04940553                6.61709177               48.18669234                0.46951169               -0.06971303                0.04793054                0.11642265               -0.06105060                0.42595853               -0.73948694
               7.04949414                6.30806988               48.00240918                0.03800717                0.18995715                0.43291291               -0.61005155               -0.48451041                4.27204404               -2.31232979
               8.05320467                5.99138941               47.88709237                0.00010000                0.54859753                0.28882845               -0.64119499               -1.27639695               11.24763937                2.20948582
               9.06046609                5.66025273               47.83998007                0.00010000                0.74991723                0.68550950               -1.53986207               -2.08517082               14.64769894                2.12465208
              10.06820302                5.32400948               47.78924025                0.00010000                0.77136235                0.74209620               -1.97012462               -2.36530655               14.70629597                2.98440661
              11.07589334                4.98192302               47.73989354                0.00010000                0.62252490                0.64118617               -2.15901228               -2.72874914               14.98525802                3.51545074
              12.08065352                4.63242026               47.69207455                0.00010000                0.06769352                0.75262995               -2.06671770               -2.98832124               15.03949154                3.12869289
              13.07724721                4.27976754               47.64348880                0.02601596               -0.70832969                1.32335707               -1.66224844               -2.34177083               14.77016587                2.43932458
              14.06648692                3.93168053               47.59482000                0.25355785               -0.25647735                0.58078713               -0.99203001               -0.58503769                7.27663908                1.96121399
              15.07211766                3.59563171               47.40482394                0.74642148                0.56307387               -0.42064351               -1.97552128                0.12380939                0.13063030               -1.78077492
               5.35581108                7.92141673               48.30765457                1.00000000               -0.07881475               -0.24994182                0.61321987               -0.03530061                0.01182643                0.75767108
               6.35502294                7.61795574               48.10763600                0.39651466               -0.00759116                0.11458647               -0.11145012               -0.03159843                0.31090809               -0.78953900
               7.35565926                7.31316549               47.91363787                0.00426760                0.44981024                0.54276146               -0.82476598               -0.72305601                7.59165891               -2.58387928
               8.36401914                6.99454634               47.85876793                0.00010000                0.90255156                0.40566549               -1.09479769               -1.42904873               15.33567836                1.55365283
               9.37371029                6.66615965               47.81428771                0.00010000                1.02338044                0.52531767               -1.55190446               -1.93390470               16.60535326                2.17864560
              10.38448675                6.33011702               47.77947271                0.00010000                1.07375869                0.51770819               -1.94986562               -2.26842263               17.44735608                2.96416469
              11.39518547                5.98754010               47.74605346                0.00010000                0.95640872                0.48311873               -2.16628367               -2.51738042               17.71411089                3.57357135
              12.40361492                5.63946817               47.71167876                0.00010000                0.62298713                0.56093804               -2.18694126               -2.50443286               17.60149219                3.77077633
              13.40764521                5.28870780               47.67358077                0.03870161                0.13536375                0.65061778               -1.98844219               -1.98037990               17.06422880                3.32576096
              14.40632220                4.93684585               47.62961659                0.27494959                0.27029020                0.53229650               -1.52994265               -0.60873056                8.39530098                1.49603113
              15.41305101                4.59689226               47.42090339                0.76480936                0.67288129                0.39067163               -2.62739262                0.09809598                0.14077404               -2.11740008
               5.65710437                8.91934019               48.23592097                0.97241084               -0.00795682               -0.16731544                0.37006126               -0.03602145                0.01741122                0.70763734
               6.65702480                8.61938350               48.02841229                0.38144861                0.06690226                0.16930541               -0.33404613                0.00998020                0.14008306               -0.78281585
               7.65844241                8.31892511               47.82332231                0.00010000                0.73023698                0.56334315               -1.02772078               -0.87579349                9.59315848               -2.59714637
               8.67162954                7.99950272               47.80433787                0.00010000                1.38874514                0.45818347               -1.34976254               -1.71990064               19.26380674                0.03946119
               9.68621732                7.67075908               47.78513553                0.00010000                1.49122864                0.36071693               -1.69475441               -1.99064365               19.78764842                1.69129959
              10.70145411                7.33436364               47.76819917                0.00010000                1.49886333                0.32344342               -2.02013324               -2.16520548               20.40319893                2.67294846
              11.71619458                6.99158540               47.75270474                0.00010000                1.39715233                0.33545572               -2.27534282               -2.31854898               20.73712321                3.49205732
              12.72939716                6.64363902               47.73471021                0.00010000                1.20336718                0.34265063               -2.42973496               -2.29293980               20.43559392                4.17826255
              13.74026193                6.29277989               47.70793782                0.05229120                0.83653467                0.29997124               -2.42635482               -1.81095689               18.98498765                4.18316082
              14.74612785                5.94232646               47.65944153                0.29156432                0.68624206                0.59746961               -1.97495608               -0.60393021                9.01191018                1.24617826
              15.75398677                5.60344514               47.43301533                0.77485942                0.78589155                0.78072700               -3.08706014                0.08103885                0.11949703               -2.19412637
               5.95500403                9.91807042               48.16415513                0.96136188                0.06335849               -0.08260045                0.13294679               -0.03397653                0.00582241                0.70718094
               6.95563762                9.62134185               47.94921678                0.41603888                0.15100703                0.21834059               -0.56214297                0.02818826               -0.02283939               -0.74351170
               7.95802417                9.32443235               47.73360570                0.00010000                1.10747701                0.51985138               -1.23186569               -1.08281523               11.31336878               -2.26337467
               8.97778716                9.00371001               47.74479582                0.00010000                2.05061606                0.26160206               -1.53434462               -1.95611343               22.83659218               -0.24301481
               9.99903649                8.67337399               47.74971580                0.00010000                2.12845847                0.06361981               -1.84850801               -1.87658592               23.01775844                1.10316522
              11.02035633                8.33658589               47.75315196                0.00010000                2.02513093                0.11855222               -2.14951704               -1.83517040               23.56435022                2.06949001
              12.03953911                7.99424921               47.75721868                0.00010000                1.81026516                0.23423188               -2.44343562               -1.95487549               24.12090246                2.93970318
              13.05656163                7.64632118               47.76075528                0.00010000                1.65997557                0.32458414               -2.78370957               -2.12011462               23.89451775                4.02663921
              14.07273862                7.29470722               47.75154407                0.06880993                1.35083608                0.27695569               -3.08798116               -1.68710320               20.66037172                5.70312347
              15.08357835                6.94879524               47.68686154                0.30579183                0.98479073                0.69951578               -2.35075022               -0.51408602                9.02846286                1.19772048
              16.09243444                6.61250680               47.44352524                0.77729644                0.88560871                0.98197989               -3.45168881                0.06002365                0.11088735               -2.21390451
               6.24988199               10.91768818               48.09254417                0.93958450                0.13446481                0.00616717               -0.11077084               -0.03561561               -0.00780150                0.62544635
               7.25122663               10.62375031               47.87041046                0.46618353                0.22679788                0.26563557               -0.78974664                0.01306823                0.04701737               -0.60324380
               8.25441794               10.32932214               47.64920404                0.00010000                1.61695022                0.48763562               -1.43824158               -1.43841644               12.99375349               -1.38406799
               9.28356564               10.00473476               47.68538522                0.00010000                3.06958888               -0.38613829               -1.73118839               -1.70517941               25.93366912               -0.17214088
              10.31580972                9.67203148               47.71053220                0.00010000                3.01549198               -0.28665002               -2.02863698               -1.28971927               25.93562391                0.57078297
              11.34387548                9.33673469               47.73203567                0.00010000                2.57760320               -0.07466683               -2.31873033               -1.07298859               26.54343688                1.15999241
              12.36736178                8.99627003               47.75480594                0.00010000                2.13306902                0.18816675               -2.63870959               -1.17225692               27.50862857                1.74060476
              13.38653686                8.65013070               47.78154943                0.00010000                1.83420083                0.46240078               -3.11226781               -1.47426305               28.67021243                2.63504569
              14.40404580                8.29831901               47.81470556                0.09801917                1.57548508                0.72740675               -4.16280212               -1.24111974               22.69526782                4.94489615
              15.41804656                7.95631678               47.71441948                0.32798277                1.18591665                0.78640961               -2.64676636               -0.46973459                8.01016229                1.11814430
              16.42776413                7.62308474               47.45317033                0.76765310                0.97175744                1.11350871               -3.75758684                0.03706563               -0.01720319               -1.82225345
               6.54216746               11.91819376               48.01923759                0.97909091                0.20975660                0.05055849               -0.35243955                0.07462649                0.32273567                0.53852210
               7.54426502               11.62665456               47.79361048                0.78254683                0.30519703                0.29042473               -1.02870123                0.10340391                0.74976859               -0.47977331
               8.54827140               11.33418506               47.57627879                0.47066608                2.83546038                0.48629267               -1.67566332               -2.14802018               14.72911688               -0.76893331
               9.60097423               10.99598725               47.62953017                0.36924038                4.64853920               -0.87475107               -1.97214216               -1.58634478               28.37665292               -0.24693809
              10.64124218               10.66764099               47.66811853                0.35981515                3.68418854               -0.43904916               -2.26976692               -0.50148864               28.25387304                0.17036051
              11.67465800               10.33509255               47.70273261                0.36852394                3.07278909               -0.16421312               -2.55257502               -0.40316958               28.98256368                0.49016276
              12.70269796                9.99801255               47.73953417                0.39481610                2.51846970                0.17425168               -2.86093324               -0.44255015               30.28518557                0.80594888
              13.72502739                9.65556920               47.78381812                0.44857627                1.95160938                0.54384984               -3.37151035               -0.58880591               32.27867232                1.36012043
              14.74173015                9.30925536               47.84512614                0.57039032                1.21952690                1.09363516               -4.51293148               -0.78385317               25.38874626                2.94047691
              15.74941793                8.96452344               47.73949182                0.68513963                0.89548431                0.82066580               -2.84830785               -0.58678215                9.00881314                1.02382032
              16.75963984                8.63477697               47.47053632                0.88204349                1.02219039                1.16922362               -3.95637902                0.21292376                0.87707542               -1.40579552
               3.62733955                2.03219169               49.72708463                1.00000000               -0.60018591               -0.68803211                2.37181067               -0.16420698               -1.16570199                1.06205810
               4.62133769                1.70001536               49.55605606                1.00000000               -0.51051742               -0.38855701                1.46425171               -0.09994388               -1.59406147                0.18080058
               5.61712920                1.36695837               49.37717220                1.00000000               -0.36516466               -0.10798160                0.59853467               -0.12621657               -1.64498155               -0.21509349
               6.61403439                1.03037061               49.20545553                0.69578376               -0.66643118                0.27068020               -0.25630023               -0.60639579               -0.97104769               -0.90059446
               7.60380057                0.68037783               49.04009954                0.75120307               -0.71554584                0.48637965               -0.76330464               -0.23735391               -0.28854112                0.05951868
               8.59972348                0.31988389               48.88410544                0.76737113               -0.24095849                0.63610161               -1.35630328               -0.30069323                0.30542170               -0.03119731
               9.59898141               -0.04910075               48.73514681                0.66223176                0.11403217                0.94442986               -2.02208155               -0.57868060                1.57621633               -0.41559068
              10.60200412               -0.42913972               48.61163167                0.53609642                1.39602130                1.27575283               -2.66728410               -0.21947483                4.34837945               -0.65210669
              11.62690183               -0.79511718               48.53473424                0.74116646                1.52568913                0.10444629               -0.96364689               -1.86265786                2.88710349                0.95301921
              12.63251790               -1.11708502               48.38499849                1.00000000                0.55917976                0.30996552               -1.28766681               -0.06382946               -0.38729300                0.13290283
              13.63808543               -1.43654905               48.22703026                1.00000000                0.55675225                0.57757109               -2.11714671               -0.15445996               -0.67015804               -0.43358147
               3.95787380                3.02531137               49.65499641                1.00000000               -0.49188929               -0.66180099                2.10059251               -0.00408383               -0.29387236                1.41128175
               4.95295491                2.69612979               49.48401460                1.00000000               -0.35921962               -0.35713589                1.19096353                0.05007708               -0.47294746                0.27269005
               5.95068941                2.36587855               49.31007032                1.00000000               -0.08471008               -0.07147703                0.29923448                0.01872830               -0.41187611               -0.36928949
               6.95126071                2.03307741               49.14051261                0.46329274                0.29904935                0.28034711               -0.58850751               -0.62352855                0.88599440               -1.24565032
               7.95667040                1.68524162               48.99250879                0.57412482                0.50975637                0.32023034               -1.27464575               -0.26014790                1.66503017                0.19767596
               8.96145584                1.32624490               48.84309716                0.60718575                0.55180038                0.64273091               -2.04127940               -0.33269165                1.80722596                0.02334000
               9.96770640                0.96034354               48.70028563                0.44675454                0.56808756                1.04873252               -2.95607251               -0.68256678                3.87029681               -0.77860318
              10.97281759                0.58361780               48.59291344                0.26955197               -0.77292509                1.80781857               -3.99470315               -1.23170018                9.74039972               -1.72623490
              11.95224790                0.20592728               48.56651139                0.56390285               -1.01110207                0.03042427               -1.19321921               -2.82532491                7.23401254                1.57165022
              12.95259554               -0.11398537               48.42028652                1.00000000                0.18784761                0.26002907               -0.80190400               -0.00534773                0.52315936                0.34743571
              13.95600485               -0.43077334               48.26336371                1.00000000                0.34093099                0.50083472               -1.64745875               -0.01550813                0.02980383               -0.45274792
               4.28562102                4.01895567               49.59077303                1.00000000               -0.38489736               -0.60443995                1.80060062               -0.00688857               -0.02868231                1.75613061
               5.28177205                3.69287265               49.41405125                1.00000000               -0.25324361               -0.28103997                0.91344242                0.02722041                0.05576224                0.30294679
               6.28055615                3.36552883               49.23951239                0.81021190                0.02143542                0.03318236                0.01230955               -0.06787499                0.29619602               -0.83789668
               7.28220075                3.03597755               49.06754561                0.00010000                1.24369891                0.33296024               -0.89376492               -1.07680512                2.92730175               -1.65194389
               8.30543012                2.68678243               48.94494058                0.00010000                1.78834842                0.36461529               -1.85042498               -2.17908412                3.96177925               -0.07893786
               9.31796772                2.33273851               48.80034646                0.00010000                1.12635218                0.90789717               -2.71191317               -2.60571266                2.73442738                1.44655919
              10.32795717                1.97187390               48.65379299                0.00010000                0.69093290                1.46761500               -3.58689509               -3.35790843                4.50171421                2.84265126
              11.33178638                1.60701665               48.54264307                0.00010000               -2.99793310                2.34890710               -5.02956242               -6.13442984               15.25115237                3.95150937
              12.26799851                1.20549130               48.60767778                0.20905315               -3.13374036                0.29275142               -0.13445659               -4.09286149               12.06183627                1.33765407
              13.26911157                0.88811556               48.46001163                1.00000000                0.16763512                0.12660514               -0.30515354               -0.05688685                0.81550065                0.59398922
              14.27135121                0.57346764               48.29829486                1.00000000                0.22396358                0.35225554               -1.15667861               -0.04141814                0.10700189               -0.42918254
               4.60990208                5.01322257               49.52629073                1.00000000               -0.29759183               -0.52826278                1.49522945               -0.03342856                0.10748398                1.55329442
               5.60692616                4.69050899               49.34278142                0.93145764               -0.18375366               -0.17889480                0.63617022               -0.01564542                0.25858215                0.06839579
               6.60622700                4.36654220               49.16262530                0.31125104                0.07724207                0.16091253               -0.19127862               -0.16640017                0.99617033               -1.31085228
               7.60847100                4.03973662               48.99354312                0.00010000                0.50503781                0.46027987               -1.16613758               -1.28973471                4.82903026               -1.94214218
               8.61632776                3.69253393               48.88921884                0.00010000                0.78895585                0.78579301               -1.91644790               -3.16653709                8.04937216                0.51936176
               9.62425012                3.34440285               48.78608076                0.00010000                0.49711664                1.18747352               -2.60738921               -3.87794678                8.31501953                3.14220036
              10.62627009                2.98969584               48.68933025                0.00010000               -0.38692683                1.65565511               -3.16615891               -4.69349964               10.37771905                6.03938187
              11.61651158                2.63059595               48.62962804                0.00010000               -1.84891651                1.60532466               -2.72612936               -7.93245941               15.49403292                7.54249700
              12.58929176                2.21178231               48.63941244                0.00010000               -1.65150553                2.47144721               -1.02071953               -3.47745683               11.03627778               -1.76408890
              13.58348147                1.88854673               48.50099397                0.23592623               -0.24097206                0.57186894               -0.00323810                0.37918419                1.60717370                0.86374818
              14.58447232                1.57627177               48.33467758                0.72573191                0.09908515               -0.46247852               -0.69662921                0.97339372                0.16276163               -0.52712651
               4.93037960                6.00839041               49.45854808                1.00000000               -0.22400905               -0.43814581                1.20095869               -0.05652948                0.21344804                1.20379408
               5.92813951                5.68929475               49.26820155                0.60381719               -0.11895378               -0.05139500                0.34128452               -0.05813110                0.42985217               -0.38964789
               6.92800052                5.36874708               49.08239764                0.10741901                0.11374122                0.31486831               -0.48146068               -0.23469471                1.53581380               -1.76877811
               7.93041433                5.04518315               48.91379635                0.00010000                0.47163154                0.44802662               -1.30250545               -1.20742576                7.77536038                0.13144651
               8.93743315                4.70249829               48.85211160                0.00010000                0.64162692                0.92595633               -1.82101477               -2.27386250               12.48595857                1.95254021
               9.94324687                4.35648798               48.77674245                0.00010000                0.52304616                1.08585994               -2.38145455               -2.63360751               12.17824286                3.52836695
              10.94789408                4.00498700               48.70831764                0.00010000                0.39019282                1.16588432               -2.61811290               -3.26518926               13.35925564                4.76395811
              11.95105073                3.63912314               48.65628396                0.00010000               -0.36977467                0.93212492               -2.37831760               -4.14582372               14.24640272                3.89936561
              12.94049858                3.25492025               48.60455103                0.00701055               -1.94224641                3.37121620               -1.75982768               -2.51385101               13.75705269               -0.98289283
              13.91220580                2.89955294               48.54704168                0.21247365               -1.25647850                1.21589941               -0.41175183               -0.50162001                6.60614318                1.68346645
              14.91536901                2.56421807               48.36794875                0.70675316                0.31632145               -0.93707044               -1.30489536                0.67809683                0.30291697               -1.77803125
               5.24696282                7.00445965               49.38744757                1.00000000               -0.15559422               -0.34572934                0.92033954               -0.03938456                0.04524766                0.90812197
               6.24540687                6.68948109               49.18770710                0.45218273               -0.06590519                0.05749140                0.08642025               -0.05087412                0.42870911               -0.72228202
               7.24564471                6.37283957               48.99577708                0.02874864                0.25821989                0.47474382               -0.72598503               -0.45841670                4.64576413               -2.26139966
               8.25057127                6.04869715               48.88003491                0.00010000                0.69504863                0.39789554               -0.78213894               -1.07460132               11.54129479                2.56025913
               9.25954568                5.71105305               48.82348374                0.00010000                0.92589953                0.74090323               -1.76465346               -1.84084734               14.73423447                2.57235537
              10.26908926                5.36612005               48.76834809                0.00010000                0.93927296                0.79610938               -2.21228056               -2.21132188               15.18910598                3.56422823
              11.27833114                5.01301353               48.71714071                0.00010000                0.72862973                0.70298046               -2.40399834               -2.71426767               15.78880327                4.13837695
              12.28366186                4.64923845               48.67041031                0.00010000                0.01269024                0.93731191               -2.29346378               -3.21554993               16.25320708                3.61699144
              13.27858495                4.27920663               48.62626963                0.02180584               -0.97553044                1.82084326               -1.82937448               -2.61381542               16.43060958                2.64636845
              14.26415125                3.91286472               48.58452099                0.24147909               -0.49404805                1.05712691               -1.10581821               -0.57105451                8.31032497                1.62632267
              15.26870399                3.55753036               48.38337798                0.73300073                0.45527395               -0.07677510               -2.30744477                0.14120826                0.21643328               -2.41038502
               5.55954902                8.00147583               49.31400260                1.00000000               -0.08069113               -0.25592831                0.65567192               -0.03534192                0.00906022                0.74514893
               6.55874211                7.69044458               49.10632571                0.38247003                0.00335553                0.12613096               -0.15048216               -0.01921937                0.31483407               -0.76305837
               7.55961613                7.37824195               48.90480354                0.00010000                0.59833521                0.57402648               -0.94500828               -0.64977714                7.81962743               -2.51503353
               8.57070882                7.05314106               48.84674943                0.00010000                1.17885877                0.49059680               -1.31276996               -1.22236885               15.71955855                1.52724039
               9.58319331                6.71731636               48.79772461                0.00010000                1.31755696                0.53694848               -1.77058389               -1.71054387               16.97262702                2.49408595
              10.59705995                6.37241016               48.75893611                0.00010000                1.36485069                0.50443874               -2.16918754               -2.07398055               17.97960513                3.37412189
              11.61049032                6.01904661               48.72353633                0.00010000                1.17433343                0.49357848               -2.35387994               -2.40351502               18.51161884                3.97662276
              12.62054662                5.65786938               48.68930950                0.00010000                0.70528370                0.67170348               -2.31482119               -2.51959466               18.71153215                4.04720492
              13.62459600                5.29133711               48.65359779                0.03638033                0.09571790                0.88916883               -2.04990182               -2.13400487               18.51711083                3.34704584
              14.62246098                4.92069547               48.61393007                0.26767082                0.21329520                0.72301233               -1.60494057               -0.66508082                9.26120936                1.28139070
              15.62886190                4.56268257               48.39325689                0.75412964                0.64009190                0.69463505               -2.85598846                0.12576511                0.17089225               -2.33851779
               5.86831847                8.99934109               49.23977759                0.96541196               -0.00621164               -0.17358863                0.40223529               -0.03793333                0.02072136                0.70178761
               6.86825636                8.69200371               49.02482756                0.36820600                0.08171062                0.18508106               -0.38363655                0.01925798                0.15115196               -0.75700138
               7.86995269                8.38432009               48.81245284                0.00010000                0.93965665                0.59716877               -1.15175243               -0.81307210                9.80172398               -2.52758392
               8.88704949                8.05850908               48.78991088                0.00010000                1.80565080                0.45880702               -1.54332798               -1.57139337               19.68170698                0.15554543
               9.90606570                7.72179202               48.76716172                0.00010000                1.94149545                0.30565514               -1.91251561               -1.82172024               20.26196703                1.90858655
              10.92587940                7.37620882               48.74707962                0.00010000                1.93679620                0.23796296               -2.21843740               -1.96650309               20.99336464                2.96349983
              11.94480163                7.02288510               48.72936300                0.00010000                1.75500283                0.26680733               -2.40938319               -2.11615174               21.49900526                3.75362751
              12.96097946                6.66267251               48.71042814                0.00010000                1.41385642                0.34646855               -2.45036101               -2.15201194               21.42046070                4.27787819
              13.97307876                6.29699001               48.68435637                0.05101386                0.92623594                0.41003853               -2.32689414               -1.91371535               20.29988986                4.01821380
              14.97950418                5.92732497               48.63937888                0.28758952                0.70831713                0.68319086               -2.01337308               -0.72293518                9.80034629                1.09561294
              15.98724510                5.57142306               48.40121127                0.76587886                0.77409224                0.93787445               -3.20997956                0.08658137                0.11820216               -2.26443449
               6.17346510                9.99800405               49.16558715                0.95551153                0.06831604               -0.08845546                0.15535645               -0.03487171                0.00525600                0.70198177
               7.17414826                9.69414620               48.94330818                0.40306522                0.16921091                0.23789578               -0.62105745                0.03451723               -0.00811361               -0.72137910
               8.17684932                9.39018533               48.72066409                0.00010000                1.38303785                0.55685116               -1.36027030               -1.07520087               11.53345009               -2.20109518
               9.20180902                9.06231720               48.72855552                0.00010000                2.61049241                0.18066580               -1.72471407               -1.89253144               23.28433162               -0.11828683
              10.22905917                8.72342946               48.73025475                0.00010000                2.74138985               -0.08283715               -2.05867214               -1.76222082               23.53927282                1.27941041
              11.25663682                8.37716942               48.73082215                0.00010000                2.63222124               -0.05076272               -2.33141751               -1.65773159               24.18453318                2.27676828
              12.28170359                8.02438275               48.73239558                0.00010000                2.33823288                0.06105653               -2.53057927               -1.71948255               24.82954117                3.11445819
              13.30340147                7.66479875               48.73352613                0.00010000                1.99828212                0.18068452               -2.66547776               -1.85324660               24.71400017                4.03511237
              14.32166924                7.29953788               48.72282273                0.06726472                1.50838766                0.24225349               -2.68367852               -1.66710436               21.92181666                5.24540400
              15.33356923                6.93435929               48.66306596                0.30449455                1.03640532                0.74082333               -2.36907404               -0.65134802                9.85977733                1.09130479
              16.34239734                6.58144006               48.40838095                0.76979742                0.88281146                1.04457611               -3.50312393                0.06091943                0.09511675               -2.25023930
               6.47533675               10.99757198               49.09148394                0.93252578                0.14286768                0.00233988               -0.09945301               -0.03680690               -0.00506160                0.61717643
               7.47676543               10.69676163               48.86217830                0.45118924                0.24704591                0.28772101               -0.85796616                0.01521380                0.06772002               -0.58714765
               8.48027767               10.39545712               48.63416273                0.00010000                1.95946524                0.52768597               -1.57423418               -1.52748579               13.21631782               -1.34172413
               9.51595473               10.06212240               48.66716545                0.00010000                3.78456979               -0.57976971               -1.92451392               -1.73113616               26.39603161               -0.09461120
              10.55596906                9.72013528               48.68928057                0.00010000                3.79083710               -0.51120542               -2.23712175               -1.23251417               26.48927188                0.67780315
              11.59177147                9.37519357               48.70805416                0.00010000                3.34067921               -0.32118557               -2.49100540               -0.95760595               27.19341769                1.28340837
              12.62278265                9.02410623               48.72815155                0.00010000                2.84939603               -0.08669151               -2.69333383               -1.01072474               28.19847469                1.84500423
              13.64875939                8.66628621               48.75134618                0.00010000                2.36967390                0.15224171               -2.89559038               -1.23534415               29.20561840                2.62152470
              14.67017613                8.30183508               48.77748849                0.09495750                1.79078232                0.44209721               -3.23310343               -1.11687717               23.96644082                4.50459968
              15.68457504                7.94214144               48.68757665                0.33025422                1.20629126                0.80762370               -2.67200288               -0.52880169                9.09070138                1.06022617
              16.69430195                7.59231458               48.41515103                0.76201701                0.97269109                1.13129640               -3.76343860                0.04140714               -0.05298429               -1.83678930
               6.77434966               11.99805085               49.01570053                0.97470564                0.22177371                0.04788744               -0.35267691                0.08626777                0.31356253                0.52983489
               7.77656740               11.69990062               48.78293205                0.77410762                0.32945862                0.31389902               -1.10777969                0.11460691                0.75677271               -0.46915090
               8.78093883               11.40073905               48.55878993                0.46772930                3.29703680                0.52819309               -1.82681399               -2.39282421               14.93591700               -0.74316155
               9.84250813               11.05072181               48.60884384                0.36912050                5.51994434               -1.14005946               -2.17517638               -1.72134471               28.83241974               -0.21468200
              10.89133772               10.71320535               48.64441181                0.35988031                4.55028069               -0.69299294               -2.48400278               -0.46193919               28.81790228                0.21994075
              11.93351375               10.37074571               48.67638473                0.36830360                3.95293697               -0.44478548               -2.72552902               -0.35359402               29.66769195                0.54629597
              12.97039646               10.02264892               48.71064374                0.39383946                3.37259970               -0.14573069               -2.91037371               -0.38372529               31.01833661                0.84766371
              14.00096574                9.66784358               48.75113948                0.44104917                2.65400014                0.15573789               -3.11661589               -0.49282005               32.81518613                1.31382543
              15.02347646                9.30837983               48.80424552                0.56861720                1.57739746                0.65447481               -3.52234276               -0.53655738               26.67924565                2.65700534
              16.03251369                8.95051177               48.71041946                0.68791494                0.97013628                0.83703302               -2.91160608               -0.42182713               10.15629264                0.97683460
              17.04287919                8.60406599               48.43047436                0.87978874                1.03654970                1.17514029               -3.97005883                0.21314572                0.84274927               -1.42849989
               3.79147317                2.11607015               50.75159638                1.00000000               -0.63383719               -0.73081280                2.52442995               -0.18337461               -1.11332220                1.02035907
               4.78513480                1.77518999               50.57098956                1.00000000               -0.53323395               -0.40000056                1.51742040               -0.11697968               -1.51172115                0.17140478
               5.78080849                1.43340189               50.38302294                1.00000000               -0.36695681               -0.08877721                0.56474753               -0.14368971               -1.52091048               -0.21627007
               6.77779566                1.08805465               50.20233916                0.69203194               -0.69256923                0.32548622               -0.37883093               -0.55307377               -0.62246822               -0.88463928
               7.76695711                0.73090486               50.03190015                0.73935247               -0.84045862                0.62829383               -0.92556849               -0.24661574                0.31660256                0.01334547
               8.76098649                0.36399480               49.86982936                0.74794450               -0.50045835                0.79432138               -1.58395771               -0.30800162                0.95661369               -0.05601345
               9.75694794               -0.01325894               49.71400673                0.62988977               -0.55212749                1.19544475               -2.34184359               -0.81588655                2.35701107               -0.35284579
              10.74994394               -0.40937272               49.58323433                0.45493511                0.50649780                1.90335685               -3.18809762               -1.08944500                6.38997128               -0.28535022
              11.76707790               -0.81446240               49.52142869                0.39952652                1.84282320                0.38531120               -2.23452771               -2.22812020                2.96045278                2.05277678
              12.78680040               -1.15278126               49.37032277                1.00000000                1.34501995                0.29735460               -1.54789802               -0.53571360                0.24767401                0.26134138
              13.79397829               -1.47913018               49.20472500                1.00000000                0.71778908                0.62720434               -2.31883576               -0.27022369               -0.43102254               -0.34314963
               4.13051958                3.10876202               50.67672209                1.00000000               -0.52204508               -0.70001226                2.23935832               -0.00574968               -0.27893845                1.35683735
               5.12529913                2.77118999               50.49613710                1.00000000               -0.37901583               -0.36681039                1.22984453                0.05124176               -0.44361490                0.26227350
               6.12293926                2.43251412               50.31281942                1.00000000               -0.08928445               -0.05152573                0.24733024                0.02597426               -0.36670912               -0.36274705
               7.12351344                2.09130951               50.13391483                0.47364244                0.17908042                0.33208364               -0.73607111               -0.49887953                1.06401197               -1.22109608
               8.12652087                1.73718780               49.97913592                0.57795485                0.32374658                0.46545704               -1.43026761               -0.21184557                1.93593206                0.12472204
               9.12998837                1.37193802               49.82186661                0.59979715                0.44759818                0.77617130               -2.25746004               -0.28557107                1.94886317                0.03074178
              10.13547284                0.99869551               49.66933963                0.42187091                0.48314244                1.23871435               -3.29618471               -0.75359320                3.78119029               -0.51473349
              11.13965122                0.60966085               49.54962350                0.18599788               -0.94859351                2.31967062               -4.74935757               -2.57854590               11.34912728               -0.92076003
              12.11650097                0.18939071               49.54887803                0.25470186               -1.29370306               -0.02078909               -4.05003666               -4.62982371               11.05838672                4.77674593
              13.11377716               -0.14980772               49.41217224                1.00000000                0.05620067                0.22364085               -0.84379835               -0.64253242                1.46689835                0.44240879
              14.11762498               -0.47285814               49.24616477                1.00000000                0.38478193                0.54164302               -1.76119962               -0.09139141                0.03449472               -0.34643850
               4.46650224                4.10206990               50.60938643                1.00000000               -0.40947108               -0.63374419                1.91907456               -0.00785264               -0.02294771                1.68657961
               5.46240753                3.76785378               50.42331107                1.00000000               -0.26468982               -0.28641114                0.93553951                0.03246575                0.05651554                0.29098366
               6.46120845                3.43237138               50.23929701                0.81889126                0.03684297                0.04986482               -0.05670999               -0.04893119                0.28440967               -0.78271332
               7.46314439                3.09469632               50.05774151                0.00010000                1.04416209                0.37997905               -1.06124757               -0.89574516                2.91674621               -1.58789597
               8.48209169                2.74021400               49.92586292                0.00010000                1.53114816                0.47525715               -1.97037194               -1.86305026                3.86155770                0.08516328
               9.49376736                2.37951823               49.77235386                0.00010000                1.10307774                0.95522696               -2.91160743               -2.39318055                2.55580776                1.87914070
              10.50415324                2.01151535               49.61650204                0.00010000                0.69552316                1.44927188               -3.93004355               -3.32047580                4.04703131                3.83780317
              11.50767782                1.63702069               49.49185253                0.00010000               -3.51016282                2.25541614               -5.36912908               -8.25248970               17.79601425                6.33986040
              12.43394999                1.18512182               49.60622703                0.17565989               -3.57396060                0.57679131               -0.59025681               -6.59251894               15.37954678                3.51408132
              13.43619861                0.85169155               49.45741417                1.00000000                0.21506631                0.07112846               -0.27149427               -0.57882153                1.13584077                0.53880758
              14.43825131                0.53170268               49.28669417                1.00000000                0.20527065                0.35922586               -1.12744668               -0.07088971                0.03699076               -0.31507324
               4.79879477                5.09608714               50.54173338                1.00000000               -0.31477953               -0.54945195                1.59229231               -0.03406187                0.11212279                1.49078362
               5.79564697                4.76546176               50.34916373                0.90399009               -0.18383333               -0.17876496                0.63824378               -0.01304797                0.27840539                0.04911373
               6.79511810                4.43351142               50.16026408                0.29927825                0.10544719                0.18042578               -0.28379431               -0.14962636                0.96009630               -1.25315856
               7.79775591                4.09890909               49.98100461                0.00010000                0.46599306                0.51052987               -1.33667258               -1.12198465                4.84600823               -1.79365063
               8.80443796                3.74669294               49.86909044                0.00010000                0.65337490                0.85106807               -2.10083500               -2.75756872                8.14995581                1.00393296
               9.81082341                3.39104256               49.75876391                0.00010000                0.35614486                1.20284397               -2.84195816               -3.59786803                8.44274281                3.95136534
              10.81156086                3.02768095               49.65606430                0.00010000               -0.49142270                1.53348618               -3.46097278               -4.73059013               11.04198738                7.42712743
              11.80099496                2.65476917               49.60015666                0.00010000               -2.07905655                1.22999604               -3.15119142               -9.22558498               17.28590493                9.96683374
              12.76997973                2.20092654               49.62407420                0.00010000               -2.26875437                3.53018929               -2.20070635               -4.94900399               13.99037057               -0.75998324
              13.75561987                1.85161485               49.50193615                0.20051019               -0.68973928                1.18404331                0.15009633               -0.00932550                2.78698750                0.26869756
              14.75618494                1.53432638               49.32826252                0.69392004                0.05650702               -0.53292876               -0.56408552                1.49465513                0.17245115               -1.08358003
               5.12707175                6.09108086               50.47093290                1.00000000               -0.23494587               -0.45200951                1.27683319               -0.05626222                0.19652211                1.15893352
               6.12472229                5.76427848               50.27154282                0.57716200               -0.11515822               -0.04698975                0.32594330               -0.05488693                0.43107533               -0.39704705
               7.12476859                5.43597989               50.07706998                0.09594321                0.14004404                0.34622834               -0.58488647               -0.22040215                1.55782380               -1.73670537
               8.12752318                5.10490692               49.89983012                0.00010000                0.50191315                0.53662047               -1.48564199               -1.00882719                7.96414069                0.67527794
               9.13480685                4.75723536               49.83283240                0.00010000                0.66494069                0.96969404               -2.02990415               -1.94660845               12.77887383                2.47203500
              10.14082199                4.40357511               49.75164823                0.00010000                0.55039878                1.10289083               -2.62480158               -2.37727653               12.59698828                4.28451707
              11.14581483                4.04218507               49.68062032                0.00010000                0.45492700                1.08954626               -2.90408953               -3.19540871               14.19680753                5.83274515
              12.14992053                3.66162061               49.63050803                0.00010000               -0.38452994                0.84826832               -2.76301031               -4.54328454               15.60170076                4.97978143
              13.13812423                3.25572560               49.58480480                0.00010000               -2.36541349                4.13608043               -2.12486070               -3.22396016               15.96823434               -0.28778066
              14.10261226                2.87537242               49.54234282                0.19260521               -1.77014300                2.28518730               -0.71016727               -0.73581487                8.24123867                1.33300492
              15.10272137                2.52104410               49.35367517                0.68788966                0.01091095               -0.61052515               -1.64549520                0.69453859                0.51790652               -2.80662914
               5.45127428                7.08704695               50.39695219                1.00000000               -0.16240770               -0.35455909                0.98093280               -0.03878253                0.03444135                0.88044817
               6.44965020                6.76452197               50.18842074                0.43270487               -0.05963307                0.06478169                0.05627365               -0.04072921                0.42821051               -0.70223197
               7.45008162                6.44043598               49.98788948                0.01873242                0.33368494                0.51045825               -0.85129830               -0.40104810                5.05464228               -2.20541308
               8.45632390                6.10964150               49.87144959                0.00010000                0.83779921                0.51541281               -0.96136159               -0.81915465               11.88447067                2.91780027
               9.46683760                5.76608682               49.80468700                0.00010000                1.10021344                0.75640133               -1.99537119               -1.51859155               14.86545240                2.99995332
              10.47832817                5.41310037               49.74499464                0.00010000                1.13847884                0.76464069               -2.45827808               -1.95849003               15.74194253                4.13486032
              11.48960718                5.04947187               49.69181357                0.00010000                0.91302830                0.63325954               -2.66154973               -2.60681042               16.67436120                4.80258713
              12.49658874                4.67173454               49.64620528                0.00010000                0.10707689                0.93869096               -2.54951760               -3.39800764               17.58913772                4.25658323
              13.49174872                4.28364815               49.60690131                0.01772904               -1.05018302                2.09181886               -2.08153141               -2.95866575               18.28698672                3.09052320
              14.47558508                3.89731860               49.57270364                0.22970370               -0.65081828                1.61216790               -1.31893978               -0.61286207                9.49946415                1.41738890
              15.47873235                3.52211587               49.35867504                0.71906469                0.31472759                0.56222567               -2.64185561                0.23442045                0.39566391               -2.77759627
               5.77134606                8.08398968               50.32076801                0.99237840               -0.08273847               -0.26277791                0.70083061               -0.03432701                0.01281267                0.73210244
               6.77051867                7.76557412               50.10462635                0.36766045                0.01410160                0.13695173               -0.19051704               -0.00391168                0.32344305               -0.73344316
               7.77162809                7.44618906               49.89473771                0.00010000                0.74852849                0.60384498               -1.07445001               -0.55234950                8.04552932               -2.43900727
               8.78548924                7.11521518               49.83251253                0.00010000                1.46740300                0.55830163               -1.53610852               -0.97973886               16.12982919                1.47997138
               9.80097615                6.77236339               49.77887603                0.00010000                1.63889470                0.51569275               -2.00844340               -1.44484696               17.40938948                2.79135271
              10.81826714                6.41886792               49.73608896                0.00010000                1.70341522                0.43236134               -2.41034370               -1.83605848               18.58986505                3.76523923
              11.83504445                6.05485026               49.69897586                0.00010000                1.47584823                0.41634101               -2.57269823               -2.26272512               19.41175143                4.39273291
              12.84778410                5.68039443               49.66538234                0.00010000                0.91611998                0.66227071               -2.49450465               -2.55320050               19.94699237                4.39796092
              13.85336685                5.29756198               49.63258274                0.03488404                0.20515945                1.01355414               -2.18603737               -2.36091922               20.10002844                3.50845580
              14.85188729                4.90761578               49.59751778                0.26104193                0.22241867                0.88921168               -1.68672023               -0.77892808               10.19306346                1.18152934
              15.85781523                4.53228861               49.36378362                0.74287674                0.59279368                1.04582544               -2.99363752                0.16496779                0.22273229               -2.28210709
               6.08741887                9.08179139               50.24396568                0.95837410               -0.00462735               -0.17929879                0.43877944               -0.03698704                0.02615965                0.69918348
               7.08737259                8.76726100               50.02073956                0.35511830                0.09873506                0.19947011               -0.43634642                0.03006114                0.16634882               -0.72838060
               8.08939357                8.45251288               49.80028727                0.00010000                1.15911002                0.62557477               -1.28321578               -0.73178604               10.02051368               -2.45071136
               9.11055479                8.12080754               49.77347131                0.00010000                2.24471743                0.44372636               -1.75272801               -1.38591576               20.12003703                0.27701882
              10.13428792                7.77640068               49.74688522                0.00010000                2.42826656                0.22399802               -2.15474143               -1.62403832               20.78561507                2.10456215
              11.15912013                7.42174760               49.72383042                0.00010000                2.42691255                0.11393988               -2.44812452               -1.74814815               21.66477103                3.23019732
              12.18282617                7.05779869               49.70451708                0.00010000                2.18464417                0.14497852               -2.58182904               -1.91930723               22.37857002                4.01535716
              13.20281301                6.68497995               49.68570299                0.00010000                1.72414102                0.28554803               -2.52558058               -2.06245427               22.54718321                4.45904033
              14.21730899                6.30391923               49.66139994                0.05158274                1.12334360                0.44606046               -2.30261804               -2.08044263               21.66922326                4.06997356
              15.22527988                5.91510283               49.61917407                0.28498789                0.76885237                0.74038942               -2.01165638               -0.87792308               10.56462193                1.01867779
              16.23268604                5.54303238               49.36881574                0.75661750                0.74061549                1.06368191               -3.21114142                0.08753312                0.12437010               -2.14343666
               6.39966709               10.08040371               50.16726226                0.94986294                0.07313139               -0.09365305                0.18073761               -0.03536021                0.00431714                0.69860549
               7.40039840                9.76956352               49.93679563                0.38931019                0.18893736                0.25612437               -0.68168477                0.04132467                0.01260385               -0.69547714
               8.40344584                9.45870055               49.70640030                0.00010000                1.67423662                0.59244675               -1.49553734               -1.05551189               11.76670927               -2.13168357
               9.43388313                9.12408970               49.71030154                0.00010000                3.20547421                0.08733400               -1.93667380               -1.80217830               23.74864606                0.00144356
              10.46755532                8.77684335               49.70854235                0.00010000                3.40115120               -0.24851014               -2.29915436               -1.62622235               24.10229432                1.43905742
              11.50190616                8.42114672               49.70652361                0.00010000                3.29353195               -0.24536638               -2.54710112               -1.46703942               24.88391277                2.46089483
              12.53342596                8.05774983               49.70660709                0.00010000                2.92541608               -0.14383657               -2.64870941               -1.49141192               25.68910716                3.28641899
              13.56041448                7.68610539               49.70744572                0.00010000                2.41045823               -0.00160541               -2.57954830               -1.63836806               25.75995505                4.13479312
              14.58163512                7.30648319               49.69787050                0.06882991                1.74005985                0.15344920               -2.34896663               -1.69233369               23.13340275                5.21147930
              15.59521568                6.92242357               49.63948006                0.30537595                1.10358334                0.75324881               -2.31650634               -0.80013873               10.50414570                1.02332231
              16.60370679                6.55356225               49.37346276                0.76222333                0.84911133                1.06115816               -3.41630414                0.05735176                0.08197782               -2.15178582
               6.70839203               11.07991833               50.09055511                0.92475903                0.15102061               -0.00232115               -0.08446956               -0.03805471               -0.00181054                0.60979137
               7.70990224               10.77238349               49.85325114                0.43533577                0.26825559                0.31002611               -0.92818103                0.01780814                0.09478228               -0.56802573
               8.71375715               10.46436182               49.61771936                0.00010000                2.32330963                0.56834441               -1.71838345               -1.60985808               13.45387247               -1.29773435
               9.75636843               10.12255422               49.64689494                0.00010000                4.54746536               -0.78764330               -2.14040248               -1.74068694               26.87504053               -0.01883807
              10.80470645                9.77143047               49.66578977                0.00010000                4.62522095               -0.75330172               -2.47675358               -1.16049652               27.08071116                0.77487530
              11.84887285                9.41684027               49.68221556                0.00010000                4.16664022               -0.58946962               -2.69397359               -0.83173766               27.92121344                1.39163170
              12.88803926                9.05492196               49.70093927                0.00010000                3.62197196               -0.38841902               -2.76472166               -0.85042195               29.06326479                1.94393355
              13.92131229                8.68494784               49.72363762                0.00010000                2.95524422               -0.19231411               -2.66128812               -1.03094481               30.19418318                2.67422632
              14.94714414                8.30698821               49.75004349                0.09680329                2.04428764                0.11991028               -2.30154610               -1.01900387               25.08101565                4.43089976
              15.96219804                7.93016781               49.66097942                0.33561756                1.22057786                0.79754796               -2.60379407               -0.58166991                9.66847330                1.00490843
              16.97155570                7.56425555               49.37790155                0.75672500                0.93576555                1.09990313               -3.61780321                0.04268496               -0.08098439               -1.76199172
               7.01397567               12.08035728               50.01218405                0.97005293                0.23354072                0.04389564               -0.34867293                0.09903927                0.30488716                0.52215067
               8.01631107               11.77576404               49.77145488                0.76548692                0.35511398                0.33805525               -1.18881218                0.12639134                0.76729888               -0.45647886
               9.02107795               11.47006744               49.53974251                0.46489920                3.78448324                0.57056239               -1.98302233               -2.63928005               15.15832612               -0.72022154
              10.09200074               11.10833684               49.58602664                0.36899583                6.44906926               -1.42173777               -2.39716110               -1.85127570               29.31174635               -0.17551429
              11.15005933               10.76177731               49.61843848                0.35997847                5.48895892               -0.96531596               -2.72239991               -0.41368756               29.42593156                0.27167486
              12.20177992               10.40935733               49.64822203                0.36805597                4.91253083               -0.74829443               -2.91817030               -0.29908645               30.43195437                0.60383274
              13.24830995               10.04998145               49.68132670                0.39279357                4.29747069               -0.49405079               -2.95946545               -0.32784174               31.92999672                0.90024634
              14.28772933                9.68225911               49.72148580                0.43549862                3.38625669               -0.26887328               -2.81600858               -0.41329882               33.83257482                1.33346549
              15.31603508                9.30888140               49.77467929                0.57001995                1.92928077                0.18931824               -2.41072686               -0.30513523               27.75520859                2.61750407
              16.32631495                8.93837453               49.68125970                0.69251803                1.01749663                0.82067178               -2.86375015               -0.25436373               10.67534106                0.91436475
              17.33638501                8.57556032               49.39113514                0.87789286                1.00700685                1.13047700               -3.82037018                0.20151053                0.79302820               -1.38575246
               3.96628676                2.20234746               51.77757323                1.00000000               -0.66100440               -0.76893859                2.66081495               -0.20208082               -1.04916018                0.97256419
               4.95967671                1.85314838               51.58640447                1.00000000               -0.54626840               -0.40946313                1.55867635               -0.13451598               -1.41077946                0.16134273
               5.95536139                1.50304000               51.38846715                1.00000000               -0.34844483               -0.06904643                0.51659939               -0.15948594               -1.37393366               -0.21448348
               6.95270782                1.14952647               51.19787891                0.68617984               -0.63594864                0.37266666               -0.52467267               -0.49167691               -0.24244473               -0.86512940
               7.94264242                0.78617320               51.02158817                0.72331639               -0.79793233                0.76000996               -1.19598804               -0.26238234                0.98037127               -0.01096867
               8.93674917                0.41468913               50.85242629                0.71837617               -0.49628782                0.96461182               -2.00321126               -0.30181239                1.71552473               -0.08762925
               9.93271666                0.03317652               50.68830994                0.57674710               -0.71837909                1.43770383               -2.97871702               -0.83004305                3.36383020               -0.30525907
              10.92238159               -0.36762506               50.54786972                0.33587660               -1.68471098                2.42094635               -4.31244912               -2.31882924                8.97005674                0.12539688
              11.89902244               -0.80896034               50.49004369                0.12922770                1.58967397                2.56241973               -3.72076709               -0.21215884                6.16713222                2.50126335
              12.95417507               -1.19555713               50.35404053                1.00000000                3.08190410                0.33285499               -1.62244059               -2.81939134                1.73910598                0.30632006
              13.96066052               -1.52629158               50.18065354                1.00000000                0.64854547                0.66203008               -2.41802931               -0.26852796               -0.18786275               -0.24947590
               4.31346502                3.19465807               51.69978357                1.00000000               -0.54797412               -0.73357415                2.36406015               -0.00913081               -0.25666456                1.29560752
               5.30798528                2.84905375               51.50861149                1.00000000               -0.39437681               -0.37413455                1.25954693                0.05032609               -0.40073181                0.25031776
               6.30557749                2.50234953               51.31501692                1.00000000               -0.08804170               -0.03050492                0.18817089                0.03259447               -0.30457253               -0.35452339
               7.30622445                2.15325313               51.12579118                0.47926175                0.09298872                0.38016966               -0.89189880               -0.36571401                1.29464448               -1.19313258
               8.30743726                1.79377330               50.96390344                0.57297828                0.20024671                0.61789909               -1.66349054               -0.17556848                2.34086139                0.07136417
               9.31022938                1.42433525               50.79794796                0.57575550                0.40680306                0.93674462               -2.59889411               -0.22620778                2.25380254                0.00281082
              10.31557332                1.04755356               50.63436194                0.36880205                0.50161728                1.43643849               -3.78761563               -0.55341908                3.80842975               -0.37314520
              11.32026173                0.65658440               50.49792628                0.06184127               -0.23532174                2.54528745               -5.65826552               -2.76448101               11.61106926               -0.22253609
              12.31086689                0.21666385               50.48551066                0.00010000               -1.78074767                0.47685524               -7.89333111               -6.89038105               15.58899922               10.21168760
              13.28464678               -0.19222858               50.40341056                1.00000000               -1.10785974                0.23424659               -0.92585000               -3.95744795                4.65437546                0.43575759
              14.28870969               -0.51967128               50.22813972                1.00000000                0.40629187                0.56800054               -1.80664024               -0.10074572                0.01425685               -0.23294501
               4.65731278                4.18767597               51.62915452                1.00000000               -0.43210095               -0.65831493                2.02847147               -0.01008733               -0.01155090                1.60795359
               5.65299177                3.84566569               51.43276204                1.00000000               -0.27494425               -0.28971141                0.95087428                0.03661042                0.06803996                0.27526226
               6.65181390                3.50242990               51.23837819                0.82400439                0.04890014                0.06782625               -0.12812936               -0.02626366                0.28820291               -0.73150913
               7.65396978                3.15712986               51.04632066                0.00010000                0.81175185                0.42609316               -1.21789578               -0.67791811                2.99000298               -1.51771417
               8.66804893                2.79853118               50.90553314                0.00010000                1.22374872                0.59349020               -2.13393926               -1.47877632                3.98103259                0.21040516
               9.67844475                2.43342402               50.74211431                0.00010000                1.06750937                0.99002691               -3.17754907               -2.03620785                2.57050649                2.23696702
              10.68939912                2.06190529               50.57519212                0.00010000                0.97684626                1.32832774               -4.40186620               -2.99997836                3.81719277                4.71150308
              11.69798168                1.68328069               50.43526049                0.00010000               -3.96856575                1.73463598               -5.64054205               -9.36852419               20.52268149                8.66706869
              12.61002781                1.20057676               50.59587264                0.14365821               -4.33102139                0.06705132               -3.23245608              -10.88500478               18.94722104                7.32669874
              13.61136125                0.80912780               50.45458174                0.92414342                0.17516009                0.06103064               -0.32501406               -3.25611042                1.91137073                0.45575011
              14.61353101                0.48506843               50.27574593                1.00000000                0.21697614                0.36452286               -1.12369379               -0.07799143                0.05265406               -0.20819562
               4.99728384                5.18149177               51.55813658                1.00000000               -0.33202779               -0.56628509                1.68493701               -0.03435397                0.11911640                1.41909650
               5.99396357                4.84325952               51.35554629                0.87585907               -0.18478984               -0.17844489                0.63666290               -0.00767778                0.30202302                0.02553559
               6.99358805                4.50370606               51.15694941                0.28632372                0.13006216                0.19788359               -0.37926512               -0.12143650                0.93913424               -1.19788046
               7.99656481                4.16177500               50.96680967                0.00010000                0.39897643                0.55569347               -1.50045237               -0.90490052                4.92100959               -1.63800808
               9.00156758                3.80564310               50.84720214                0.00010000                0.47831513                0.89056244               -2.27990585               -2.22478116                8.35720094                1.39416493
              10.00613111                3.44413578               50.72924159                0.00010000                0.20747561                1.12617849               -3.06765658               -3.12845079                8.71383296                4.65836981
              11.00571709                3.07412012               50.62011079                0.00010000               -0.59556681                1.19936675               -3.69242006               -4.46436792               11.84470807                8.70984183
              11.99421978                2.69127712               50.56660421                0.00010000               -1.91987020                0.46947335               -3.61784760               -9.75983229               18.74631086               12.26080472
              12.96731968                2.21800488               50.59539831                0.00010000               -2.95934364                3.28803818               -3.12564367               -7.21422115               17.39373151                0.62498361
              13.93503290                1.80899203               50.50399590                0.15846516               -1.60255370                2.31588758                0.23982144               -1.67933769                4.71701821               -0.65820852
              14.93526861                1.48761917               50.32339587                0.65797089                0.02357069               -0.36977280               -0.48534821                2.33928650                0.23698443               -1.99082373
               5.33309020                6.17635027               51.48408474                1.00000000               -0.24662721               -0.46291304                1.35267201               -0.05381282                0.18014359                1.10744559
               6.33062393                5.84209679               51.27472042                0.55083518               -0.11102542               -0.04533019                0.30805315               -0.04462355                0.43589876               -0.40654861
               7.33086969                5.50638757               51.07069991                0.08376058                0.16553970                0.36787594               -0.69165602               -0.18662003                1.59313471               -1.70406974
               8.33393472                5.16824373               50.88408351                0.00010000                0.51614144                0.62978742               -1.65594252               -0.75733963                8.19334306                1.21988373
               9.34119252                4.81634243               50.81151351                0.00010000                0.67319967                0.96826980               -2.23718825               -1.52770159               13.15521968                2.90868242
              10.34739872                4.45594759               50.72424641                0.00010000                0.58889508                1.01203687               -2.85027117               -1.98896843               13.11416088                4.92916589
              11.35297042                4.08589263               50.65023585                0.00010000                0.57507731                0.82948070               -3.16653187               -2.91933969               15.11144968                6.76441479
              12.35890026                3.69267016               50.60102375                0.00010000               -0.24709737                0.41093382               -3.09233800               -4.67090034               17.08192499                5.98006722
              13.34802848                3.26633753               50.56205382                0.00010000               -2.53700319                3.76171397               -2.43039240               -4.33589842               18.28818944                0.79870701
              14.30816020                2.85544555               50.53283834                0.16944209               -2.24830137                3.85227550               -1.44981893               -1.06653262               10.16948906                0.98725024
              15.30306245                2.47767297               50.33503885                0.66754188               -0.50977508                0.21254052               -2.29908189                0.69303469                1.12959171               -3.87243780
               5.66471454                7.17223351               51.40706622                1.00000000               -0.16807499               -0.36229390                1.04133913               -0.03814058                0.02414004                0.85043258
               6.66303379                6.84235292               51.18883258                0.41298754               -0.05029172                0.06800546                0.02584829               -0.02762979                0.42681800               -0.68162111
               7.66370871                6.51106358               50.97875111                0.00834367                0.42146832                0.53382268               -0.97683258               -0.31056629                5.46813920               -2.14910508
               8.67146316                6.17437074               50.86080768                0.00010000                0.98004860                0.62375177               -1.19877691               -0.54113632               12.26477163                3.24870020
               9.68330968                5.82500849               50.78357632                0.00010000                1.26691903                0.73013866               -2.22930786               -1.16910368               15.07085001                3.35200300
              10.69680154                5.46437652               50.71918252                0.00010000                1.36490226                0.64657876               -2.70882665               -1.64700315               16.37589295                4.60069469
              11.71060773                5.09070973               50.66390972                0.00010000                1.17776642                0.41525689               -2.92255097               -2.42095886               17.64866424                5.35844668
              12.72035687                4.69949580               50.61941996                0.00010000                0.36092965                0.68303633               -2.81431293               -3.52456168               19.00264307                4.83379328
              13.71782632                4.29323916               50.58463901                0.01282826               -0.89950326                2.03350390               -2.39484034               -3.35128067               20.21477319                3.48101144
              14.70236681                3.88603754               50.55814220                0.21560775               -0.65759292                2.12050409               -1.68786542               -0.72040041               10.76684279                1.39723645
              15.70467446                3.49186998               50.33054087                0.70388064                0.23076571                1.46133785               -2.99599373                0.46936573                0.68692400               -2.81144305
               5.99208858                8.16910439               51.32801921                0.98244176               -0.08473081               -0.27015067                0.74977090               -0.03578097                0.01749911                0.72098103
               6.99124127                7.84345690               51.10251537                0.35235658                0.02759832                0.14569545               -0.23257989                0.00937904                0.33117486               -0.70366936
               7.99264054                7.51706402               50.88331454                0.00010000                0.89629060                0.62898505               -1.21120130               -0.44078227                8.27293343               -2.36001339
               9.00916708                7.18071876               50.81602726                0.00010000                1.75820646                0.59448573               -1.76124598               -0.73648528               16.56494139                1.40877977
              10.02780467                6.83094520               50.75755574                0.00010000                1.97951701                0.46042233               -2.26641780               -1.18651931               17.90510544                3.02290192
              11.04875742                6.46887916               50.71072924                0.00010000                2.08136487                0.30007960               -2.67525610               -1.60030074               19.26945737                4.06766054
              12.06943197                6.09419776               50.67208236                0.00010000                1.85610896                0.24256443               -2.82645053               -2.13277768               20.38887427                4.72491971
              13.08587960                5.70633088               50.63941941                0.00010000                1.25145769                0.51470704               -2.72781644               -2.62533887               21.25441934                4.69934910
              14.09446112                5.30700760               50.60987704                0.03325257                0.46208841                0.99312780               -2.39659017               -2.66547130               21.75848124                3.70903783
              15.09512137                4.89785563               50.58019567                0.25315711                0.31618752                0.98493553               -1.80734273               -0.95469329               11.16402923                1.19819807
              16.10078487                4.50689973               50.33338414                0.73072479                0.56635058                1.35026005               -3.05839660                0.19314419                0.30143922               -1.98191988
               6.31529391                9.16683050               51.24855318                0.95124704               -0.00321645               -0.18588299                0.47839647               -0.03656016                0.02701536                0.69850946
               7.31526174                8.84526683               51.01610063                0.34144170                0.11686473                0.21340867               -0.49061304                0.04169086                0.18558207               -0.69768794
               8.31763120                8.52364328               50.78678852                0.00010000                1.37952684                0.65277714               -1.42149012               -0.64846559               10.24716594               -2.36757950
               9.34285228                8.18626046               50.75485632                0.00010000                2.68938460                0.41018390               -1.97705942               -1.19767655               20.56821189                0.37804142
              10.37141890                7.83421694               50.72406690                0.00010000                2.93453403                0.11804292               -2.42238346               -1.44020193               21.34589726                2.24487127
              11.40154296                7.47037811               50.69811713                0.00010000                2.95407806               -0.04384934               -2.71600872               -1.55815040               22.39800747                3.42547120
              12.43050046                7.09556102               50.67772642                0.00010000                2.67486465               -0.02544120               -2.80700652               -1.77282580               23.34205769                4.22262400
              13.45504025                6.70978994               50.65991653                0.00010000                2.12458442                0.16145502               -2.67357929               -2.05008692               23.75982926                4.66456386
              14.47299214                6.31310172               50.63830401                0.05284384                1.41702802                0.40581585               -2.36601242               -2.31059287               23.07464615                4.27368947
              15.48338081                5.90573625               50.59914575                0.28216167                0.87285048                0.75823769               -1.99530787               -1.06440084               11.32095170                1.00284553
              16.49044915                5.51887519               50.33698844                0.74658627                0.70683394                1.12094000               -3.12031540                0.07822431                0.14501347               -1.89015014
               6.63448471               10.16538673               51.16920190                0.94392797                0.07775910               -0.09922380                0.20823604               -0.03543733                0.00501214                0.69567004
               7.63526230                9.84772507               50.92967448                0.37513492                0.20964433                0.27375173               -0.74270613                0.04839560                0.03988395               -0.66513335
               8.63867760                9.53011957               50.69075334                0.00010000                1.96887907                0.62584719               -1.63883178               -1.03612624               12.00708107               -2.06006213
               9.67463989                9.18892244               50.68982204                0.00010000                3.81026891               -0.01199613               -2.16891215               -1.71403295               24.21636089                0.09962887
              10.71488298                8.83330606               50.68427166                0.00010000                4.08052251               -0.42401383               -2.57232648               -1.50382462               24.69287767                1.55599259
              11.75625034                8.46800218               50.67988013                0.00010000                3.98403242               -0.45251676               -2.80655197               -1.30569184               25.64575686                2.59221480
              12.79456363                8.09368894               50.67942139                0.00010000                3.55434136               -0.36478631               -2.82313700               -1.31583831               26.67197782                3.42970861
              13.82733716                7.70955998               50.68193516                0.00010000                2.88696645               -0.20296434               -2.57328160               -1.50332203               26.97803810                4.31217204
              14.85230296                7.31512392               50.67584340                0.07229599                2.03613592                0.02712876               -2.12145598               -1.75385501               24.29920359                5.56592552
              15.86805988                6.91302039               50.61673583                0.30696992                1.18842665                0.73618553               -2.22170976               -0.95498822               11.00574759                0.98115642
              16.87607149                6.52931853               50.34005487                0.75419139                0.80116071                1.02635914               -3.23135444                0.04925611                0.08039344               -1.96568557
               6.94990848               11.16484602               51.08979455                0.91662795                0.15883432               -0.00753750               -0.06608053               -0.03936498                0.00183614                0.60404256
               7.95149682               10.85074186               50.84361468                0.41856973                0.29014165                0.33192376               -0.99917460                0.02034051                0.12738655               -0.54758528
               8.95571131               10.53616022               50.59979506                0.00010000                2.69441548                0.60843738               -1.86832940               -1.69326638               13.70084054               -1.25312697
              10.00538513               10.18602054               50.62435740                0.00010000                5.32756773               -0.99871576               -2.37799161               -1.75081749               27.35845262                0.04632386
              11.06226267                9.82573666               50.63974550                0.00010000                5.48305547               -0.99823131               -2.74985255               -1.09573898               27.69786173                0.84781554
              12.11504624                9.46132778               50.65417469                0.00010000                5.01816092               -0.85963772               -2.93842724               -0.72285496               28.71754389                1.46915345
              13.16262589                9.08826529               50.67285712                0.00010000                4.42462967               -0.69049770               -2.88390179               -0.72140621               30.09387443                2.02765177
              14.20353883                8.70573065               50.69812042                0.00010000                3.59143781               -0.53717231               -2.49629649               -0.88467560               31.58944582                2.79535657
              15.23445464                8.31364429               50.73145756                0.10247380                2.32738044               -0.18328001               -1.51207518               -0.93834571               26.05757019                4.72389414
              16.25008644                7.92045996               50.63550077                0.34281249                1.21916757                0.76090567               -2.47159266               -0.63685746                9.80817331                0.94742206
              17.25883799                7.53940237               50.34279496                0.75127441                0.87515495                1.02826170               -3.36917514                0.04010964               -0.09174575               -1.62789808
               7.26190573               12.16523598               51.00872707                0.96500958                0.24491807                0.03899620               -0.34052640                0.11248208                0.29672885                0.51567489
               8.26435491               11.85436355               50.75915580                0.75581071                0.38139326                0.36216885               -1.27056475                0.13842575                0.78478176               -0.44382711
               9.26953360               11.54228831               50.51912948                0.46223863                4.28460895                0.61280932               -2.14101605               -2.88854256               15.39406518               -0.69578334
              10.35004709               11.16894813               50.56090061                0.36893726                7.40636788               -1.70724093               -2.63643554               -1.98114809               29.80614791               -0.13314802
              11.41766096               10.81334143               50.58996382                0.36004320                6.46087586               -1.23952336               -2.98627876               -0.36710622               30.07302392                0.32000160
              12.47926461               10.45080942               50.61802132                0.36783439                5.90358355               -1.05183547               -3.14025227               -0.25128535               31.27405069                0.65650996
              13.53573263               10.07987899               50.65145443                0.39177994                5.25000207               -0.83863047               -3.03900521               -0.28897015               33.02270196                0.96029124
              14.58426465                9.69881654               50.69481930                0.43160614                4.15370533               -0.69141165               -2.56307708               -0.34845165               35.31050053                1.42058990
              15.61880673                9.31145832               50.75603098                0.57385791                2.26500020               -0.21859710               -1.43273581               -0.09369264               28.62806089                2.82212392
              16.62956466                8.92823850               50.65314445                0.69826872                1.00910661                0.77785386               -2.72280060               -0.13090673               10.62417228                0.84380549
              17.63898887                8.54988376               50.35406695                0.87596406                0.94242106                1.04813935               -3.54804490                0.17961357                0.74334787               -1.29057351
               4.15282750                2.29110075               52.80481268                1.00000000               -0.68022029               -0.80078644                2.77456099               -0.21949936               -0.98010997                0.92292407
               5.14602529                1.93400280               52.60216308                1.00000000               -0.54860577               -0.41640294                1.58556901               -0.15181808               -1.30347515                0.15127445
               6.14185538                1.57601268               52.39335492                1.00000000               -0.30997729               -0.05000731                0.45525897               -0.17249027               -1.22726783               -0.20950283
               7.13982575                1.21492751               52.19184570                0.68015464               -0.49191156                0.40776005               -0.68675532               -0.42848051                0.08913131               -0.84141518
               8.13201715                0.84605495               52.00798039                0.70562950               -0.56252654                0.86151701               -1.56303346               -0.27001446                1.52113799               -0.01029646
               9.12857522                0.47119888               51.82976514                0.68407489               -0.16180160                1.11073412               -2.58161754               -0.27308215                2.25140686               -0.10975053
              10.12878112                0.08853188               51.65443239                0.51589163               -0.04819453                1.58185457               -3.85161938               -0.62064035                3.76365085               -0.28772545
              11.12761133               -0.30697791               51.49698535                0.21317323               -2.22656952                2.47972708               -5.64971437               -2.88389126               10.93193133                0.30390420
              12.08424973               -0.75537107               51.44701334                0.00010000                0.16806721                4.31665772               -5.17755852               -3.06615495               11.35332867               -0.65429072
              13.13097267               -1.24539491               51.33787396                1.00000000                2.63726443                0.37611372               -1.67108471               -7.85975503                3.48144486                0.29059412
              14.13699501               -1.57909205               51.15636441                1.00000000                0.60223456                0.64826261               -2.40841576               -0.22403506               -0.11983697               -0.24787332
               4.50773045                3.28309289               52.72400329                1.00000000               -0.56793062               -0.76123906                2.46867205               -0.01397725               -0.23000725                1.23273916
               5.50205115                2.92983877               52.52132803                1.00000000               -0.40311654               -0.37892865                1.27774953                0.04695429               -0.35030632                0.23752699
               6.49966812                2.57551261               52.31658284                1.00000000               -0.07656686               -0.01019900                0.12192909                0.03624243               -0.23620262               -0.34503206
               7.50051981                2.21900511               52.11607686                0.48380257                0.07565998                0.41980201               -1.04980326               -0.24393645                1.51634018               -1.15810790
               8.50118132                1.85467012               51.94586611                0.56280491                0.20430582                0.75342278               -1.97412633               -0.13986753                2.74177077                0.04529054
               9.50460593                1.48230622               51.76988873                0.54358307                0.52408938                1.08825313               -3.04754717               -0.16881984                2.54594354               -0.04328703
              10.51166311                1.10435043               51.59358732                0.30822960                0.80589813                1.57323382               -4.37688587               -0.29585299                3.69707231               -0.38720882
              11.52072389                0.71781936               51.43645819                0.00010000                0.55667839                2.43310265               -6.26686787               -2.33576614               10.62059772                0.38887176
              12.52279668                0.28779551               51.39101141                0.00010000               -2.82441395               -1.14303955               -6.62032061              -12.50648525               18.39834608                9.77035528
              13.46423561               -0.24163378               51.39365524                1.00000000               -2.71724393                0.28080638               -1.02146597               -9.84124295                9.30303820                0.41869175
              14.46845180               -0.57260942               51.21003197                1.00000000                0.42161890                0.56873308               -1.81714324               -0.09851360                0.01400336               -0.21533825
               4.85905618                4.27587597               52.64995586                1.00000000               -0.45115256               -0.67770239                2.12336752               -0.01381379                0.00426724                1.52645114
               5.85454466                3.92642423               52.44232856                1.00000000               -0.28211472               -0.29123372                0.95846003                0.03780901                0.08903899                0.25623132
               6.85341389                3.57580870               52.23673443                0.82353763                0.06224267                0.08597427               -0.20128338               -0.00656966                0.30883352               -0.68853307
               7.85578951                3.22332355               52.03338360                0.00010000                0.62524020                0.46904869               -1.36669756               -0.46408666                3.10178360               -1.44820182
               8.86591869                2.86112340               51.88318413                0.00010000                0.98644981                0.69628736               -2.36408167               -1.11954377                4.22504423                0.32096947
               9.87551851                2.49296394               51.70880288                0.00010000                1.07161135                0.98858155               -3.50979045               -1.67706712                2.67285797                2.52558695
              10.88735092                2.11999656               51.52846472                0.00010000                1.09662080                1.12418125               -4.87359505               -2.59252551                4.00327011                5.45064855
              11.89745092                1.74168414               51.37904169                0.00010000               -4.68888818                0.82013254               -5.42176120              -10.91593251               21.10821775               10.52421312
              12.79357315                1.22176814               51.54157791                0.11534141               -5.14490902               -2.02752351               -5.45669677              -16.18984665               23.60062053               10.30518388
              13.79455274                0.76022121               51.45091388                0.81043631                0.17014389                0.09139324               -0.40662722               -6.58792303                4.87264083                0.45916601
              14.79697603                0.43228261               51.26422030                1.00000000                0.24232912                0.39131995               -1.20318384               -0.11021504                0.09035149               -0.17562154
               5.20635766                5.26953884               52.57543212                1.00000000               -0.34830671               -0.57879190                1.76828887               -0.03511944                0.13005988                1.34349557
               6.20287460                4.92401410               52.36189698                0.84590226               -0.18601291               -0.17814987                0.63196393               -0.00131470                0.33112096               -0.00348728
               7.20263740                4.57723209               52.15267878                0.27205638                0.15243904                0.21440499               -0.47502072               -0.08868519                0.93720690               -1.15371597
               8.20592338                4.22838608               51.95099556                0.00010000                0.32563267                0.59915213               -1.66205766               -0.69246550                5.05304354               -1.48664410
               9.20915006                3.86859586               51.82349232                0.00010000                0.31340245                0.89557156               -2.47563350               -1.72392949                8.66308384                1.69469456
              10.21219143                3.50207785               51.69741078                0.00010000                0.09711710                0.96267798               -3.30832968               -2.64487214                9.15848565                5.23547948
              11.21109240                3.12683405               51.58221590                0.00010000               -0.57788843                0.68389406               -3.89500999               -4.19701379               12.72949722                9.85732123
              12.20063366                2.73422201               51.52779971                0.00010000               -1.53148653               -0.66389618               -4.02119761               -9.86494382               20.42374837               13.67778241
              13.18046267                2.24724504               51.56156133                0.00010000               -3.93354901                3.03454529               -4.21274879               -9.77638226               20.73143034                2.31319185
              14.12196268                1.76019409               51.50673258                0.11757872               -2.91689861                4.03749583                0.29724425               -3.67818991                6.97674410               -2.07262380
              15.12212470                1.43521698               51.31855556                0.62913815                0.01620208                0.20838656               -0.52598742                3.69909623                0.31048925               -3.40284834
               5.54940328                6.26430013               52.49798634                1.00000000               -0.25781706               -0.47088532                1.42333289               -0.05055476                0.16528007                1.05094059
               6.54682511                5.92286123               52.27770388                0.52730036               -0.10675417               -0.04597521                0.28870895               -0.02881259                0.44636775               -0.41987674
               7.54726819                5.58009680               52.06323686                0.07138557                0.18756614                0.38035762               -0.80215440               -0.13613688                1.65506086               -1.68048356
               8.55057643                5.23530659               51.86671127                0.00010000                0.52400716                0.71428341               -1.81283104               -0.50956105                8.46866293                1.71332106
               9.55774834                4.87903483               51.78808864                0.00010000                0.69032211                0.92443944               -2.45526286               -1.11796990               13.61425022                3.23195287
              10.56438287                4.51221750               51.69464280                0.00010000                0.67590735                0.82767970               -3.08163975               -1.60195922               13.74344058                5.40221327
              11.57126648                4.13367444               51.61728968                0.00010000                0.76790938                0.39801191               -3.42603929               -2.62803269               16.17267231                7.37443311
              12.57974106                3.72840621               51.56866127                0.00010000                0.04034721               -0.21036302               -3.41752484               -4.79683706               18.69530728                6.63088301
              13.57207343                3.28245905               51.53619695                0.00010000               -2.33620273                2.91000543               -2.71689798               -5.52879063               20.41774150                1.36473191
              14.53301701                2.84097113               51.51334644                0.14449980               -2.55806251                5.88559557               -2.72429658               -1.14756547               12.08526886                0.03226515
              15.52091218                2.43645034               51.30769353                0.64909714               -1.21048267                1.61623751               -3.20546681                0.82536111                2.15936032               -5.07054345
               5.88822437                7.26012113               52.41777898                1.00000000               -0.17226973               -0.36888937                1.09811759               -0.03763211                0.01657587                0.81704377
               6.88650167                6.92309459               52.18893771                0.39498430               -0.03775346                0.06857251               -0.00497314               -0.01300776                0.42618148               -0.66134903
               7.88746930                6.58483925               51.96835283                0.00010000                0.51462246                0.54272885               -1.09946084               -0.20580819                5.85422289               -2.09790015
               8.89679412                6.24267175               51.84747405                0.00010000                1.12052260                0.70177672               -1.48657550               -0.28920771               12.66170366                3.51189670
               9.90987975                5.88708465               51.76010085                0.00010000                1.43592544                0.66480096               -2.47259238               -0.87061838               15.36766046                3.59064932
              10.92551263                5.51863144               51.69081810                0.00010000                1.62316379                0.45345143               -2.97712438               -1.37717831               17.08965891                4.88623319
              11.94234303                5.13479429               51.63336255                0.00010000                1.51998385                0.09287552               -3.21124220               -2.28757050               18.70793588                5.67603822
              12.95591231                4.73001475               51.58991902                0.00010000                0.74894558                0.27393135               -3.11962833               -3.70061992               20.46246078                5.11063021
              13.95732194                4.30544515               51.55900451                0.00613551               -0.54461201                1.78093438               -2.81684150               -3.82109784               22.07852781                3.54498879
              14.94502007                3.87790600               51.53894633                0.19836129               -0.48242262                2.48025274               -2.30095875               -0.96298218               11.99331828                1.55835365
              15.94767349                3.46754173               51.29875517                0.68858346                0.26534202                2.48761503               -3.36925275                0.79131755                1.04471051               -2.54809451
               6.22270372                8.25692234               52.33576342                0.97307444               -0.08568779               -0.27711235                0.79592875               -0.03697109                0.02125450                0.70963086
               7.22184684                7.92423268               52.09997476                0.33795869                0.04355764                0.15267689               -0.27493060                0.01881259                0.33734684               -0.67241946
               8.22357487                7.59095138               51.87051368                0.00010000                1.03500158                0.64416214               -1.34617250               -0.33893305                8.49882281               -2.27971664
               9.24254687                7.24934213               51.79728761                0.00010000                2.04007057                0.59509144               -1.98781714               -0.53869958               17.01220676                1.31542572
              10.26437628                6.89233085               51.73354767                0.00010000                2.32913979                0.37487663               -2.54725515               -0.99951520               18.43826036                3.14633864
              11.28912967                6.52128653               51.68258384                0.00010000                2.48777453                0.12373470               -2.97493255               -1.44453937               19.99962550                4.21998978
              12.31413177                6.13553195               51.64244685                0.00010000                2.29740700                0.00589255               -3.13469329               -2.09383974               21.41256423                4.87973540
              13.33507781                5.73388484               51.61082601                0.00010000                1.68142244                0.28703653               -3.04248182               -2.79672589               22.58404138                4.82425715
              14.34776022                5.31807773               51.58465093                0.03010748                0.82914883                0.89907577               -2.71069904               -3.05289545               23.43767892                3.81114842
              15.35166078                4.89057618               51.56137093                0.24240055                0.48534270                1.03567883               -2.01593709               -1.19403374               12.15263769                1.32266343
              16.35746707                4.48620264               51.30261569                0.71747017                0.58062912                1.55084592               -3.10005417                0.17401809                0.40921916               -1.55019289
               6.55286428                9.25457888               52.25353361                0.94423764               -0.00153865               -0.19233033                0.51570538               -0.03715328                0.02527924                0.69863109
               7.55284889                8.92614813               52.01092729                0.32822041                0.13584570                0.22570609               -0.54199289                0.04707008                0.20398211               -0.66417094
               8.55558119                8.59772249               51.77185746                0.00010000                1.58958829                0.67706949               -1.56378149               -0.58547595               10.47462031               -2.28318310
               9.58464066                8.25457358               51.73393012                0.00010000                3.11819290                0.36195362               -2.21486032               -1.04975688               21.01479928                0.43405298
              10.61794505                7.89458218               51.69843755                0.00010000                3.43900436               -0.00231277               -2.71935964               -1.32444687               21.92205371                2.29764343
              11.65342075                7.52110614               51.66951025                0.00010000                3.49614352               -0.21765316               -3.03366384               -1.45640718               23.16541540                3.50415304
              12.68786792                7.13491214               51.64837694                0.00010000                3.20056314               -0.21593189               -3.10611185               -1.73359750               24.35137739                4.31844752
              13.71743201                6.73575548               51.63223141                0.00010000                2.58523845                0.01300549               -2.92195827               -2.15050266               25.00905499                4.82266369
              14.73957269                6.32342666               51.61407969                0.05353083                1.77912376                0.32852065               -2.55086334               -2.60388001               24.50992715                4.54987641
              15.75301448                5.89861958               51.57926791                0.27748717                1.01641198                0.75577457               -2.00287123               -1.27048217               12.09425011                1.02729548
              16.75990093                5.49855864               51.30640943                0.73549581                0.68864464                1.11196863               -2.99281474                0.05438263                0.18243096               -1.58897324
               6.87882216               10.25307574               52.17142698                0.93782316                0.08224748               -0.10524382                0.23715436               -0.03668278                0.00591249                0.69461967
               7.87964464                9.92874680               51.92194151                0.36107865                0.23088679                0.29011678               -0.80275384                0.05087962                0.06874029               -0.63289254
               8.88343990                9.60449277               51.67362366                0.00010000                2.25237001                0.66003252               -1.78626226               -1.03577809               12.24624837               -1.98593840
               9.92469204                9.25658120               51.66692329                0.00010000                4.39574453               -0.10857296               -2.42118122               -1.66308898               24.67332482                0.15988077
              10.97135479                8.89228460               51.65709582                0.00010000                4.74897636               -0.59437783               -2.88323772               -1.43731914               25.29107639                1.60570610
              12.01967156                8.51693346               51.65039257                0.00010000                4.67278464               -0.65119951               -3.12407365               -1.21899586               26.44498573                2.64220111
              13.06481048                8.13121331               51.65014435                0.00010000                4.19408343               -0.57350910               -3.08057924               -1.23427095               27.73922334                3.51368003
              14.10355323                7.73414495               51.65598009                0.00010000                3.40040202               -0.38923215               -2.68581993               -1.47482069               28.31043348                4.52521818
              15.13281852                7.32464815               51.65544138                0.07631973                2.37829622               -0.10740752               -2.05465205               -1.85553885               25.43411243                6.22955543
              16.15111916                6.90569168               51.59504586                0.30768450                1.29290326                0.70440283               -2.12769304               -1.10982525               11.42167748                0.94364736
              17.15867659                6.50844202               51.30883567                0.74516741                0.75574298                0.95634273               -3.00812291                0.03660768                0.09173988               -1.75325021
               7.20078850               11.25247401               52.08923350                0.90828521                0.16609590               -0.01349999               -0.04482897               -0.04082370                0.00541314                0.60070774
               8.20244945               10.93195046               51.83326764                0.40085702                0.31213681                0.35292239               -1.06930790                0.02043946                0.16504368               -0.52708811
               9.20703123               10.61092314               51.58035277                0.00010000                3.05687977                0.64950843               -2.02237029               -1.78869003               13.94979373               -1.20774257
              10.26358705               10.25240212               51.59933511                0.00010000                6.09075862               -1.19968727               -2.63734039               -1.78155921               27.83034115                0.09186876
              11.32884640                9.88269463               51.61079272                0.00010000                6.32625307               -1.22719423               -3.06272132               -1.06378319               28.32481664                0.88361707
              12.39011211                9.50808215               51.62344702                0.00010000                5.85623055               -1.10696060               -3.24107874               -0.65769553               29.56496089                1.50150375
              13.44597102                9.12344196               51.64326123                0.00010000                5.21943247               -0.96103272               -3.08392014               -0.64778930               31.25736737                2.08439584
              14.49450076                8.72797083               51.67371169                0.00010000                4.24720868               -0.84359081               -2.45857315               -0.81769481               33.30910627                2.96501637
              15.53091519                8.32127851               51.71980199                0.11031873                2.62616737               -0.42355567               -0.95923566               -0.89052861               26.91622977                5.30378164
              16.54702411                7.91270763               51.61154757                0.34998878                1.21086056                0.71358004               -2.32720453               -0.69748746                9.61299762                0.88066710
              17.55513240                7.51768550               51.31051805                0.74479411                0.81082921                0.93814236               -3.08686572                0.03430582               -0.08362322               -1.47474089
               7.51905277               12.25280574               52.00537352                0.95974482                0.25515207                0.03317291               -0.32789559                0.12637909                0.28949323                0.51110077
               8.52160430               11.93580525               51.74604359                0.74551538                0.40808322                0.38547842               -1.35059370                0.14934404                0.80993210               -0.43167097
               9.52721444               11.61748294               51.49692219                0.45967197                4.78425342                0.65597974               -2.30440021               -3.14256896               15.64137130               -0.67427304
              10.61728936               11.23258745               51.53329793                0.36878347                8.35923307               -1.98146677               -2.89245430               -2.11687982               30.30618150               -0.09028926
              11.69439910               10.86774071               51.55871290                0.36015441                7.42404782               -1.49539159               -3.28289196               -0.33439050               30.75044319                0.35918690
              12.76577032               10.49479425               51.58541699                0.36759155                6.87834537               -1.32878943               -3.40990324               -0.22158173               32.18516015                0.69800413
              13.83196601               10.11199266               51.62054660                0.39073626                6.17962322               -1.14493019               -3.18508694               -0.27655660               34.27345968                1.02271018
              14.88936278                9.71727313               51.67022426                0.42898573                4.91525718               -1.06976988               -2.42156694               -0.30457884               37.15547637                1.56859436
              15.93027115                9.31617703               51.74602457                0.57917609                2.56998179               -0.51014787               -0.74618771                0.07010333               29.31798629                3.17437700
              16.94076242                8.91996328               51.62680369                0.70406021                0.95679080                0.72556448               -2.54407349               -0.07477720               10.15152685                0.77203437
              17.94940697                8.52720486               51.32017424                0.87340288                0.86445469                0.95193649               -3.22621883                0.15161554                0.70758073               -1.16876017
               4.35198376                2.38242471               53.83306445                1.00000000               -0.69187860               -0.82550367                2.86242046               -0.23491033               -0.91260466                0.87530394
               5.34506497                2.01784397               53.61811585                1.00000000               -0.54251712               -0.42051516                1.59821174               -0.16806585               -1.20100092                0.14219370
               6.34113342                1.65239411               53.39757233                1.00000000               -0.25999959               -0.03247224                0.38634245               -0.18328635               -1.10016528               -0.20133146
               7.33986498                1.28423585               53.18414380                0.67508129               -0.29938377                0.43172298               -0.84905317               -0.36961384                0.31000387               -0.81457025
               8.33514574                0.91019583               52.99032750                0.68668544               -0.22698364                0.92795361               -1.95828280               -0.26793853                1.80299144                0.00770976
               9.33532531                0.53224694               52.80079394                0.64909433                0.28118648                1.21848283               -3.17937233               -0.24401042                2.35984828               -0.12069466
              10.34076947                0.14911215               52.61127755                0.45618065                0.65569761                1.66649039               -4.64411043               -0.41939529                3.45785646               -0.30443047
              11.34843926               -0.24049265               52.43487543                0.09991037               -2.77845354                2.27981488               -6.30580833               -4.27668906               11.15788945                0.28037627
              12.28520040               -0.71004229               52.38649252                0.00010000               -1.69931824                2.75486875               -7.31478651               -9.39712247               13.34425224               -5.39285203
              13.31445289               -1.30130781               52.32061884                0.94523908                1.80412409                0.44131415               -2.03987546              -12.70368378                5.90220532                0.25881000
              14.32128288               -1.63858415               52.13248523                1.00000000                0.68299859                0.67502221               -2.68658134               -0.23229060               -0.01496898               -0.46627730
               4.71421540                3.37416968               53.74915701                1.00000000               -0.58157858               -0.78242722                2.54993802               -0.01963736               -0.20190919                1.17289619
               5.70839961                3.01363882               53.53416648                1.00000000               -0.40553942               -0.38113003                1.28437598                0.04143628               -0.29873290                0.22540229
               6.70610461                2.65206939               53.31745550                1.00000000               -0.05658153                0.00845921                0.05211143                0.03581860               -0.17210063               -0.33368209
               7.70726798                2.28855308               53.10479512                0.48666082                0.11780986                0.45056359               -1.20107166               -0.14516318                1.67674429               -1.11567987
               8.70846081                1.91947536               52.92442091                0.54830007                0.30795287                0.85642629               -2.30734999               -0.10682552                3.01037550                0.05025437
               9.71342704                1.54443177               52.73699702                0.51017756                0.72422516                1.20833845               -3.51165654               -0.12011477                2.68138335               -0.08855649
              10.72294531                1.16577705               52.54682422                0.25271766                1.09112746                1.65887671               -4.89782898               -0.18350151                3.56431791               -0.46215253
              11.73524959                0.78230550               52.37258893                0.00010000               -0.06542797                2.14580391               -6.25716911               -4.48385409               12.33496664                0.89416250
              12.72163675                0.31750639               52.35310424                0.00010000               -4.17813023               -2.69135922               -2.29965230              -17.71162709               20.57957603                2.00336618
              13.65168699               -0.29689467               52.38298124                1.00000000               -3.27002185                0.32707951               -1.17423758              -13.88107707               11.03574691                0.42810895
              14.65623632               -0.63183393               52.19179685                1.00000000                0.45493301                0.58082786               -1.92057713               -0.12180952                0.05084571               -0.34328250
               5.07265273                4.36677617               53.67162187                1.00000000               -0.46587464               -0.69192380                2.19979590               -0.01848442                0.02312379                1.44736864
               6.06799399                4.01022137               53.45193124                1.00000000               -0.28586030               -0.29121829                0.95846889                0.03634188                0.11648133                0.23651466
               7.06693553                3.65256330               53.23435253                0.81856572                0.07808786                0.10299564               -0.27403220                0.00773735                0.34043684               -0.65375082
               8.06955574                3.29324712               53.01898671                0.00010000                0.50975070                0.50806807               -1.51087844               -0.28473947                3.20616565               -1.38387153
               9.07713054                2.92732435               52.85825150                0.00010000                0.85327890                0.75785598               -2.62012014               -0.84400930                4.44874345                0.44336208
              10.08662132                2.55641371               52.67191850                0.00010000                1.10475852                0.92868387               -3.86373683               -1.39422315                2.79783608                2.77891387
              11.09922571                2.18228968               52.47772022                0.00010000                1.02057584                0.83322611               -5.23460161               -2.35087479                4.66042352                6.06754689
              12.10703284                1.80242343               52.32682527                0.00010000               -4.45288442               -0.35461528               -4.95175106              -12.90297211               22.14675631               11.46641836
              13.01016802                1.23613052               52.48673871                0.09084849               -6.04305803               -2.39283571               -5.73895857              -20.79054904               28.40895838                8.38272879
              13.98617168                0.70523378               52.44644920                0.72306684               -1.07214049                0.10008321               -0.44185075               -9.86057725                7.83030945                0.51016148
              14.98872521                0.37303240               52.25168225                1.00000000                0.25535354                0.39614524               -1.23836561               -0.14033101                0.11262093               -0.24388143
               5.42695532                5.36033120               53.59350236                1.00000000               -0.36159898               -0.58769714                1.83798670               -0.03627561                0.14542919                1.26762565
               6.42333933                5.00781445               53.36818557                0.82011552               -0.18608546               -0.17814176                0.62353525                0.00524387                0.36351243               -0.03537516
               7.42323361                4.65412930               53.14744900                0.25724907                0.17364060                0.22702766               -0.56712345               -0.05360087                0.94839185               -1.12359692
               8.42681214                4.29871444               52.93356852                0.00010000                0.25902141                0.63922701               -1.82080343               -0.52981780                5.22063041               -1.34396795
               9.42841404                3.93463248               52.79768947                0.00010000                0.18825543                0.85243023               -2.69596581               -1.36467704                9.02724998                1.93609318
              10.43057725                3.56300544               52.66307500                0.00010000                0.07520320                0.70854101               -3.57513012               -2.28728714                9.72594592                5.70600430
              11.42991810                3.18244158               52.54221059                0.00010000               -0.36139680               -0.00275255               -4.10232953               -4.23062798               13.76472252               10.72749088
              12.42334931                2.77521319               52.48618026                0.00010000               -1.34513403               -1.96274585               -4.26161069              -10.29627958               21.51495779               14.07350730
              13.40301542                2.26964968               52.51114333                0.00010000               -5.28878765                3.00292327               -5.22309269              -13.42880423               24.02734325                2.75325801
              14.31757356                1.70510699               52.50994079                0.08507604               -4.25914867                5.93216632                0.33544352               -5.06816928               10.10461628               -4.26673718
              15.31783245                1.37608897               52.31287612                0.61122854                0.02588874                1.15150446               -0.60175976                5.53971137                0.32960574               -5.34359403
               5.77696072                6.35502223               53.51255140                1.00000000               -0.26599584               -0.47669495                1.48356658               -0.04770529                0.15341996                0.99131489
               6.77430076                6.00665853               53.28049460                0.50841247               -0.09986002               -0.04796952                0.26949974               -0.01370669                0.45794333               -0.43673596
               7.77496352                5.65710385               53.05465682                0.05930345                0.20777221                0.38497252               -0.90487552               -0.08018268                1.74038379               -1.66431271
               8.77845621                5.30603166               52.84782688                0.00010000                0.52912367                0.76589483               -1.95117435               -0.32969066                8.77692239                2.12368612
               9.78554599                4.94437296               52.76240826                0.00010000                0.73051388                0.83649822               -2.68405800               -0.82711650               14.11945599                3.44675250
              10.79306648                4.57058453               52.66261362                0.00010000                0.84297057                0.55773538               -3.33752369               -1.36912794               14.45966633                5.68588030
              11.80240541                4.18223463               52.58171506                0.00010000                1.04163291               -0.16841265               -3.70671387               -2.58342937               17.28802385                7.63015262
              12.81389914                3.76316851               52.53267325                0.00010000                0.46463641               -0.78347646               -3.79457759               -5.27154118               20.39545370                6.74267360
              13.81169813                3.29618899               52.50771586                0.00010000               -1.77650733                2.30176369               -3.15956488               -6.59686283               21.93005041                1.80483949
              14.77836900                2.82387711               52.47835241                0.12122276               -2.70713263                8.20365663               -4.21324051               -0.76087690               13.38500202               -2.20669917
              15.75755548                2.39606249               52.27092951                0.63595417               -2.08135154                3.49484817               -4.00580494                1.62446664                3.41856386               -7.04875823
               6.12272860                7.35079730               53.42902857                1.00000000               -0.17450284               -0.37399231                1.14488848               -0.03771036                0.01138327                0.78041072
               7.12098357                7.00685506               53.18873311                0.37976538               -0.02358866                0.06801964               -0.03486272               -0.00156842                0.42643935               -0.64189785
               8.12225683                6.66182875               52.95676189                0.00010000                0.59828231                0.54306045               -1.21023938               -0.12410511                6.18563926               -2.04777167
               9.13294922                6.31403234               52.83107617                0.00010000                1.25310056                0.72697719               -1.78975244               -0.12726437               13.05136829                3.68266973
              10.14731884                5.95136245               52.73412447                0.00010000                1.61918975                0.55811574               -2.72801925               -0.70722613               15.74452706                3.69967066
              11.16533301                5.57416015               52.65964004                0.00010000                1.91733472                0.20011447               -3.27513648               -1.27524295               17.84186604                4.96522823
              12.18566553                5.17907332               52.59968487                0.00010000                1.93155607               -0.27282749               -3.55785811               -2.37904088               19.80034196                5.69536112
              13.20396413                4.75954366               52.55702739                0.00010000                1.23520167               -0.13324358               -3.52682957               -4.09655821               21.85462700                5.02296570
              14.21036957                4.31568495               52.52830218                0.00010000               -0.07408103                1.59831998               -3.40449490               -4.46959411               23.69821000                3.10571326
              15.20248251                3.86918013               52.51212302                0.17854851               -0.22092815                3.00551073               -3.27182855               -1.39293223               13.10645503                1.94448575
              16.20595100                3.44598594               52.26315581                0.67431899                0.34684891                3.60895546               -3.83264523                1.12679391                1.50688273               -2.30833996
               6.46409100                8.34754238               53.34393778                0.96319223               -0.08530531               -0.28288727                0.83459252               -0.03816974                0.02549896                0.69866140
               7.46323794                8.00801893               53.09701676                0.32529189                0.06065729                0.15807988               -0.31508670                0.02283172                0.34122873               -0.64021811
               8.46530414                7.66796506               52.85639109                0.00010000                1.15696407                0.65204417               -1.47242546               -0.27918838                8.71528970               -2.20016246
               9.48637723                7.32057120               52.77627092                0.00010000                2.29847558                0.56367509               -2.21573882               -0.44054103               17.44907810                1.19901762
              10.51127365                6.95553527               52.70661064                0.00010000                2.67367618                0.26296060               -2.85011815               -0.95116884               18.97634200                3.13670762
              11.53985075                6.57458682               52.65123059                0.00010000                2.90837120               -0.07538575               -3.32034233               -1.45891646               20.74175881                4.18664001
              12.56944108                6.17677808               52.60938849                0.00010000                2.77527996               -0.24204253               -3.52354634               -2.24709339               22.42790892                4.80922245
              13.59535635                5.76050364               52.57856977                0.00010000                2.16143531                0.07727369               -3.48126006               -3.15341120               23.87609697                4.70529327
              14.61266979                5.32815539               52.55566306                0.02462965                1.24265092                0.88119205               -3.18988075               -3.53658489               25.08484328                3.76137053
              15.62020937                4.88398732               52.53987693                0.22798002                0.69049767                1.17135491               -2.38056112               -1.47301092               13.15479663                1.61316258
              16.62647974                4.46824160               52.27138305                0.70360354                0.62703718                1.74448985               -3.19968370                0.11861463                0.57132833               -1.09723824
               6.80101212                9.34513956               53.25886729                0.93671174                0.00054130               -0.19815726                0.55049564               -0.03814386                0.02421858                0.70208260
               7.80101753                9.01001666               53.00526077                0.31590979                0.15543324                0.23539740               -0.59011876                0.04662827                0.21932189               -0.63035095
               8.80412078                8.67486964               52.75551289                0.00010000                1.77753272                0.69702179               -1.70200264               -0.56970912               10.68992203               -2.19764060
               9.83656818                8.32530584               52.71055911                0.00010000                3.50795332                0.30719333               -2.46415071               -0.99954912               21.43811299                0.42532463
              10.87427985                7.95662166               52.66967970                0.00010000                3.91718445               -0.12351307               -3.04885029               -1.33459148               22.48425832                2.23857470
              11.91491187                7.57265244               52.63744386                0.00010000                4.02634991               -0.38386946               -3.41323442               -1.50692056               23.92687291                3.43384089
              12.95480684                7.17423247               52.61560419                0.00010000                3.73033673               -0.38499147               -3.50440488               -1.86219027               25.35919866                4.26326933
              13.98951861                6.76108914               52.60147737                0.00010000                3.06736697               -0.09597884               -3.31039440               -2.40156132               26.24607028                4.88652561
              15.01615418                6.33330879               52.58728674                0.05226548                2.17087358                0.29186737               -2.90165703               -2.96161313               25.98903796                4.83337201
              16.03293608                5.89260723               52.55908833                0.26938313                1.18302727                0.78131783               -2.07914813               -1.47716429               12.92311890                1.10457208
              17.03981473                5.48087573               52.27713215                0.72299278                0.68786515                1.09516502               -2.88980250                0.01919715                0.24150539               -1.28306684
               7.13357392               10.34357924               53.17394499                0.93110181                0.08665130               -0.11129581                0.26678068               -0.03841976                0.00698224                0.69802558
               8.13444043               10.01272687               52.91361941                0.34733162                0.25234318                0.30406801               -0.86066698                0.04935761                0.09804087               -0.60267952
               9.13862078                9.68190549               52.65502810                0.00010000                2.50968950                0.69186051               -1.93212468               -1.07464310               12.47184248               -1.91385994
              10.18463422                9.32671507               52.64139842                0.00010000                4.93072219               -0.19112816               -2.69306243               -1.69283293               25.09620779                0.16841325
              11.23723523                8.95306501               52.62660690                0.00010000                5.37336518               -0.74148643               -3.23765736               -1.47191984               25.86856183                1.56713412
              12.29210152                8.56690943               52.61739865                0.00010000                5.32626753               -0.81595004               -3.51617342               -1.25108430               27.24541010                2.58630148
              13.34376058                8.16907825               52.61780981                0.00010000                4.80736377               -0.73407549               -3.45024936               -1.28118272               28.84666912                3.51165478
              14.38824880                7.75858406               52.62821876                0.00010000                3.90794280               -0.51511619               -2.95164130               -1.57119608               29.70068839                4.73996597
              15.42191943                7.33399273               52.63475036                0.07949879                2.74251702               -0.20860290               -2.20542552               -2.00906024               26.57640768                7.12495833
              16.44309914                6.89961368               52.57418197                0.30566477                1.42036157                0.68541252               -2.07832234               -1.25767884               11.82673978                0.90402407
              17.45032666                6.49014490               52.27989241                0.73443503                0.72275231                0.88466219               -2.80135297                0.02361399                0.11548925               -1.55030169
               7.46194844               11.34291364               53.08889797                0.89901531                0.17299782               -0.02006421               -0.02097597               -0.04248511                0.00941683                0.60153882
               8.46367842               11.01609802               52.82222852                0.38315946                0.33456384                0.37256855               -1.13830901                0.01788308                0.20545231               -0.50912322
               9.46863972               10.68870685               52.55934766                0.00010000                3.39367923                0.68792616               -2.17559315               -1.90644212               14.19015186               -1.16816225
              10.53155201               10.32148327               52.57161060                0.00010000                6.80036851               -1.37491833               -2.92005505               -1.85845642               28.27007816                0.11119145
              11.60464709                9.94179193               52.57849107                0.00010000                7.11624676               -1.41901052               -3.42447523               -1.09171519               28.93562807                0.87016876
              12.67387694                9.55633344               52.58935311                0.00010000                6.64307335               -1.30399322               -3.62348572               -0.66041875               30.43337434                1.47516053
              13.73750856                9.15955096               52.61117871                0.00010000                5.96516310               -1.16578952               -3.39982425               -0.64563255               32.51461123                2.10073994
              14.79318020                8.75078681               52.64894895                0.00010000                4.87174020               -1.07103851               -2.58462200               -0.83834110               35.26939981                3.16795874
              15.83494336                8.32913674               52.71227285                0.11883579                2.92250635               -0.57460194               -0.67676431               -0.89018688               27.72614866                6.08108574
              16.85163033                7.90631548               52.58895668                0.35527118                1.21405969                0.67766328               -2.22521637               -0.76106900                9.20950785                0.80005734
              17.85922456                7.49856898               52.28105765                0.73623630                0.75942248                0.85256348               -2.82831673                0.02898541               -0.06128265               -1.33412032
               7.78635546               12.34317795               53.00216916                0.95431969                0.26494264                0.02643106               -0.31108902                0.14073095                0.28499795                0.51040578
               8.78900489               12.02017824               52.73214393                0.73496283                0.43756111                0.40802259               -1.42950623                0.15694975                0.84029587               -0.42190830
               9.79510668               11.69566402               52.47304148                0.45714915                5.26875608                0.69571706               -2.46445502               -3.40138082               15.89157502               -0.66131740
              10.89438001               11.29921670               52.50305153                0.36868054                9.27220379               -2.22665707               -3.16905511               -2.26616066               30.79823141               -0.04919194
              11.98055076               10.92468480               52.52430598                0.36015770                8.33770541               -1.71071298               -3.62414209               -0.32899020               31.43785473                0.38347257
              13.06113412               10.54082956               52.54982326                0.36735810                7.79218956               -1.55038727               -3.75262014               -0.22039935               33.14270605                0.72180755
              14.13639455               10.14576246               52.58775269                0.38977501                7.03810435               -1.37884989               -3.43755146               -0.29471451               35.65293194                1.07995595
              15.20189620                9.73716329               52.64638796                0.42720917                5.60962397               -1.36235213               -2.43182847               -0.29148843               39.25370660                1.76733431
              16.24858703                9.32250070               52.74110723                0.58533256                2.82746567               -0.66360408               -0.39697261                0.16454936               29.91583944                3.55921011
              17.25844552                8.91316694               52.60226298                0.70903940                0.89061685                0.68514665               -2.39667324               -0.08370748                9.44400277                0.70072887
              18.26639937                8.50719617               52.28954258                0.86964100                0.79538492                0.86271945               -2.92116120                0.12040411                0.69032978               -1.04933149
               4.56447261                2.47642171               54.86206109                1.00000000               -0.69752124               -0.84283107                2.92355620               -0.24755763               -0.85026566                0.83203857
               5.55749740                2.10474541               54.63412732                1.00000000               -0.53242436               -0.42139816                1.59835303               -0.18203970               -1.10903038                0.13476356
               6.55382412                1.73221971               54.40108177                1.00000000               -0.21133731               -0.01609365                0.31734072               -0.19326179               -0.99883686               -0.18979709
               7.55327065                1.35733347               54.17486464                0.66824291               -0.11986422                0.45151373               -0.99655685               -0.32800645                0.41458931               -0.78623246
               8.55142684                0.97802232               53.96881473                0.66568282                0.07757400                0.97288869               -2.30528345               -0.27172304                1.83841409                0.03425439
               9.55482213                0.59637883               53.76617769                0.61428213                0.62149585                1.30317034               -3.67111875               -0.23280353                2.17900274               -0.13249570
              10.56385676                0.21134994               53.56155018                0.39929577                1.03660081                1.73147793               -5.17235847               -0.30873008                3.04733083               -0.37310121
              11.57555415               -0.17679738               53.37086918                0.00010000               -4.92326957                2.05501538               -6.37055121              -11.83116976                9.94984478                0.08151958
              12.46539136               -0.79645156               53.30071761                0.00010000               -3.62650406                2.40682030               -6.86311155              -13.54685450               14.91423021               -2.74974171
              13.50302407               -1.36494352               53.29707645                0.85852541                2.37857443                0.60415564               -3.08382064              -11.20607669                9.17267666                0.29089148
              14.51296285               -1.70704084               53.10263279                1.00000000                0.99387864                0.83687496               -3.76372804               -0.32226922                0.08671311               -0.71613966
               4.93367333                3.46799340               54.77500206                1.00000000               -0.58953323               -0.79718527                2.60690499               -0.02483190               -0.17444500                1.11874696
               5.92777800                3.10053143               54.54701555                1.00000000               -0.40379300               -0.38049886                1.28073984                0.03558003               -0.25000491                0.21512256
               6.92559747                2.73205877               54.31762507                1.00000000               -0.03443592                0.02602407               -0.01575656                0.03301084               -0.11719192               -0.31969404
               7.92708928                2.36184861               54.09205543                0.48053783                0.17947288                0.47696240               -1.33968526               -0.07821866                1.76747064               -1.07016135
               8.92918693                1.98775120               53.89971911                0.52950843                0.43705018                0.93498844               -2.61862100               -0.09515747                3.13337717                0.08521150
               9.93583029                1.60941053               53.69965560                0.47799492                0.90853140                1.30427044               -3.92657430               -0.09510520                2.70302217               -0.13238609
              10.94735756                1.22866471               53.49563074                0.20343588                1.26564558                1.73055966               -5.30170544               -0.19309456                3.66657275               -0.59684702
              11.96114320                0.84375277               53.31131480                0.00010000               -1.16808364                1.71092771               -6.01058320              -12.26173322               15.64981069                1.35937454
              12.92399589                0.22761664               53.34501837                0.00010000               -5.74426288                1.39175942               -2.85959559              -21.29588532               23.62148400                0.06993098
              13.84625794               -0.35890196               53.37017049                0.94845258               -3.60792004                0.42042058               -1.54884862              -12.15487050               11.13229681                0.51306822
              14.85183749               -0.69867209               53.17162042                1.00000000                0.55795451                0.66832794               -2.30011148               -0.18703811                0.13437903               -0.45911435
               5.29889991                4.46047800               54.69395178                1.00000000               -0.47562883               -0.70157896                2.25551533               -0.02293316                0.04397227                1.37395243
               6.29414362                4.09713543               54.46149793                1.00000000               -0.28663776               -0.28940949                0.95159988                0.03411927                0.14741618                0.21731169
               7.29316716                3.73274019               54.23125378                0.81354730                0.09351106                0.11985463               -0.34247835                0.01810543                0.37453219               -0.62472847
               8.29601385                3.36687272               54.00316603                0.00010000                0.43973054                0.54089699               -1.64542953               -0.15059381                3.28943972               -1.32782346
               9.30196177                2.99672208               53.83078173                0.00010000                0.79963347                0.77048859               -2.89955676               -0.67034195                4.62143474                0.58468979
              10.31200651                2.62246423               53.63152814                0.00010000                1.18454271                0.80461435               -4.22693044               -1.22010073                2.92537045                3.01804807
              11.32565262                2.24596113               53.42377269                0.00010000                0.96805200                0.43621555               -5.57792608               -2.45595161                5.81210025                6.60783903
              12.33136755                1.85742117               53.28000667                0.00010000               -4.17621168               -1.69543026               -4.08869629              -15.68603146               23.19242731               11.42692355
              13.24212839                1.23138363               53.42679874                0.06895553               -7.25760819                2.68582047               -5.82360329              -25.03515765               31.57039923                4.86523140
              14.18621539                0.64346489               53.44207687                0.65043026               -2.66830176                0.09290484               -0.45286522              -12.44968178               11.06568273                0.51148154
              15.18876235                0.30632572               53.23945298                1.00000000                0.25469624                0.38849610               -1.29704343               -0.16348471                0.21395923               -0.44884650
               5.65989981                5.45396182               54.61219185                1.00000000               -0.37016128               -0.59388951                1.89106770               -0.03758934                0.16325250                1.19403538
               6.65619820                5.09474324               54.37436769                0.79887341               -0.18387598               -0.17782306                0.61068799                0.01144893                0.39645876               -0.06824070
               7.65622229                4.73445586               54.14133631                0.24275520                0.19486550                0.23787323               -0.64607039               -0.02501318                0.96225721               -1.10072372
               8.66009551                4.37266655               53.91457949                0.00010000                0.19831415                0.66999758               -1.95861491               -0.44726465                5.38982997               -1.19894443
               9.66018858                4.00316097               53.76957300                0.00010000                0.10468585                0.74063994               -2.92109303               -1.18873880                9.38979361                2.14264292
              10.66218923                3.62550282               53.62590818                0.00010000                0.15465068                0.34529177               -3.86011583               -2.17545349               10.36519703                6.10862065
              11.66328159                3.23738903               53.50016931                0.00010000               -0.00945789               -0.85789597               -4.28376999               -4.71719728               14.88924001               11.32647788
              12.66200007                2.80984417               53.44256750                0.00010000               -1.30162902               -3.25043071               -4.37501114              -11.28870946               22.34808262               13.65296281
              13.63724901                2.28133305               53.45709948                0.00010000               -6.98389267                3.50066827               -5.20090719              -17.20105671               27.44126087                2.70081696
              14.52232222                1.64295614               53.51344145                0.06198745               -5.72014318                7.55950078                0.36735043               -6.04736128               13.48050335               -7.27790538
              15.52284615                1.30909783               53.30652036                0.60334539                0.05239303                1.94348842               -0.77670170                7.38251375                0.36157748               -7.76084204
               6.01658529                6.44860021               54.52765767                1.00000000               -0.27067303               -0.48094265                1.53213558               -0.04496701                0.14344473                0.92931318
               7.01387856                6.09357897               54.28309388                0.49304434               -0.09208529               -0.05043819                0.24898194               -0.00018088                0.47018002               -0.45464991
               8.01474358                5.73749765               54.04513935                0.04761738                0.22424418                0.38468386               -0.98507082               -0.03447785                1.84166757               -1.64443710
               9.01836344                5.38027267               53.82768778                0.00010000                0.53035712                0.76072836               -2.04946821               -0.27996849                9.08249762                2.45016785
              10.02535072                5.01153488               53.73440748                0.00010000                0.79529762                0.68573535               -2.90745294               -0.74423761               14.61620238                3.57530196
              11.03426939                4.62937007               53.62789233                0.00010000                1.08083014                0.19081110               -3.60560361               -1.40656741               15.20080725                5.81118022
              12.04696733                4.22880321               53.54315541                0.00010000                1.36899729               -0.81804728               -4.01095498               -2.96382940               18.36338077                7.56893370
              13.06164934                3.79241256               53.49276972                0.00010000                0.90139782               -1.26333117               -4.17217521               -6.25093689               21.92672954                6.35545893
              14.06499528                3.30139699               53.47300565                0.00010000               -1.20729758                1.91395771               -3.78885486               -7.94080725               22.70892900                1.62359071
              15.03750339                2.79465491               53.42908163                0.10188846               -3.04330212               10.61575295               -5.23126087               -0.31140957               13.94700543               -5.66861032
              16.00412924                2.34519549               53.22757743                0.62922608               -3.33741465                5.59117796               -4.68253802                2.69902832                4.71745236              -10.30193734
               6.36904296                7.44434296               54.44067675                0.99577182               -0.17458160               -0.37716764                1.17930490               -0.03732628                0.01250642                0.74219464
               7.36729714                7.09373447               54.18824045                0.36777148               -0.01019612                0.06608462               -0.06145888                0.00730622                0.42948506               -0.62363244
               8.36883903                6.74214954               53.94414804                0.00010000                0.65808842                0.53497389               -1.30093297               -0.09852173                6.45228787               -1.99632461
               9.38045891                6.38788111               53.81167900                0.00010000                1.36836950                0.67834307               -2.06757265               -0.11642078               13.41687838                3.75276568
              10.39620642                6.01687568               53.70554046                0.00010000                1.81653213                0.39874459               -2.98344196               -0.74846757               16.16619705                3.67933893
              11.41678955                5.62931904               53.62531537                0.00010000                2.23780448               -0.10772802               -3.59705802               -1.44650039               18.57422554                4.84570730
              12.44096251                5.22102808               53.56220539                0.00010000                2.37989973               -0.65030614               -3.96244741               -2.81790284               20.83202977                5.42262702
              13.46438755                4.78457754               53.51938243                0.00010000                1.76139983               -0.44359126               -4.06006057               -4.83700176               23.06388443                4.56558212
              14.47619051                4.31961221               53.49091461                0.00010000                0.39539926                1.64617923               -4.16047360               -5.30758491               24.84197282                2.31147490
              15.47229553                3.85527120               53.47350976                0.15703942               -0.02224747                4.06096098               -4.67071993               -1.85787399               14.04164845                2.31852583
              16.47574556                3.42092139               53.22210226                0.66187255                0.34500294                5.25430312               -4.59584620                1.65262660                2.23780684               -2.51492433
               6.71705575                8.44105686               54.35245527                0.95221045               -0.08376396               -0.28648153                0.86769043               -0.03968328                0.03297539                0.69284335
               7.71621811                8.09490066               54.09367302                0.31472997                0.07853793                0.16019946               -0.35215642                0.02164277                0.34274833               -0.61010801
               8.71862650                7.74819713               53.84106517                0.00010000                1.25453890                0.64915643               -1.58141090               -0.29094382                8.91166081               -2.12495555
               9.74130888                7.39383953               53.75297284                0.00010000                2.51584730                0.50357290               -2.43914099               -0.49550787               17.85158711                1.05157100
              10.76894345                7.01950977               53.67654531                0.00010000                2.99390512                0.12408657               -3.16460484               -1.10424855               19.48451163                2.98455137
              11.80118699                6.62721551               53.61617699                0.00010000                3.32036579               -0.28520749               -3.70873831               -1.72342609               21.44189211                3.95503084
              12.83535077                6.21579709               53.57197593                0.00010000                3.25690957               -0.46359308               -4.00432587               -2.68094545               23.35979112                4.49770986
              13.86632518                5.78354073               53.54120081                0.00010000                2.63995828               -0.03702720               -4.07562094               -3.75965982               25.03848452                4.33502253
              14.88814993                5.33432058               53.52085332                0.01628966                1.63557735                1.06973005               -3.90711528               -4.10573126               26.64704760                3.52705439
              15.89903673                4.87587413               53.51375971                0.20915964                0.88657270                1.55673866               -3.02695464               -1.73515521               14.20436241                2.18342723
              16.90588139                4.45028155               53.23862201                0.68904550                0.68446608                2.17332800               -3.48285077                0.08563392                0.86089943               -0.61942839
               7.06056169                9.43861333               54.26454352                0.92870421                0.00280392               -0.20256456                0.58471224               -0.03962618                0.02263388                0.71271660
               8.06058973                9.09693846               53.99912492                0.30505371                0.17598011                0.24123991               -0.63590168                0.04117856                0.23048904               -0.60089900
               9.06408129                8.75513267               53.73781741                0.00010000                1.93231913                0.70918362               -1.83066004               -0.62573283               10.88232394               -2.11941487
              10.09923611                8.39795257               53.68464711                0.00010000                3.83320942                0.25292265               -2.71879632               -1.10233765               21.81423719                0.33872479
              11.14074548                8.01935741               53.63746054                0.00010000                4.33988055               -0.23469332               -3.40719456               -1.52776732               22.99609162                2.04979416
              12.18603372                7.62361489               53.60124556                0.00010000                4.51364531               -0.52326353               -3.85874900               -1.77056575               24.62987684                3.19196903
              13.23101838                7.21175622               53.57828885                0.00010000                4.23185700               -0.49626022               -4.02180863               -2.21024503               26.29877642                4.03106277
              14.27067086                6.78383700               53.56602352                0.00010000                3.53620525               -0.10340236               -3.88449542               -2.82240708               27.41354541                4.82902078
              15.30174249                6.34100681               53.55604655                0.04862443                2.54802998                0.39203142               -3.47205577               -3.35987485               27.52913259                5.08346169
              16.32163146                5.88640597               53.53768495                0.25651111                1.34504578                0.90148371               -2.28416298               -1.65718423               13.85428846                1.29141249
              17.32864340                5.46438795               53.24861338                0.70874857                0.70119451                1.16144658               -2.87606471               -0.01759650                0.34074134               -0.94352212
               7.39961297               10.43700557               54.17676260                0.92402631                0.09093766               -0.11663592                0.29703147               -0.04030866                0.00795715                0.70724874
               8.40052234               10.09972546               53.90472817                0.33402499                0.27423851                0.31525086               -0.91658456                0.04471606                0.12644241               -0.57882847
               9.40509774                9.76238080               53.63498117                0.00010000                2.72575222                0.72069231               -2.07451533               -1.17282842               12.67194755               -1.84977899
              10.45503739                9.39889798               53.61306204                0.00010000                5.38140265               -0.24898654               -2.98118695               -1.84779015               25.45882063                0.11128452
              11.51272579                9.01481591               53.59234268                0.00010000                5.91697392               -0.84792407               -3.63753094               -1.65383865               26.38723141                1.42158191
              12.57337687                8.61675024               53.58006910                0.00010000                5.90989832               -0.92270674               -3.99594147               -1.44428941               27.99463392                2.40103664
              13.63092376                8.20587188               53.58113936                0.00010000                5.36247912               -0.81211705               -3.96307063               -1.48142695               29.93569608                3.39698381
              14.68062645                7.78147268               53.59694726                0.00010000                4.37298543               -0.53380955               -3.41262782               -1.77934566               31.08286753                4.92943483
              15.71838346                7.34216121               53.61133287                0.08117472                3.09427255               -0.22317254               -2.61132422               -2.19404676               27.78010914                8.21195233
              16.74251190                6.89390380               53.55347941                0.29953625                1.55910154                0.71109007               -2.11178078               -1.39263602               12.30124691                0.87466965
              17.74956549                6.47351048               53.25280861                0.72120481                0.70535961                0.84824894               -2.64905318                0.01373796                0.15049010               -1.34957794
               7.73431573               11.43628061               54.08881398                0.89014714                0.17930828               -0.02670460                0.00549502               -0.04420247                0.01249790                0.60734129
               8.73610881               11.10324348               53.81050146                0.36495642                0.35682330                0.39054025               -1.20548061                0.01407243                0.25100317               -0.49754662
               9.74145219               10.76954651               53.53684091                0.00010000                3.68681938                0.72440724               -2.32691870               -2.06150158               14.40995490               -1.13440706
              10.80984520               10.39297284               53.54093401                0.00010000                7.41821278               -1.50881176               -3.22729675               -2.00977381               28.64747431                0.09451093
              11.88981645               10.00239893               53.54230321                0.00010000                7.81233791               -1.55177768               -3.84332768               -1.20767070               29.49229174                0.79544407
              12.96609196                9.60516075               53.55097730                0.00010000                7.34254739               -1.42300658               -4.10806286               -0.75420943               31.27200512                1.37507523
              14.03666740                9.19551388               53.57526475                0.00010000                6.63513321               -1.27140259               -3.87261412               -0.72318804               33.80844872                2.05978777
              15.09879462                8.77316081               53.62201925                0.00010000                5.43815178               -1.18654432               -2.91844077               -0.92572968               37.40938636                3.38426525
              16.14543043                8.33654336               53.70626670                0.12808847                3.18174219               -0.62343647               -0.60548741               -0.91017891               28.55620223                7.01353986
              17.16242946                7.90062777               53.56704324                0.35760257                1.21371889                0.67307247               -2.20751868               -0.82476002                8.68479921                0.70435065
              18.16970481                7.48135293               53.25395172                0.72439964                0.72753464                0.78689498               -2.61788932                0.02695963               -0.03011146               -1.20795305
               8.06480319               12.43647148               53.99915174                0.94868366                0.27347026                0.01908604               -0.28970796                0.15522499                0.28189581                0.51378141
               9.06753789               12.10753626               53.71745346                0.72410327                0.46675759                0.42927857               -1.50521634                0.16278166                0.88359350               -0.41797854
              10.07413834               11.77686895               53.44763309                0.45459690                5.72258013                0.73224329               -2.61946740               -3.67211107               16.13516121               -0.65181376
              11.18198949               11.36872175               53.46991683                0.36854822               10.11230618               -2.42510927               -3.47092819               -2.44000008               31.25160065               -0.01548584
              12.27638446               10.98378035               53.48623006                0.36029462                9.15941181               -1.86185763               -4.02333044               -0.36478068               32.10086888                0.38695493
              13.36517773               10.58829011               53.51036459                0.36712831                8.60377382               -1.68706462               -4.19791417               -0.25824888               34.10067266                0.72050344
              14.44845994               10.18044383               53.55179557                0.38874204                7.79523224               -1.50700474               -3.84515412               -0.34816110               37.11031040                1.12270796
              15.52108238                9.75774180               53.62158769                0.42566077                6.21264909               -1.54190088               -2.64104457               -0.30879222               41.51357104                2.00503477
              16.57271292                9.32969248               53.73808512                0.59246763                3.00623759               -0.68508793               -0.31362959                0.20942171               30.48399672                3.90055512
              17.58120713                8.90736525               53.57887022                0.71267044                0.79707245                0.67374833               -2.33331399               -0.14443869                8.62446537                0.62580722
              18.58865437                8.48924838               53.26175102                0.86379826                0.74472450                0.78954512               -2.65871218                0.08326865                0.68777999               -0.94062262
               4.79084599                2.57318356               55.89153558                1.00000000               -0.69823079               -0.85296278                2.95841811               -0.25672820               -0.79421695                0.79379166
               5.78386368                2.19476277               55.65008291                1.00000000               -0.52133173               -0.41921161                1.58784628               -0.19231683               -1.02820578                0.12880644
               6.78041936                1.81551158               55.40391914                1.00000000               -0.17199387               -0.00080829                0.25377546               -0.20150278               -0.91960355               -0.17579808
               7.78042381                1.43412963               55.16421266                0.65854102                0.00908048                0.47188356               -1.12099146               -0.31201609                0.43705701               -0.75788338
               8.78060097                1.04907216               54.94422183                0.64349427                0.28730531                1.01404337               -2.57237516               -0.28169907                1.73930966                0.05081230
               9.78616991                0.66264122               54.72737156                0.58012149                0.82118150                1.37923821               -4.02457113               -0.23856416                1.93048220               -0.15548421
              10.79702460                0.27348900               54.50783038                0.34434201                1.10494033                1.81286025               -5.51139283               -0.36043977                2.88043001               -0.48086521
              11.80826872               -0.11975351               54.30746441                0.00010000               -6.98734340                2.01090055               -6.35207178              -17.29743611               10.70794279               -0.15528684
              12.65727773               -0.85363863               54.24923029                0.00010000               -5.61387335                4.64625213               -5.70643303              -18.30292604               16.83378535               -0.05751936
              13.69599125               -1.44167806               54.25894242                0.77304080                2.73133723                1.00443362               -5.02478170              -11.68821790                9.91562516                0.60040410
              14.71190447               -1.79088222               54.05721067                1.00000000                1.59132211                1.30458019               -5.85524105               -0.50846006                0.11575721               -0.76701384
               5.16669950                3.56465393               55.80129511                1.00000000               -0.59229968               -0.80590707                2.63999017               -0.02863449               -0.14883925                1.07095320
               6.16077651                3.19057065               55.55978128                1.00000000               -0.39893002               -0.37736505                1.26861074                0.03130931               -0.20548746                0.20636958
               7.15872090                2.81550350               55.31714037                1.00000000               -0.01265748                0.04229502               -0.07724011                0.03082625               -0.07370579               -0.30449753
               8.16052336                2.43884846               55.07800141                0.47085596                0.24036396                0.50184796               -1.45886693               -0.04490592                1.78997622               -1.02411453
               9.16352818                2.05921260               54.87204849                0.50966578                0.55262477                1.00460437               -2.89933891               -0.09093528                3.15689935                0.10939888
              10.17157585                1.67643360               54.65846553                0.44844868                1.05446899                1.39404372               -4.28967528               -0.08135665                2.69633166               -0.19289377
              11.18461756                1.29161761               54.44079011                0.15897407                1.36411631                1.82094464               -5.66418684               -0.30567548                4.09339297               -0.77100384
              12.19885818                0.90035550               54.25237726                0.00010000               -2.47034082                0.97313543               -5.81432741              -16.96035541               17.20223619                2.22799821
              13.13521074                0.19282389               54.29591233                0.00010000               -7.55636562                3.74963365               -5.11297834              -25.48805720               27.08751771                3.06873227
              14.04773087               -0.43163372               54.35200427                0.77905700               -3.95933556                0.69352526               -2.60647884              -13.59102345               13.04354154                0.83115697
              15.05602403               -0.77783641               54.14579462                1.00000000                0.82931681                1.00188760               -3.49730227               -0.30288483                0.39610968               -0.51387409
               5.53843986                4.55706542               55.71673217                1.00000000               -0.47995582               -0.70739589                2.29010743               -0.02653535                0.06534700                1.30750821
               6.53364030                4.18721547               55.47096324                1.00000000               -0.28408939               -0.28584786                0.93870932                0.03198016                0.17891014                0.19778724
               7.53275808                3.81635748               55.22750296                0.80896514                0.10881434                0.13628793               -0.40274094                0.02485806                0.40632637               -0.59894261
               8.53581659                3.44416658               54.98607812                0.00010000                0.42195246                0.56826675               -1.75527749               -0.06722728                3.30851928               -1.27165090
               9.54119712                3.06916425               54.80026037                0.00010000                0.81605896                0.73234968               -3.22416361               -0.61457255                4.73114816                0.75387610
              10.55213777                2.69052209               54.58737989                0.00010000                1.28960314                0.61900343               -4.61762661               -1.17736606                3.05795148                3.27583564
              11.56698919                2.30990790               54.36616169                0.00010000                0.78587798               -0.10145958               -5.95819543               -3.21934355                7.76312786                7.20529172
              12.56785533                1.89970920               54.24505134                0.00010000               -4.37416907               -3.24230512               -2.60225291              -18.70156203               24.28954148               10.36222948
              13.47950581                1.22135404               54.37026664                0.04838999               -8.65121224                4.23176094               -5.15827184              -29.08804093               33.56704446                4.11533924
              14.39483109                0.57219245               54.43739190                0.58879946               -4.06268199                0.20889221               -0.71698506              -15.10833145               14.25392931                0.49212847
              15.39825217                0.22915554               54.22574138                1.00000000                0.34210799                0.52920508               -1.94391905               -0.15958413                0.52694630               -0.96526796
               5.90586870                5.55050601               55.63132371                1.00000000               -0.37446528               -0.59709097                1.92629179               -0.03936476                0.18187055                1.12635503
               6.90212405                5.18485370               55.38039933                0.77398441               -0.18008759               -0.17613491                0.59459879                0.01528102                0.43204194               -0.10422011
               7.90226695                4.81822926               55.13452759                0.22760637                0.21239985                0.25229463               -0.70787816               -0.00975057                0.98288771               -1.08163997
               8.90637204                4.45021380               54.89439622                0.00010000                0.13071385                0.68844621               -2.05638041               -0.46741132                5.53877751               -1.03027026
               9.90488122                4.07385959               54.73926761                0.00010000                0.04564205                0.53736443               -3.11675839               -1.24658788                9.70586282                2.36380850
              10.90728488                3.68881367               54.58587268                0.00010000                0.30811772               -0.15605785               -4.12556208               -2.40371221               11.04796744                6.51341431
              11.91104358                3.28958841               54.45653519                0.00010000                0.30479552               -1.91653372               -4.40559304               -5.77489119               16.12838161               11.80521544
              12.91338079                2.83550940               54.39868004                0.00010000               -1.50384491               -4.31232226               -4.35682782              -12.87005758               23.27403715               12.19505695
              13.88096668                2.27745911               54.40712519                0.00010000               -8.78090273                3.67458146               -4.61844895              -20.64531400               30.80182216                1.84601397
              14.73776274                1.57254412               54.51728780                0.04820753               -7.10302517                8.91220723                0.35134682               -6.84025899               16.86154751              -10.79182094
              15.73890618                1.23274769               54.29734209                0.60517927                0.11434370                2.26431563               -1.26087872                8.85339457                0.46742911              -10.74409425
               6.26895721                6.54512360               55.54319411                1.00000000               -0.27345241               -0.48312108                1.56749458               -0.04395237                0.13155738                0.86744400
               7.26622268                6.18369277               55.28547423                0.47725987               -0.08771216               -0.05252154                0.22637350                0.01288524                0.49007769               -0.47358013
               8.26720296                5.82140338               55.03495540                0.03561074                0.23076753                0.38735903               -1.04955792               -0.00800862                1.98096503               -1.63034534
               9.27083803                5.45793551               54.80683752                0.00010000                0.52312659                0.67944010               -2.08674247               -0.39847574                9.36911761                2.69706803
              10.27766550                5.07991154               54.70425920                0.00010000                0.87483346                0.44759018               -3.09603168               -0.92046972               15.06185307                3.63935939
              11.28833470                4.68740093               54.59050155                0.00010000                1.35650690               -0.30120139               -3.85003386               -1.77333042               15.92555878                5.82612808
              12.30479563                4.27157722               54.50149596                0.00010000                1.71243925               -1.54415365               -4.30686035               -3.83713397               19.38841819                7.23229576
              13.32258349                3.81346276               54.44922975                0.00010000                1.23845827               -1.65425928               -4.51459368               -7.67898714               23.27022663                5.48008097
              14.32956480                3.29484567               54.43193876                0.00010000               -0.99230811                1.83038396               -4.38690898               -9.54555776               23.22490047                0.51793126
              15.30273733                2.75043659               54.37372719                0.08657640               -3.73259340               12.91642237               -5.64251145               -0.30193644               14.13796661              -10.22512480
              16.25491293                2.27444185               54.17727875                0.62865224               -4.78243942                7.59475912               -5.54456627                3.13132347                5.97317605              -14.41749253
               6.62785131                7.54084359               55.45261467                0.97867619               -0.17493367               -0.37955621                1.21311252               -0.03614294                0.02590538                0.70768541
               7.62610198                7.18380326               55.18750394                0.35685057                0.00063617                0.06197651               -0.08618272                0.01965861                0.44306740               -0.60893578
               8.62786404                6.82597644               54.93074323                0.00010000                0.68961946                0.51966018               -1.37391179               -0.14830420                6.66840182               -1.95650894
               9.63989436                6.46380260               54.78972471                0.00010000                1.45711843                0.53495035               -2.28783556               -0.30371227               13.75708259                3.71498244
              10.65700640                6.08281139               54.67445563                0.00010000                2.01291138                0.16973407               -3.21142027               -1.04593600               16.59838933                3.53919095
              11.68015259                5.68278964               54.58769888                0.00010000                2.56163354               -0.48218414               -3.91420910               -1.95913899               19.24634855                4.54609144
              12.70823908                5.25870534               54.52043593                0.00010000                2.81900065               -1.04641981               -4.39388682               -3.67739901               21.73884604                4.87888596
              13.73653261                4.80242421               54.47582618                0.00010000                2.24213071               -0.64498807               -4.67812124               -5.99866975               24.02827819                3.71681818
              14.75308169                4.31406679               54.44509270                0.00010000                0.77976128                1.93594316               -5.05965342               -6.40322985               25.37309547                1.10967816
              15.75212783                3.83087257               54.41870862                0.13368510                0.02202232                5.65220416               -6.47864193               -2.28166606               14.79430577                1.93468698
              16.75352214                3.38464287               54.17123889                0.65124433                0.13943049                7.74500326               -5.95793111                2.33003890                3.39602385               -3.48894072
               6.98231501                8.53753248               55.36129159                0.94065891               -0.08319953               -0.28785144                0.90535192               -0.03748367                0.04425844                0.69914408
               7.98148301                8.18493230               55.08997363                0.30590962                0.09612706                0.15701349               -0.38789554                0.02577721                0.34996342               -0.58800606
               8.98423755                7.83179658               54.82476287                0.00010000                1.32229112                0.62944525               -1.67155749               -0.39583757                9.08598678               -2.06651523
              10.00792883                7.46863452               54.72748810                0.00010000                2.67610936                0.40942641               -2.64299925               -0.75874639               18.20363704                0.85802246
              11.03775973                7.08330622               54.64331854                0.00010000                3.26645710               -0.04956096               -3.46829907               -1.51402193               19.93846556                2.68744533
              12.07325797                6.67775725               54.57705582                0.00010000                3.69266736               -0.50949677               -4.11723540               -2.30644421               22.05173465                3.52239148
              13.11161308                6.25064883               54.52930198                0.00010000                3.69953370               -0.65075251               -4.55834440               -3.47144584               24.13705996                3.93203131
              14.14724865                5.80056300               54.49705735                0.00010000                3.07193805               -0.02505572               -4.82695977               -4.67925450               25.97135579                3.68348504
              15.17305184                5.33356453               54.47752076                0.00467116                1.96396355                1.52158438               -4.93063889               -4.75443013               28.02577724                3.03448824
              16.18652792                4.86348068               54.47933783                0.18541087                1.04606353                2.39215972               -4.24835340               -1.94477157               15.34581856                3.03971256
              17.19397311                4.42934191               54.20172604                0.67389318                0.74451930                3.15879109               -4.16688503                0.14865127                1.44341076               -0.03648621
               7.33230199                9.53508656               55.27056153                0.91989775                0.00514259               -0.20393616                0.61759794               -0.03995716                0.02038337                0.73175026
               8.33235342                9.18694353               54.99254274                0.29559313                0.19715389                0.24207297               -0.67872513                0.03732380                0.24153295               -0.57908647
               9.33624507                8.83856534               54.71889969                0.00010000                2.04281895                0.70449200               -1.94379221               -0.77320494               11.04589797               -2.06085762
              10.37320980                8.47199113               54.65618319                0.00010000                4.06790808                0.20096730               -2.96810319               -1.41124376               22.12382791                0.16303742
              11.41760323                8.08182017               54.60153581                0.00010000                4.67356535               -0.33261207               -3.77893579               -1.95891815               23.42488793                1.71675291
              12.46668110                7.67259970               54.56026888                0.00010000                4.92005915               -0.62794175               -4.35682127               -2.30951700               25.21828763                2.75780638
              13.51600441                7.24569029               54.53516801                0.00010000                4.66753535               -0.53033981               -4.65963603               -2.83466749               27.08407079                3.58811635
              14.56003181                6.80192310               54.52378746                0.00010000                3.95354967                0.03070134               -4.68078656               -3.43639126               28.42626364                4.60234883
              15.59507541                6.34449847               54.51784563                0.04218023                2.87116038                0.72235497               -4.35289869               -3.76348548               29.12869053                5.24694744
              16.61745502                5.87871577               54.51340507                0.23768154                1.48486401                1.21340510               -2.73377374               -1.77796819               14.94294679                1.69479670
              17.62477269                5.44781869               54.21961085                0.69221157                0.73176695                1.42365477               -3.04206117               -0.05445965                0.52785334               -0.47027549
               7.67780192               10.53345375               55.17988562                0.91681641                0.09487852               -0.12076192                0.32810356               -0.04192752                0.00902491                0.72281847
               8.67875071               10.18977376               54.89528772                0.32147534                0.29619669                0.32391282               -0.97048382                0.03754032                0.15517257               -0.56363493
               9.68372586                9.84588642               54.61353779                0.00010000                2.88492092                0.74007224               -2.20832210               -1.34793458               12.83658314               -1.80455333
              10.73644913                9.47265386               54.58177468                0.00010000                5.71234683               -0.27362077               -3.27964822               -2.17015240               25.73683440               -0.02636178
              11.79797279                9.07665398               54.55385629                0.00010000                6.33741956               -0.90033724               -4.07528849               -2.03045219               26.80635233                1.15022464
              12.86319752                8.66519842               54.53747983                0.00010000                6.38117725               -0.95301220               -4.56340307               -1.84687714               28.62467855                2.05915009
              13.92559634                8.24004203               54.53854839                0.00010000                5.82575621               -0.77998889               -4.64145902               -1.86951108               30.91605206                3.12922866
              14.97971264                7.80117702               54.55996621                0.00010000                4.76965628               -0.40457032               -4.12332715               -2.08481154               32.36533142                5.04838593
              16.02098946                7.34801163               54.58252387                0.08160766                3.39678478               -0.09215931               -3.31794728               -2.37301154               29.07445528                9.48739220
              17.04764834                6.88774878               54.53194636                0.28797234                1.68443023                0.81479573               -2.26299620               -1.50051696               12.91626186                0.88854512
              18.05467807                6.45781501               54.22691135                0.70437886                0.70297312                0.88244093               -2.58036858                0.00825718                0.20200418               -1.09502395
               8.01882343               11.53267133               55.08900787                0.88074532                0.18481301               -0.03378486                0.03453331               -0.04555320                0.01553933                0.61947683
               9.02067156               11.19342179               54.79811891                0.34654958                0.37914240                0.40704588               -1.26990842                0.00700815                0.29967116               -0.49303722
              10.02640627               10.85336679               54.51280928                0.00010000                3.91838156                0.75784803               -2.47976373               -2.26411962               14.59679083               -1.11646588
              11.09903919               10.46651871               54.50706466                0.00010000                7.90216786               -1.58562544               -3.55859155               -2.25937173               28.93549673                0.03089009
              12.18444963               10.06381343               54.50162452                0.00010000                8.36581605               -1.60418875               -4.32119694               -1.44158333               29.94750945                0.64564457
              13.26635551                9.65353946               54.50719185                0.00010000                7.90929764               -1.43666739               -4.70910410               -0.96691852               32.00498919                1.18213052
              14.34263558                9.23009051               54.53372643                0.00010000                7.20052343               -1.24435230               -4.54277577               -0.89632260               35.03993569                1.93416029
              15.41036598                8.79383169               54.59058014                0.00010000                5.92039179               -1.15249561               -3.52651799               -1.06348974               39.67958204                3.58379037
              16.46104342                8.34265529               54.70016310                0.13914329                3.36376613               -0.55683332               -0.69359394               -0.94125220               29.43244641                8.08703234
              17.47764130                7.89501168               54.54480631                0.35632046                1.18809747                0.71401695               -2.29892591               -0.87835956                8.05149216                0.59090588
              18.48480537                7.46546751               54.22869986                0.70781140                0.71640697                0.74850525               -2.45526870                0.03134815                0.01168144               -1.06824579
               8.35538993               12.53277806               54.99637500                0.94316779                0.28054798                0.01067288               -0.26326807                0.17031246                0.28339697                0.52298293
               9.35819541               12.19791468               54.70203960                0.71304243                0.49783073                0.44928860               -1.57743374                0.16565148                0.93745014               -0.41913944
              10.36534654               11.86104338               54.42065213                0.45193206                6.13098204                0.76765916               -2.78042846               -3.95463925               16.36154192               -0.65383631
              11.48081505               11.44094135               54.43363296                0.36835718               10.83869165               -2.55773580               -3.80157107               -2.64607256               31.63837518                0.00514113
              12.58212038               11.04457020               54.44383937                0.36036551                9.83835063               -1.92432258               -4.49051334               -0.45673967               32.69021393                0.36195138
              13.67758206               10.63646507               54.46586498                0.36688815                9.26286390               -1.70743916               -4.77141908               -0.34810560               34.98264555                0.68477908
              14.76737766               10.21515498               54.51084961                0.38780772                8.41480055               -1.49355300               -4.46109540               -0.44269080               38.55209877                1.14035428
              15.84587807                9.77812711               54.59356707                0.42403375                6.68033875               -1.57045799               -3.11524436               -0.36279133               43.85518543                2.27424802
              16.90098443                9.33687496               54.73483464                0.60163525                3.06954246               -0.57803222               -0.44475927                0.18920132               31.01802994                4.14408030
              17.90726892                8.90202912               54.55559670                0.71497764                0.67044711                0.70174371               -2.37462017               -0.24173024                7.72016894                0.53415046
              18.91439337                8.47278511               54.23636833                0.85514020                0.71244494                0.73176040               -2.42806981                0.03439990                0.68940487               -0.82706952
               5.03149361                2.67277847               56.92122945                1.00000000               -0.69438905               -0.85626023                2.96819686               -0.26230558               -0.74475446                0.76060153
               6.02454972                2.28792480               56.66588424                1.00000000               -0.50956541               -0.41463075                1.56823096               -0.19853081               -0.95784251                0.12375060
               7.02130230                1.90226129               56.40615728                1.00000000               -0.14203064                0.01237138                0.19809874               -0.20623208               -0.85756373               -0.16219127
               8.02170910                1.51459830               56.15244481                0.64866060                0.08759165                0.49025604               -1.21721719               -0.31664455                0.40910676               -0.72810588
               9.02305413                1.12338524               55.91736723                0.62210167                0.40570615                1.05154072               -2.75864735               -0.29518825                1.59817729                0.04626524
              10.02982323                0.73108120               55.68568627                0.54733945                0.91591920                1.44631231               -4.26076173               -0.25939570                1.71979085               -0.19143609
              11.04137251                0.33581317               55.45132232                0.29118392                0.92449363                1.91001548               -5.74993336               -0.64638459                2.96203555               -0.57910855
              12.04831310               -0.06972883               55.24382775                0.00010000               -9.53917309                2.04546350               -6.38637406              -21.16370014               11.01166444               -0.38853147
              12.85058905               -0.89096604               55.18658895                0.00010000               -7.74784540                5.89209701               -6.89397796              -21.91349577               17.14100338                0.94500261
              13.89335619               -1.53905912               55.19658082                0.69568938                3.40762287                1.83308266               -8.13474754              -14.04012041                9.99032989                0.94004032
              14.91874151               -1.89954903               54.98552797                1.00000000                2.53853202                2.20687418               -9.29508422               -0.70524536                0.09694479               -1.05296838
               5.41372422                3.66421586               56.82780186                1.00000000               -0.59012236               -0.80894476                2.65027817               -0.03118137               -0.12568546                1.02954098
               6.40782299                3.28377849               56.57238777                1.00000000               -0.39104975               -0.37258376                1.24958948                0.02852337               -0.16598025                0.19833079
               7.40590322                2.90238500               56.31608026                1.00000000                0.00788441                0.05564124               -0.12963416                0.02994415               -0.04174242               -0.29069881
               8.40798068                2.51950086               56.06287809                0.46516154                0.29787873                0.52232936               -1.54908524               -0.03833195                1.74076580               -0.97530262
               9.41186080                2.13390064               55.84173233                0.49374885                0.65173091                1.05976250               -3.12542558               -0.08638550                3.08912472                0.08660677
              10.42101530                1.74554433               55.61386209                0.42312699                1.17264451                1.47462952               -4.59574571               -0.07731628                2.66891554               -0.27725462
              11.43531369                1.35491333               55.38234700                0.11887796                1.45251999                1.92543567               -6.00552704               -0.64736559                4.81281753               -0.92343922
              12.45006570                0.95072580               55.19502826                0.00010000               -3.45972255               -0.59540905               -5.51218371              -21.11090282               18.85550394                3.75037321
              13.36611924                0.16795493               55.24275880                0.00010000               -9.64096099                4.67217968               -5.43084191              -30.04572113               29.76408332                3.42482192
              14.25724648               -0.52072829               55.31804091                0.62074261               -4.69701356                1.35415267               -4.91635001              -16.14860841               14.49731678                1.44166496
              15.27217897               -0.87748029               55.10167438                1.00000000                1.49324846                1.75109613               -6.11607734               -0.48215940                0.84481699               -0.70986399
               5.79174473                4.65659957               56.73975393                1.00000000               -0.47936837               -0.70944428                2.30467391               -0.02955682                0.08585686                1.24889577
               6.78695104                4.28047312               56.48027212                1.00000000               -0.27829600               -0.28153270                0.92103570                0.02933533                0.20893450                0.17787601
               7.78617881                3.90337412               56.22319896                0.80195167                0.12378902                0.14928079               -0.45206552                0.02758517                0.43715429               -0.57655887
               8.78942682                3.52504489               55.96806048                0.00010000                0.45520759                0.59004366               -1.83078096               -0.03216359                3.21953679               -1.20938399
               9.79528296                3.14458049               55.76629845                0.00010000                0.89186979                0.62688351               -3.52291162               -0.67512622                4.69114483                0.96693385
              10.80726422                2.76057380               55.53917561                0.00010000                1.39803863                0.35525590               -4.99186143               -1.26964529                3.15337896                3.60120502
              11.82324373                2.37432189               55.30460878                0.00010000                0.28946086               -0.83771298               -6.32713222               -5.22413156               10.78179412                7.99720484
              12.81305344                1.91836298               55.22796161                0.00010000               -5.10575036               -5.05794527               -1.20592619              -22.25096087               25.81148277                8.50524758
              13.72112872                1.20247756               55.32363330                0.02856087               -9.86170973                4.43131414               -4.38903583              -33.08902954               34.79214652                3.44793186
              14.61581924                0.48802393               55.42773717                0.53685220               -4.92632062                0.57563575               -1.55274616              -17.74574366               16.95260973                0.78246863
              15.62260231                0.13547289               55.20057460                1.00000000                0.67830695                1.00794283               -3.56865173               -0.25974493                0.80992898               -1.62572151
               6.16538598                5.65002698               56.65071769                1.00000000               -0.37508219               -0.59707207                1.94387295               -0.04234092                0.20134833                1.06559864
               7.16163516                5.27814784               56.38625966                0.74615496               -0.17514107               -0.17351799                0.57695249                0.01557112                0.47104815               -0.14445133
               8.16188316                4.90537062               56.12717875                0.21072183                0.22479408                0.26504937               -0.75720941               -0.00126534                1.01758589               -1.07325099
               9.16613104                4.53130174               55.87345188                0.00010000                0.04731063                0.69203240               -2.11952299               -0.59585643                5.67233369               -0.82556425
              10.16282937                4.14643832               55.70723784                0.00010000               -0.01250202                0.22767808               -3.25465873               -1.55057446                9.97375075                2.65861747
              11.16588100                3.75264945               55.54339693                0.00010000                0.51062488               -0.82536779               -4.32701703               -2.99998311               11.78448920                6.99987381
              12.17304187                3.33815907               55.41205745                0.00010000                0.55049073               -3.23867480               -4.48068386               -7.51593962               17.54145690               12.32527378
              13.17689081                2.84956690               55.35543094                0.00010000               -1.91820857               -4.67474750               -4.36589667              -14.90101060               24.73839125                9.57520309
              14.13467770                2.25658122               55.36473050                0.00010000              -10.37772716                3.56552738               -4.01207691              -23.74576712               34.35700530                0.09613329
              14.96933627                1.49078442               55.52046839                0.04353856               -8.12957745               10.03538253                0.04618822               -7.73995807               20.27400114              -14.54153998
              15.97208615                1.14267857               55.28130279                0.61668136                0.27498777                2.37379680               -2.33172599                9.88378090                0.80050580              -14.27212768
               6.53465619                6.64465813               56.55900756                1.00000000               -0.27373691               -0.48138926                1.58661902               -0.04570880                0.11997740                0.81689358
               7.53191882                6.27700276               56.28762135                0.45930020               -0.08282973               -0.05457374                0.20322853                0.02058716                0.51756016               -0.49776416
               8.53299960                5.90867510               56.02414819                0.02253166                0.22615881                0.39206348               -1.10667978               -0.00070430                2.18575297               -1.63536512
               9.53644200                5.53888554               55.78595293                0.00010000                0.49620818                0.51142243               -2.05078947               -0.68919650                9.65344174                2.86668087
              10.54292376                5.14913405               55.67248684                0.00010000                0.95509028                0.10809194               -3.21733278               -1.37242111               15.44322801                3.66359372
              11.55554380                4.74406644               55.55089165                0.00010000                1.65418640               -0.94814276               -4.03458398               -2.48652134               16.63178507                5.77928832
              12.57600749                4.30954839               55.45701820                0.00010000                2.05336352               -2.36796420               -4.56249801               -5.23140707               20.41366500                6.66913249
              13.59661107                3.82486803               55.40247784                0.00010000                1.44941821               -1.92402968               -4.82564490               -9.61773830               24.54863722                4.16687763
              14.60499585                3.27378810               55.38526747                0.00010000               -1.08441750                1.98212776               -4.92117756              -11.50220844               23.95236066               -1.64261374
              15.57492272                2.68873159               55.31623140                0.07516180               -4.42531096               14.87849344               -5.89555039               -0.90700405               14.46936978              -16.00333524
              16.51648963                2.18294883               55.11668611                0.63378807               -5.84330913                9.20083604               -6.61430547                2.74769252                7.15918482              -19.13133001
               6.89978254                7.64039919               56.46493900                0.96096566               -0.17526097               -0.37826249                1.24327292               -0.03825082                0.03403635                0.68844618
               7.89802993                7.27705636               56.18651680                0.34589365                0.01018788                0.05494889               -0.11076497                0.03199843                0.46454920               -0.60152475
               8.89998629                6.91321189               55.91666981                0.00010000                0.69291175                0.50176328               -1.43700172               -0.28469994                6.86484373               -1.94085974
               9.91188816                6.54153019               55.76592229                0.00010000                1.51068771                0.28279829               -2.42866498               -0.71138894               14.09021206                3.55859079
              10.93020005                6.14860015               55.64131206                0.00010000                2.19240351               -0.14777729               -3.37937486               -1.63111593               17.02306896                3.29309851
              11.95573623                5.73368659               55.54703119                0.00010000                2.87060414               -0.94865501               -4.18736067               -2.85529654               19.85085326                4.09405890
              12.98761213                5.29079978               55.47432766                0.00010000                3.22800501               -1.49213830               -4.80808458               -5.02586713               22.51866826                4.09632670
              14.02029633                4.81108630               55.42582000                0.00010000                2.65789229               -0.78094403               -5.32433213               -7.68267862               24.78415697                2.46212509
              15.04076998                4.29622377               55.38972154                0.00010000                1.08695650                2.42346578               -6.07018775               -8.06714328               25.32104442               -0.68366605
              16.04203546                3.78835429               55.34393692                0.10818942               -0.10822349                7.66201751               -8.46215734               -3.13516942               15.32238013                0.09740571
              17.03860551                3.32669529               55.10294364                0.64233451               -0.34299549               10.91155155               -8.12496759                2.50827786                5.05584336               -5.57105585
               7.26057684                8.63709288               56.37056231                0.92882223               -0.08307444               -0.28724394                0.94283752               -0.03789345                0.04296800                0.71166469
               8.25974609                8.27810174               56.08591511                0.29781748                0.11274669                0.14931424               -0.41940017                0.03348935                0.36197461               -0.57495664
               9.26283177                7.91871037               55.80763402                0.00010000                1.35399307                0.59643532               -1.74753641               -0.60938668                9.24924411               -2.03733289
              10.28682596                7.54454151               55.70011285                0.00010000                2.76566325                0.26982765               -2.80854187               -1.26717400               18.51319805                0.59807590
              11.31814504                7.14617850               55.60717933                0.00010000                3.47061444               -0.27227137               -3.73068288               -2.22453334               20.33288854                2.24893089
              12.35623824                6.72509334               55.53383228                0.00010000                3.99726986               -0.76697894               -4.50662202               -3.27209222               22.55014314                2.89808197
              13.39809043                6.27970562               55.48080904                0.00010000                4.06476350               -0.82638266               -5.14074973               -4.71375503               24.72114853                3.10395949
              14.43753351                5.80924915               55.44466161                0.00010000                3.41472810                0.09444097               -5.69340210               -6.06130085               26.58889156                2.68337774
              15.46638500                5.32225742               55.42224054                0.00010000                2.21071508                2.23594340               -6.27679111               -5.66742537               28.95834878                2.10829160
              16.48174782                4.84197194               55.42879264                0.15578368                1.17940973                3.96695426               -6.64280512               -2.21939251               16.58932448                3.86600596
              17.48997319                4.40117986               55.15528431                0.65806097                0.82253755                5.15509183               -5.73230015                0.32996250                2.67913344                0.60647819
               7.61700695                9.63465431               56.27689548                0.91129984                0.00752789               -0.20386400                0.64883228               -0.04054551                0.02006255                0.75380324
               8.61708222                9.28004265               55.98555042                0.28670995                0.21759245                0.23874239               -0.71752594                0.03569030                0.25928639               -0.56623176
               9.62135879                8.92514060               55.69894157                0.00010000                2.09971607                0.68348873               -2.04380325               -1.03026216               11.18173635               -2.03567817
              10.65907655                8.54692674               55.62528505                0.00010000                4.18993765                0.14738857               -3.19790586               -1.96781217               22.36288807               -0.11424826
              11.70515755                8.14315473               55.56188183                0.00010000                4.88453609               -0.42234053               -4.13721416               -2.67885373               23.75785193                1.23147705
              12.75676727                7.71834701               55.51410913                0.00010000                5.20118339               -0.70415387               -4.87243543               -3.19712558               25.65264602                2.11809364
              13.80918122                7.27427213               55.48509613                0.00010000                4.98756255               -0.49037925               -5.38544354               -3.83519548               27.63177796                2.89170176
              14.85651852                6.81297512               55.47240779                0.00010000                4.27587362                0.31992847               -5.70435920               -4.34527049               29.15436123                4.12026121
              15.89469869                6.34094264               55.46898858                0.03172927                3.11033255                1.36670783               -5.68951653               -4.18871614               30.73644774                5.21788722
              16.91872517                5.86769338               55.48300947                0.21121409                1.60451084                1.91507655               -3.75057126               -1.82218329               16.26605865                2.50727605
              17.92678890                5.42979713               55.18777216                0.67321258                0.80637351                2.06705634               -3.59107984               -0.10450459                0.95015877                0.28726601
               7.96898926               10.63301560               56.18332467                0.90953339                0.09843536               -0.12367719                0.35897233               -0.04402663                0.00880694                0.74640343
               8.96997362               10.28287659               55.88531849                0.30910916                0.31765854                0.32941010               -1.02086286                0.02915689                0.18728855               -0.56047721
               9.97534244                9.93238014               55.59081473                0.00010000                2.97409816                0.74811314               -2.33877641               -1.61519234               12.95968603               -1.79702923
              11.02945558                9.54748928               55.54746908                0.00010000                5.89026275               -0.25971900               -3.58018678               -2.69925486               25.91774207               -0.26083368
              12.09314769                9.13773169               55.51083691                0.00010000                6.58613740               -0.89129929               -4.53105516               -2.64985588               27.10102930                0.73717601
              13.16117833                8.71101026               55.48880104                0.00010000                6.68053627               -0.89643994               -5.19462361               -2.52555471               29.07114869                1.53347439
              14.22675842                8.26989804               55.48831018                0.00010000                6.13896329               -0.61881293               -5.47866186               -2.52329632               31.67123018                2.65296549
              15.28395760                7.81564772               55.51448072                0.00010000                5.05670010               -0.08696870               -5.13733857               -2.54376946               33.41238454                5.00992988
              16.32789242                7.34959158               55.54497393                0.08064392                3.62460330                0.25153005               -4.45723929               -2.51098771               30.47511503               10.96329019
              17.35644966                6.88027347               55.50821949                0.26939629                1.78915898                1.05510831               -2.59379146               -1.54366057               13.75956017                1.01744337
              18.36367560                6.44252099               55.20120124                0.68337048                0.72259363                1.03669492               -2.66199438               -0.00712656                0.29230717               -0.69744579
               8.31640444               11.63218077               56.08950464                0.87148456                0.18963828               -0.04093623                0.06591989               -0.04735954                0.01810329                0.63946273
               9.31830082               11.28663085               55.78510330                0.32837765                0.40189114                0.42177489               -1.33149092               -0.00208838                0.34965202               -0.49956962
              10.32444226               10.94010286               55.48724563                0.00010000                4.07195398                0.78631927               -2.64210483               -2.52325532               14.73800608               -1.12898364
              11.39973990               10.54173236               55.46976218                0.00010000                8.20985932               -1.59006569               -3.91524952               -2.63299696               29.11602735               -0.09303820
              12.48863945               10.12532874               55.45587927                0.00010000                8.71749648               -1.55710044               -4.84877131               -1.82525524               30.26393206                0.40668205
              13.57408983                9.70041821               55.45679522                0.00010000                8.27191909               -1.31854088               -5.42035088               -1.33953976               32.54757283                0.87424251
              14.65407783                9.26189587               55.48440923                0.00010000                7.59298817               -1.04467352               -5.43211527               -1.20705317               36.06807463                1.68638240
              15.72594959                8.81123575               55.55148889                0.00010000                6.28876818               -0.91974183               -4.48368326               -1.28395872               41.99173945                3.71691689
              16.77985319                8.34597324               55.69239482                0.15407061                3.44864771               -0.31802822               -1.06487599               -0.96443646               30.29568873                9.28833735
              17.79492255                7.88879554               55.52106472                0.35159462                1.11490695                0.80970038               -2.49744342               -0.89075333                7.30509429                0.45358746
              18.80215133                7.45053103               55.20484634                0.68562178                0.72287839                0.74245292               -2.34422568                0.03472871                0.07887265               -0.87211654
               8.65914192               12.63219687               55.99388638                0.93747194                0.28678433                0.00161046               -0.23218761                0.18526936                0.28836037                0.54039812
               9.66200976               12.29131209               55.68590479                0.70256189                0.53169494                0.46812380               -1.64724025                0.16637698                0.99867039               -0.43089656
              10.66977582               11.94810653               55.39202452                0.44922342                6.47799991                0.80036693               -2.95587694               -4.24785026               16.55461462               -0.67408459
              11.79156976               11.51568796               55.39388540                0.36813185               11.40904572               -2.60443963               -4.17037419               -2.89285600               31.93527972                0.00395263
              12.89795673               11.10658968               55.39641979                0.36038082               10.31253217               -1.87390564               -5.02802416               -0.62069727               33.15923996                0.29908258
              13.99782040               10.68463944               55.41493620                0.36661513                9.69215433               -1.57787687               -5.48418208               -0.50619825               35.69605013                0.60248697
              15.09179982               10.24900457               55.46257366                0.38676683                8.81903240               -1.28913032               -5.32792026               -0.59712872               39.84437101                1.11882915
              16.17420105                9.79725289               55.55928280                0.42184273                6.96220369               -1.39828598               -3.93463377               -0.46353178               46.16986395                2.59239715
              17.23104389                9.34323101               55.72918993                0.61424882                2.99378783               -0.27422282               -0.86668760                0.07979952               31.41192192                4.15989717
              18.23407681                8.89646747               55.53137782                0.71655889                0.49276565                0.76719311               -2.48468246               -0.37762198                6.73679837                0.40128517
              19.24089921                8.45737005               55.21318962                0.84321805                0.68223970                0.68390207               -2.20815967               -0.03495516                0.68328113               -0.67452178
               5.28664132                2.77525078               57.95089951                1.00000000               -0.68623164               -0.85305017                2.95456241               -0.26474037               -0.70201841                0.73238937
               6.27977901                2.38423073               57.68144753                1.00000000               -0.49669030               -0.40813392                1.54090331               -0.20150082               -0.89760484                0.11917931
               7.27670752                1.99242179               57.40788112                1.00000000               -0.11915059                0.02260499                0.15144829               -0.20766727               -0.80875760               -0.15027876
               8.27739600                1.59870095               57.13986832                0.63958780                0.13077672                0.50257864               -1.28302234               -0.32866521                0.35261709               -0.69714665
               9.27932305                1.20126727               56.88904889                0.60229942                0.46073197                1.07462388               -2.87117764               -0.31164316                1.45209695                0.02375863
              10.28661064                0.80246085               56.64215633                0.51621055                0.94003903                1.49383167               -4.40360190               -0.29760454                1.56086083               -0.23788349
              11.29812383                0.39985747               56.39283172                0.23974451                0.33123712                2.00048955               -5.90330815               -1.46090887                3.22677466               -0.63615254
              12.29323538               -0.02992515               56.17973692                0.00010000              -12.53895555                2.11542539               -6.37348008              -25.11467912               10.22336894               -0.88312517
              13.04734472               -0.94707828               56.11135073                0.00010000               -9.81882706                7.13542514               -7.64369820              -25.78011136               15.79788554                1.04002068
              14.09685884               -1.66579744               56.09624747                0.63463424                4.43021768                3.18406705              -12.21764569              -16.66752791                9.01185503                1.54712410
              15.13594908               -2.04423441               55.87130898                1.00000000                3.90902391                3.71540742              -13.96931372               -0.87325940               -0.14618597               -1.20111472
               5.67501397                3.76672028               57.85430068                1.00000000               -0.58354771               -0.80616402                2.63929523               -0.03312467               -0.10507005                0.99494024
               6.66917850                3.38014939               57.58477307                1.00000000               -0.38091186               -0.36648192                1.22489109                0.02612546               -0.13153462                0.19082935
               7.66739574                2.99264784               57.31454769                1.00000000                0.02540558                0.06530151               -0.17101389                0.02913148               -0.01833592               -0.27918261
               8.66968661                2.60372674               57.04701971                0.46390424                0.34654679                0.53520777               -1.60678662               -0.04612493                1.63696381               -0.92385057
               9.67432667                2.21201350               56.80953998                0.48328000                0.73264401                1.08650767               -3.26745899               -0.08728651                2.93095709                0.02683353
              10.68433949                1.81739917               56.56655062                0.40287585                1.26905383                1.52752482               -4.81372593               -0.09333730                2.58350611               -0.37295257
              11.69970775                1.41986237               56.32067957                0.08296431                1.56084861                2.01420391               -6.27756689               -1.52274179                5.89536017               -1.00523917
              12.71555646                0.99122910               56.14213359                0.00010000               -4.61139984               -3.03316882               -4.74337577              -26.18806537               20.60088563                5.06134257
              13.60747975                0.12427598               56.18729549                0.00010000              -11.83974186                5.77096267               -5.76716991              -34.84787065               30.23411464                3.16043560
              14.47876162               -0.63395677               56.25367727                0.47877723               -5.09131520                2.56058932               -9.23566404              -18.56365825               14.76260896                2.82314397
              15.50565345               -1.00708033               56.02347308                1.00000000                2.68918246                3.06235504              -10.88639504               -0.67101627                1.62860072               -0.55062243
               6.05912061                4.75912750               57.76282565                1.00000000               -0.47466526               -0.70779658                2.30022393               -0.03275373                0.10446922                1.19896215
               7.05437396                4.37690109               57.48938395                1.00000000               -0.27039041               -0.27669744                0.89966156                0.02528877                0.23663979                0.15870287
               8.05371280                3.99372782               57.21846165                0.79111322                0.13669388                0.15835828               -0.48937707                0.02673616                0.46937691               -0.55909954
               9.05710784                3.60940511               56.94946250                0.00010000                0.50960453                0.60416584               -1.87436478               -0.03286918                3.04461742               -1.14506028
              10.06390489                3.22299742               56.72980214                0.00010000                0.98935963                0.44150229               -3.70684368               -0.81546210                4.47470812                1.23343355
              11.07689503                2.83301135               56.48754266                0.00010000                1.49670872               -0.01520355               -5.25986752               -1.45201499                3.14893228                4.03363587
              12.09383907                2.44014155               56.23961905                0.00010000               -0.59172834               -1.80889486               -6.60345813               -8.67344590               14.41045459                9.02449555
              13.06506046                1.90941147               56.22093282                0.00010000               -5.91329447               -6.93659371               -1.18021908              -26.59407310               28.20623134                7.04239684
              13.97557318                1.16834098               56.28248593                0.00910677              -10.40592409                4.67358131               -4.19524634              -36.42037680               35.77504683                2.70429304
              14.85694198                0.38541435               56.40633697                0.49419939               -5.33986519                1.35879291               -2.96995580              -20.17097165               19.19321183                1.98946604
              15.86877587                0.01701270               56.15436835                1.00000000                1.18338949                1.91369814               -6.02038756               -0.46046267                0.89742146               -1.92211823
               6.43881172                5.75256435               57.67020117                1.00000000               -0.37277659               -0.59436686                1.94718685               -0.04446174                0.22161301                1.01291061
               7.43508395                5.37461544               57.39193838                0.71855394               -0.16926368               -0.17103709                0.55824705                0.01549774                0.51041820               -0.18706791
               8.43542644                4.99581501               57.11938340                0.19158946                0.23378372                0.27385957               -0.79705826                0.00341218                1.06332198               -1.07518698
               9.43975963                4.61581006               56.85200576                0.00010000               -0.05076279                0.66968063               -2.15792556               -0.82555377                5.80535254               -0.56538098
              10.43441119                4.22084355               56.67417444                0.00010000               -0.08022846               -0.19441127               -3.31319976               -2.05142568               10.22595984                3.05240322
              11.43815506                3.81709510               56.49933234                0.00010000                0.77137605               -1.68294535               -4.43244955               -3.88075294               12.57861274                7.62051313
              12.44983871                3.38368447               56.36692151                0.00010000                0.86602555               -4.87259432               -4.56491869               -9.84770986               19.08411256               13.00025732
              13.45547557                2.85249722               56.31136211                0.00010000               -2.33846861               -4.15001099               -4.50070848              -17.28451849               26.77675569                6.51511576
              14.40306934                2.21774760               56.32688365                0.00010000              -11.44025482                3.43306859               -3.87599520              -26.99964307               38.33382188               -2.06997618
              15.22667047                1.39321909               56.51821156                0.04836346               -8.49109206               11.07435054               -0.97559657               -9.13949314               23.76001937              -18.17176198
              16.23324750                1.03119363               56.25070757                0.63752100                0.65770237                2.65808510               -4.18162692               10.21802175                1.35032472              -17.95489393
               6.81412919                6.74724017               57.57492649                1.00000000               -0.26959335               -0.47532911                1.58415763               -0.04774570                0.10984398                0.77662595
               7.81143326                6.37348035               57.28953881                0.43946372               -0.07713775               -0.05682203                0.18376726                0.02715221                0.54691614               -0.52600589
               8.81258643                5.99920501               57.01282181                0.00817081                0.20674807                0.39292026               -1.14993113               -0.01763284                2.47309170               -1.65626431
               9.81556822                5.62279872               56.76582173                0.00010000                0.45024514                0.25022210               -1.92501266               -1.13995457                9.95300470                2.96796787
              10.82159134                5.21910919               56.63991254                0.00010000                1.04354164               -0.34313352               -3.25125120               -2.07492935               15.76321529                3.68327533
              11.83643905                4.79935244               56.50980987                0.00010000                1.99457029               -1.76824543               -4.14014191               -3.52102651               17.33433973                5.72364553
              12.86148274                4.34268966               56.41024600                0.00010000                2.44339541               -3.34217172               -4.76332961               -7.14781354               21.47390689                6.00284830
              13.88530696                3.82641125               56.35271685                0.00010000                1.66878549               -2.15071410               -5.14849229              -12.21705108               25.89665448                2.64358487
              14.89485845                3.23700235               56.33351521                0.00010000               -1.23004355                2.28363973               -5.45316122              -14.05967848               25.11237259               -4.54131106
              15.86070609                2.60690136               56.25581618                0.06750895               -4.88356147               16.35201816               -6.23228808               -2.40725444               15.18347894              -22.58899555
              16.79718722                2.07017440               56.04499264                0.64387409               -6.35188638               10.17149572               -7.60145390                1.49620755                8.15351028              -24.34157784
               7.18537643                7.74305777               57.47748013                0.94471004               -0.17142841               -0.37154386                1.25395967               -0.04089775                0.04039604                0.68214414
               8.18366215                7.37347900               57.18528864                0.33370085                0.01894929                0.04595990               -0.13206644                0.04165893                0.48861065               -0.59911790
               9.18575542                7.00367341               56.90200320                0.00010000                0.66971031                0.47865739               -1.49267700               -0.51131248                7.07194526               -1.95346529
              10.19705636                6.62081450               56.74115141                0.00010000                1.53017307               -0.07827212               -2.47799397               -1.33066301               14.44826238                3.27119821
              11.21635888                6.21398088               56.60686814                0.00010000                2.35488513               -0.56970621               -3.46363404               -2.49887855               17.43880254                2.96683931
              12.24415406                5.78173019               56.50395166                0.00010000                3.17323753               -1.53557456               -4.38415904               -4.14738838               20.40171716                3.54930442
              13.27982363                5.31684103               56.42427423                0.00010000                3.63339009               -2.03650588               -5.16917089               -6.92616351               23.20138167                3.15907803
              14.31682186                4.80948294               56.36933954                0.00010000                3.07810140               -0.93842415               -5.95199607              -10.05663082               25.37544635                0.90107622
              15.34138566                4.26342040               56.32368895                0.00010000                1.42657382                2.97304880               -7.15965697              -10.79970742               24.87720647               -3.10987368
              16.34535334                3.72025945               56.24946548                0.08110158               -0.23800462                9.74134429              -10.01892399               -5.21161506               15.43729328               -3.49065209
              17.33662557                3.23462355               56.00873954                0.63487230               -0.87277693               14.32342796              -10.63001345                1.30566986                6.78818079               -8.86636546
               7.55246876                8.73980929               57.38014834                0.91710751               -0.08179743               -0.28287480                0.97087741               -0.04012749                0.03838085                0.73376194
               8.55165079                8.37439955               57.08158563                0.28949945                0.12779630                0.13682590               -0.44369397                0.03998891                0.37931019               -0.57276087
               9.55502469                8.00877816               56.78981214                0.00010000                1.34983497                0.54988321               -1.81647231               -0.93882624                9.41251010               -2.05132108
              10.57864749                7.62123328               56.67131726                0.00010000                2.78366919                0.07677177               -2.92130116               -2.02960749               18.80809095                0.25722538
              11.61069807                7.20771507               56.56870488                0.00010000                3.59918187               -0.55943718               -3.92343916               -3.25075132               20.68755239                1.69160881
              12.65063113                6.76864095               56.48692338                0.00010000                4.22543223               -1.08686867               -4.83308526               -4.66949299               22.95028739                2.12928473
              13.69520672                6.30195955               56.42648698                0.00010000                4.34819262               -1.04089260               -5.69162002               -6.52402487               25.12225405                2.06380853
              14.73759498                5.80764277               56.38318931                0.00010000                3.64405380                0.25131363               -6.60475210               -8.15457484               26.86573323                1.32168511
              15.76808779                5.29646333               56.35198493                0.00010000                2.38378286                3.13512166               -7.80634050               -7.40487530               28.94298837                0.61820143
              16.78527064                4.80172824               56.34648173                0.12016305                1.32423185                6.45874907              -10.70083305               -3.05905476               17.82036209                3.87341402
              17.79457243                4.35664296               56.08708003                0.64183047                0.93017955                8.65117677               -9.23888777                0.37271751                5.28501572                0.69730952
               7.91539336                9.73740027               57.28353818                0.90290845                0.00996929               -0.20183168                0.67714620               -0.04239241                0.01913729                0.78256574
               8.91549306                9.37621552               56.97819222                0.27812985                0.23759021                0.23058930               -0.75104160                0.03132175                0.28028757               -0.56807981
               9.92014517                9.01467108               56.67802363                0.00010000                2.10171213                0.64318040               -2.13975551               -1.40606450               11.29496695               -2.06862464
              10.95752730                8.62234993               56.59222507                0.00010000                4.18955076                0.08633889               -3.39653583               -2.78723210               22.55448126               -0.49986593
              12.00393618                8.20279214               56.51879153                0.00010000                4.94962122               -0.51575087               -4.45021863               -3.71968879               24.01708220                0.60654393
              13.05651972                7.75999282               56.46282017                0.00010000                5.32025683               -0.77295676               -5.35224463               -4.51264320               25.93864846                1.29593255
              14.11034132                7.29602318               56.42745914                0.00010000                5.13534301               -0.40856557               -6.13184279               -5.36745276               27.90315252                1.93664899
              15.15922658                6.81450922               56.40970027                0.00010000                4.44306788                0.73258748               -6.88392359               -5.80993717               29.45365930                3.29670803
              16.19920268                6.32612283               56.40405530                0.01604440                3.23830139                2.37039320               -7.57384999               -4.82047913               32.07281047                4.78109883
              17.22399261                5.84943443               56.43839364                0.17573448                1.75239071                3.41570772               -6.26819029               -1.85670799               17.88356533                3.99262769
              18.23425049                5.40764708               56.14778925                0.65204896                1.02578798                3.50744756               -5.11028593               -0.17932129                2.06411680                1.54144623
               8.27399042               10.73577266               57.18706506                0.90206250                0.10160022               -0.12506996                0.38814538               -0.04639078                0.00884366                0.77894553
               9.27500642               10.37901134               56.87487046                0.29665676                0.33892850                0.33142903               -1.06616680                0.01498337                0.21603853               -0.57328087
              10.28076899               10.02164177               56.56676226                0.00010000                2.98876836                0.74531244               -2.48250104               -1.98444661               13.03634431               -1.85671469
              11.33478179                9.62296006               56.51017094                0.00010000                5.89462135               -0.20541557               -3.87980531               -3.45214610               26.02154181               -0.60902573
              12.39866142                9.19740005               56.46323518                0.00010000                6.61827141               -0.82139753               -4.97522119               -3.55095964               27.28901636                0.18139424
              13.46714722                8.75318182               56.43358735                0.00010000                6.73399242               -0.75518335               -5.83578453               -3.56772669               29.31452445                0.82063050
              14.53334126                8.29378823               56.42897516                0.00010000                6.20746861               -0.32342488               -6.41820537               -3.59626057               32.10278955                1.92021770
              15.59129659                7.82229452               56.45721943                0.00010000                5.17058652                0.44293658               -6.46454674               -3.34642252               34.04345762                4.70811795
              16.63675299                7.34387119               56.49337909                0.07614197                3.76578183                0.90415986               -6.30741695               -2.70367134               32.02671216               12.60175770
              17.66661223                6.87004240               56.48007053                0.24115537                1.89038576                1.57453334               -3.30593374               -1.48901135               15.01043299                1.49544020
              18.67456071                6.42679191               56.17367146                0.65832043                0.79484844                1.41948573               -3.08378346               -0.09659463                0.51427528               -0.00736679
               8.62798819               11.73489887               57.09032627                0.86263493                0.19354228               -0.04750536                0.09865326               -0.04898227                0.01972635                0.66998977
               9.62992361               11.38284410               56.77148909                0.31072008                0.42596642                0.43412130               -1.38892084               -0.01486459                0.38892513               -0.52086512
              10.63650751               11.02957733               56.45996719                0.00010000                4.14012423                0.81810727               -2.84969601               -2.84566245               14.82016995               -1.19346414
              11.71272609               10.61824162               56.42875967                0.00010000                8.30938576               -1.50930520               -4.30757825               -3.14347787               29.20355771               -0.29590145
              12.80269523               10.18636419               56.40464909                0.00010000                8.80254564               -1.39646177               -5.40611165               -2.38797555               30.44952249                0.07128461
              13.88877701                9.74488915               56.39878484                0.00010000                8.33040886               -1.04744864               -6.20008947               -1.93037590               32.84747168                0.43843697
              14.96930341                9.28955469               56.42508413                0.00010000                7.67190849               -0.62927602               -6.52688550               -1.74719941               36.75366600                1.27471064
              16.04221518                8.82336795               56.50090647                0.00010000                6.40389800               -0.39536409               -5.85745833               -1.69930838               44.18901564                3.72119406
              17.09738137                8.34420603               56.67886558                0.17107457                3.45382447                0.13057491               -2.02397941               -1.10339953               31.12156270               10.68261853
              18.11129167                7.88092510               56.49485744                0.34060078                1.07191050                0.96931119               -2.78120115               -0.83881288                6.59728796                0.33114062
              19.11881958                7.43603680               56.18181535                0.65788884                0.75279115                0.79081040               -2.35573723                0.00490342                0.20866428               -0.57628053
               8.97712032               12.73482255               56.99173125                0.93215309                0.29103608               -0.00763250               -0.19687396                0.20033437                0.29855908                0.56807945
               9.98003068               12.38769376               56.66909480                0.69331781                0.56689519                0.48496600               -1.71113883                0.16977515                1.05584561               -0.45592995
              10.98845822               12.03800391               56.36153459                0.44710564                6.75473467                0.84265894               -3.18870433               -4.55091993               16.69549832               -0.71840644
              12.11512537               11.59277395               56.35022548                0.36796850               11.78980786               -2.54676697               -4.59935473               -3.18672722               32.14089523               -0.03336748
              13.22425438               11.16947082               56.34327888                0.36040855               10.51119143               -1.68933692               -5.63263992               -0.87114069               33.49886110                0.19037598
              14.32534920               10.73223284               56.35618133                0.36639464                9.78320502               -1.26563063               -6.31865367               -0.75618588               36.17153023                0.46080916
              15.41991848               10.28120271               56.40429120                0.38579095                8.86549400               -0.83519719               -6.46853341               -0.83077334               40.85323696                1.03273445
              16.50265908                9.81438723               56.51487440                0.41959337                6.86046865               -0.89807134               -5.20372667               -0.69161096               48.34838317                2.99604331
              17.55712785                9.34648269               56.71750089                0.62935996                2.76730599                0.22766609               -1.67612321               -0.27328219               31.68821755                3.89620712
              18.55800520                8.88942862               56.50590305                0.71611915                0.36537676                0.85035214               -2.58668686               -0.52237526                5.80892740                0.22859400
              19.56443539                8.44260812               56.19220514                0.82824348                0.64301873                0.65713199               -2.04868716               -0.12046963                0.67811021               -0.45218633
               5.55635721                2.88062393               58.98032070                1.00000000               -0.67411945               -0.84353959                2.91943242               -0.26457959               -0.66568314                0.70918953
               6.54961601                2.48365730               58.69670231                1.00000000               -0.48254270               -0.39986492                1.50705241               -0.20213968               -0.84665597                0.11496506
               7.54670635                2.08592258               58.40918625                1.00000000               -0.10111686                0.02982456                0.11440534               -0.20688435               -0.77008866               -0.13977329
               8.54759368                1.68635259               58.12678436                0.63108906                0.15508523                0.50770817               -1.32047886               -0.33881930                0.28079262               -0.66717536
               9.54980806                1.28287822               57.85994367                0.58385812                0.48319678                1.08058502               -2.92491401               -0.32678486                1.30871630               -0.00938760
              10.55725761                0.87753496               57.59761423                0.48663680                0.92596770                1.51639871               -4.47227574               -0.34536815                1.44462850               -0.29267960
              11.56832741                0.46739441               57.33325616                0.19017589               -1.14980744                2.06268007               -5.96508246               -3.55493036                3.67727589               -0.64965824
              12.53426146               -0.01218467               57.11635814                0.00010000              -15.91455993                2.29414267               -5.94457268              -28.35187548                8.03514877               -2.10752040
              13.25003621               -1.02205516               57.03371499                0.00010000              -11.03132138                8.20836027               -7.45016697              -29.61741395               12.78166325                1.64757374
              14.31363504               -1.82297622               56.95222791                0.59599111                5.78292782                4.86213103              -15.82025437              -20.02361321                6.52778981                2.46349700
              15.36569477               -2.22789951               56.70614169                1.00000000                5.20597350                5.63474102              -18.33570417               -0.54586955               -0.78263148               -0.87245455
               5.95067804                3.87218853               58.88058776                1.00000000               -0.57327433               -0.79728018                2.60864711               -0.03497247               -0.08695283                0.96689084
               6.94494529                3.47965865               58.59688559                1.00000000               -0.36940850               -0.35877184                1.19542581                0.02320595               -0.10127538                0.18386953
               7.94328987                3.08622082               58.31265999                1.00000000                0.03911860                0.07169162               -0.20095535                0.02762328                0.00009357               -0.27009555
               8.94572766                2.69142968               58.03074235                0.46544057                0.38295818                0.54025186               -1.63518266               -0.05758744                1.50508698               -0.87205625
               9.95094903                2.29368407               57.77638315                0.47720372                0.79090853                1.08682437               -3.32812011               -0.09209179                2.71054220               -0.04469126
              10.96154583                1.89269894               57.51758757                0.38708342                1.33444463                1.54649149               -4.92446013               -0.12472600                2.43230303               -0.46115304
              11.97763792                1.48802121               57.25679567                0.05100451                1.69608280                2.05877232               -6.43008338               -3.61034650                7.58391897               -1.00298016
              12.99546749                1.01075676               57.10016074                0.00010000               -5.91900344               -4.89164646               -3.34012803              -31.39715201               21.88886416                4.34484972
              13.85925785                0.06002845               57.12741540                0.00010000              -13.95732056                6.95152080               -6.06531092              -39.19611914               27.34149996                3.32352148
              14.71632108               -0.77435491               57.13332763                0.35581909               -4.70492459                4.31275916              -15.97713576              -20.87072605               12.85639372                6.61968155
              15.76515936               -1.17155210               56.88394648                1.00000000                4.88382813                4.88477733              -18.28116299               -0.78005744                2.52215919                1.76245641
               6.34071751                4.86467832               58.78575840                1.00000000               -0.46696701               -0.70020912                2.27802471               -0.03635675                0.12155346                1.16006455
               7.33604784                4.47648187               58.49826535                1.00000000               -0.26148567               -0.27035156                0.87498863                0.01970401                0.26236102                0.14066122
               8.33548780                4.08735641               58.21341142                0.77604837                0.14654213                0.16429500               -0.51506389                0.02340580                0.50449952               -0.54839590
               9.33897868                3.69715763               57.93057318                0.00010000                0.56045784                0.61026038               -1.89044857               -0.05111576                2.83355607               -1.08268159
              10.34669695                3.30461470               57.69216158                0.00010000                1.07236327                0.18459538               -3.76809646               -0.98099442                4.14688948                1.55801330
              11.36042595                2.90846479               57.43397826                0.00010000                1.56828563               -0.49532208               -5.37540254               -1.64422525                3.04970664                4.57830439
              12.37806267                2.50856985               57.17253961                0.00010000               -1.30573820               -3.02419737               -6.73454750              -12.67129736               17.60729192               10.21485944
              13.33431119                1.88998240               57.20435723                0.00010000               -6.34185820               -8.13357927               -2.39018875              -31.72991484               31.59441509                6.34714828
              14.25122550                1.11697526               57.23972838                0.00010000              -10.32550633                5.20619819               -4.71901950              -39.57283079               37.07407272                2.29194999
              15.12780106                0.26327896               57.36833805                0.46136410               -5.33687551                2.61124424               -4.23422005              -22.13937789               20.99287044                5.87996558
              16.14448799               -0.13020396               57.08016685                0.98297938                1.66869344                3.22542445               -8.19502480               -0.90122877                0.41181817                0.19797421
               6.72634381                5.85818435               58.68966143                1.00000000               -0.36825265               -0.58833180                1.93553200               -0.04772573                0.23713847                0.96398462
               7.72266129                5.47425162               58.39742460                0.69199869               -0.16307982               -0.16747383                0.53884127                0.01181827                0.54501222               -0.22854939
               8.72308222                5.08950672               58.11123758                0.16998468                0.23928841                0.27868054               -0.82669582                0.00369839                1.11646445               -1.08539760
               9.72744705                4.70363488               57.83029337                0.00010000               -0.15301155                0.59708070               -2.17027209               -1.13490370                5.95910066               -0.21186115
              10.72002198                4.29737597               57.64097384                0.00010000               -0.13704380               -0.72544230               -3.28284069               -2.66697025               10.50842745                3.54673051
              11.72470618                3.88279250               57.45474794                0.00010000                1.13361861               -2.72723783               -4.43579379               -4.91837616               13.40301072                8.39154340
              12.74269436                3.42753726               57.32075907                0.00010000                1.38788050               -6.81586104               -4.67984349              -12.50956768               20.70396573               13.84434676
              13.75246379                2.84808518               57.26541677                0.00010000               -2.40948388               -3.51100524               -4.77202953              -20.32105393               29.03491670                4.17053850
              14.69450468                2.16415241               57.28721059                0.00010000              -11.58755229                3.45906621               -4.29944224              -30.86483658               42.29630585               -3.90971942
              15.52071274                1.27786997               57.50095646                0.06234880               -8.02020252               12.12093975               -3.14102528              -11.59411054               27.08304620              -20.71731667
              16.53410063                0.89295639               57.19767025                0.66718934                1.33878869                3.41446308               -6.78030769                9.34458787                2.04514092              -20.48525805
               7.10762845                6.85291169               58.59069072                0.98329202               -0.26666144               -0.46820610                1.58099874               -0.04644808                0.11851709                0.74396478
               8.10496183                6.47313239               58.29129669                0.41936965               -0.07249710               -0.06122208                0.17169046                0.03180585                0.58254054               -0.55765950
               9.10617851                6.09293002               58.00114957                0.00010000                0.17247627                0.38227615               -1.17697079               -0.07764691                2.87311619               -1.69229220
              10.10841136                5.70909925               57.74745268                0.00010000                0.40107127               -0.10881312               -1.68615787               -1.71413723               10.28889863                3.00837640
              11.11419993                5.29010586               57.60746182                0.00010000                1.17428901               -0.91156889               -3.20112586               -2.95126754               16.01821183                3.73965290
              12.13189714                4.85392003               57.46808882                0.00010000                2.41893556               -2.76166696               -4.16847650               -4.80974618               18.03816848                5.72344381
              13.16257864                4.37225263               57.36175161                0.00010000                2.96889097               -4.48984501               -4.91335276               -9.53000994               22.51651724                5.41895014
              14.19127496                3.81976230               57.29950800                0.00010000                2.07826659               -2.47249046               -5.51452476              -15.50846471               27.25015696                1.22077099
              15.20414397                3.18615658               57.27620425                0.00010000               -1.20800456                2.57020795               -6.09843476              -17.51905279               26.60572581               -7.47655893
              16.16711487                2.50569776               57.19158564                0.06379410               -5.14685302               17.50028637               -6.46774817               -5.15266435               16.24821665              -28.77866494
              17.10120691                1.93808530               56.96465703                0.65793405               -6.59079534               10.71620998               -8.46820179               -0.67522693                9.03023066              -29.25368908
               7.48497344                7.84882023               58.49001819                0.93011586               -0.16943745               -0.36008081                1.26657864               -0.03723248                0.05888379                0.70131893
               8.48327907                7.47302718               58.18387547                0.32148233                0.02944888                0.03052761               -0.14835124                0.05193413                0.51367544               -0.60708451
               9.48556242                7.09715225               57.88681627                0.00010000                0.63547011                0.43667500               -1.53386661               -0.81983620                7.31681495               -1.99733109
              10.49598847                6.70145862               57.71636241                0.00010000                1.53067138               -0.52434452               -2.44395954               -2.11619863               14.87050893                2.84266086
              11.51617585                6.27914460               57.57203938                0.00010000                2.51880030               -1.10092845               -3.46004602               -3.59047118               17.85192117                2.61200566
              12.54636448                5.82755916               57.45934801                0.00010000                3.50380201               -2.25547506               -4.49202621               -5.79197396               20.91090880                3.02158115
              13.58625189                5.33774036               57.37094424                0.00010000                4.10130328               -2.72278753               -5.45511839               -9.36164266               23.79705046                2.24579810
              14.62839054                4.79863537               57.30678008                0.00010000                3.59681386               -1.22200902               -6.53073401              -13.20542611               25.78891426               -0.66814910
              15.65818817                4.21555657               57.24652840                0.00010000                1.86700975                3.40492580               -8.15633251              -14.64756469               24.45628175               -5.75284267
              16.66573074                3.62787570               57.14355844                0.05356400               -0.11835828               11.24071462              -10.77506951               -8.61654432               15.12242641               -8.75380981
              17.65582100                3.10728059               56.89034337                0.62889451               -0.99097375               16.89955169              -12.27191756               -1.39601169                7.50001075              -13.08297006
               7.85846989                8.84571007               58.38997986                0.90669495               -0.08013908               -0.27156591                0.98865197               -0.04130441                0.03008394                0.77275265
               8.85766850                8.47374294               58.07704123                0.28114779                0.14402270                0.11845179               -0.46127301                0.04384534                0.39184300               -0.58380449
               9.86135034                8.10166352               57.77130458                0.00010000                1.32132692                0.48328690               -1.87684501               -1.37338644                9.58775552               -2.11276388
              10.88409503                7.69861236               57.64168683                0.00010000                2.74698116               -0.16914424               -2.97990089               -3.00832169               19.13411790               -0.16320770
              11.91628996                7.26808729               57.52871055                0.00010000                3.66834296               -0.91946447               -4.03119859               -4.55367898               21.04132829                1.07665904
              12.95746189                6.80881053               57.43717058                0.00010000                4.39898111               -1.49787365               -5.06251238               -6.48911310               23.29281396                1.33422188
              14.00426959                6.31779688               57.36697664                0.00010000                4.59441667               -1.36117125               -6.15230746               -8.96880709               25.37710158                0.97825487
              15.04935023                5.79532212               57.31256657                0.00010000                3.88413791                0.31218956               -7.46229049              -11.14683873               26.87684205               -0.20356285
              16.08195234                5.25425510               57.26611373                0.00010000                2.68548654                3.98069460               -9.40451774              -10.77683542               27.44161544               -1.34570411
              17.10305996                4.73051205               57.21477598                0.08005622                1.62622764                9.30407154              -14.88815353               -5.56234930               18.15540282                2.30428060
              18.11447690                4.27607634               56.97050656                0.62580000                1.14169395               13.33770169              -14.99232221               -0.77062053                8.87654049               -0.58102951
               8.22808161                9.84338891               58.29043840                0.89491074                0.01209143               -0.19518250                0.69937876               -0.04499610                0.01731552                0.81913852
               9.22820253                9.47539622               57.97052958                0.26970544                0.25718333                0.21855775               -0.77730318                0.01788835                0.29538158               -0.58737642
              10.23322528                9.10681798               57.65614646                0.00010000                2.05978711                0.58193837               -2.23800116               -1.89509925               11.38928400               -2.17846536
              11.26939827                8.69807574               57.55735433                0.00010000                4.08394081                0.00809039               -3.56294500               -3.83721059               22.74562127               -0.99159669
              12.31490410                8.26075531               57.47287745                0.00010000                4.87371757               -0.62926379               -4.69132445               -5.06262004               24.26701716               -0.10415372
              13.36687262                7.79760169               57.40706424                0.00010000                5.27300312               -0.86761636               -5.73725142               -6.29857092               26.14022372                0.39362762
              14.42036416                7.31051694               57.36245927                0.00010000                5.10614656               -0.35597367               -6.80886762               -7.59049976               27.95160951                0.83193750
              15.46899555                6.80487916               57.33472931                0.00010000                4.35486851                1.16408826               -8.09944784               -8.21369432               29.28104743                2.15566296
              16.50746153                6.29517046               57.31751158                0.00010000                3.18334830                3.62806720               -9.68032353               -6.36494014               32.45350539                3.67594364
              17.53266252                5.81395713               57.35764567                0.13083553                2.09092452                6.16032123              -12.03955389               -2.39149229               19.87889607                6.07182329
              18.54928002                5.37403463               57.08556644                0.62994301                1.66175006                6.61356110               -9.59030240               -0.37813353                5.30489374                3.40900099
               8.59355535               10.84180642               58.19108758                0.89521665                0.10418416               -0.12372625                0.41381709               -0.04964713                0.00731469                0.82284501
               9.59459719               10.47811410               57.86399515                0.28465325                0.36067451                0.32964947               -1.10404549               -0.01341298                0.22250677               -0.60602431
              10.60076884               10.11330229               57.54116471                0.00010000                2.94081556                0.73216326               -2.66630092               -2.44950678               13.05575311               -2.03344900
              11.65341350                9.69877416               57.46987297                0.00010000                5.73713863               -0.11579714               -4.19274809               -4.40346981               26.10158331               -1.08799828
              12.71551161                9.25550201               57.41133248                0.00010000                6.41576731               -0.70222878               -5.38041154               -4.73076639               27.45825105               -0.48562677
              13.78172885                8.79145820               57.37208535                0.00010000                6.48352581               -0.55043599               -6.40682610               -5.05464975               29.42726133               -0.01414651
              14.84518213                8.31067741               57.35994607                0.00010000                5.93469848                0.07785515               -7.35278979               -5.30944826               32.20340439                0.95455763
              15.90042282                7.81860388               57.38518979                0.00010000                5.01967210                1.15627539               -8.01281461               -4.84540344               34.05495197                4.02153101
              16.94557557                7.32681644               57.41882559                0.06283098                3.79715666                2.01666757               -9.15391793               -3.20067307               33.82078641               14.21433470
              17.97636595                6.85371847               57.44210082                0.20011905                2.05918360                2.78143496               -5.27865626               -1.36064344               17.02251956                2.99587084
              18.98675924                6.40834756               57.13952557                0.63083529                1.03932907                2.32185549               -4.43569802               -0.38065281                1.28152224                1.32385320
               8.95447332               11.84091438               58.09147771                0.85391456                0.19650838               -0.05289579                0.13055509               -0.05098511                0.01941261                0.71413094
               9.95643840               11.48198921               57.75732488                0.29617748                0.45508804                0.44339865               -1.43930868               -0.03634969                0.37563121               -0.56020852
              10.96357508               11.12146125               57.43025171                0.00010000                4.13453735                0.86506517               -3.16761442               -3.22215741               14.81436310               -1.35937379
              12.03912915               10.69575979               57.38361061                0.00010000                8.20148255               -1.33425861               -4.77494003               -3.77603223               29.26045648               -0.60151941
              13.12760473               10.24671073               57.34775704                0.00010000                8.57375404               -1.11821964               -5.98329310               -3.13501653               30.60479514               -0.35131021
              14.21060423                9.78659297               57.33279343                0.00010000                7.97123910               -0.61977854               -6.95504136               -2.80634219               32.95887261               -0.09845115
              15.28702951                9.31207404               57.35387152                0.00010000                7.26721101                0.02838493               -7.73357273               -2.67994690               36.99720092                0.68007283
              16.35594845                8.82800466               57.43433973                0.00010000                6.06519832                0.53170089               -7.75272943               -2.45170056               46.05755279                3.48880668
              17.40833348                8.33550381               57.65191523                0.18057516                3.39850441                0.85340511               -3.98619969               -1.51074064               32.19713640               12.49378639
              18.42391854                7.86958583               57.46544070                0.31638826                1.20376592                1.26148269               -3.18577815               -0.79234627                6.35106743                0.41914489
              19.43240880                7.42047174               57.15773160                0.62689498                0.84902589                0.95995906               -2.72603785               -0.15650976                0.47812001               -0.13551200
               9.31038600               12.84074850               57.98994890                0.92704904                0.29373319               -0.01658783               -0.15888162                0.21462454                0.31672286                0.61025617
              10.31332333               12.48698207               57.65168201                0.68700713                0.60845521                0.49928636               -1.76776170                0.18124710                1.06018401               -0.49702948
              11.32255510               12.13060359               57.32825043                0.44754759                6.96600217                0.91423423               -3.54624024               -4.84665163               16.74204366               -0.81561129
              12.45264337               11.67208899               57.30189831                0.36777964               11.97114999               -2.36708027               -5.15296244               -3.52187611               32.29047072               -0.12544683
              13.56197810               11.23313762               57.28376699                0.36049532               10.37976606               -1.35731112               -6.32413366               -1.21398076               33.78838732                0.03248422
              14.66023869               10.77906263               57.28856313                0.36619178                9.40966964               -0.75303398               -7.20410197               -1.13117908               36.43943555                0.25963918
              15.75017149               10.31124511               57.33320299                0.38476470                8.38601684               -0.08289309               -7.83764835               -1.17703818               41.45619943                0.84834231
              16.82795903                9.82923790               57.45520827                0.41720035                6.18040472                0.12332373               -7.15735367               -1.16696994               50.38557515                3.45931468
              17.87377959                9.34388455               57.69566747                0.64107244                2.37960353                0.83807336               -2.97416458               -0.96987764               32.34740526                3.76582014
              18.87555110                8.87894813               57.47964408                0.70889641                0.40388233                0.93622966               -2.67643830               -0.65363404                5.23728465                0.07214538
              19.88185723                8.42754674               57.17221588                0.81160067                0.63061340                0.70750028               -2.17123721               -0.19529502                0.72952792               -0.16664159
               5.84056445                2.98890045               60.00928816                1.00000000               -0.65841024               -0.82800560                2.86465650               -0.26221675               -0.63503834                0.69039662
               6.83398034                2.58616347               59.71158858                1.00000000               -0.46703769               -0.38997301                1.46759067               -0.20103816               -0.80365745                0.11100883
               7.83122369                2.18267885               59.41016923                1.00000000               -0.08629617                0.03419082                0.08680756               -0.20438556               -0.73925688               -0.13046800
               8.83225442                1.77744146               59.11345874                0.62334493                0.17219082                0.50553319               -1.33261349               -0.34283786                0.19829367               -0.64001086
               9.83466751                1.36820057               58.83055061                0.56666182                0.49681499                1.07012070               -2.93180797               -0.33656534                1.16051784               -0.04627969
              10.84219072                0.95666058               58.55271082                0.45833592                0.91289650                1.51515043               -4.48241264               -0.38253249                1.35538387               -0.35214793
              11.85292544                0.53978529               58.27353007                0.14237029               -4.43555987                2.07340135               -5.94569645               -8.22831457                4.60613458               -0.64493200
              12.75347952               -0.03968076               58.06084547                0.00010000              -19.29086074                2.98077638               -4.36902063              -29.14219770                4.66346987               -4.13751313
              13.46710822               -1.10152763               57.96234739                0.00010000               -9.92457972                8.62606445               -6.84037090              -31.54884687                9.09012640                3.73356489
              14.55498793               -1.97872696               57.77984239                0.58371403                7.26803244                6.10536713              -17.30254731              -23.35122273                3.00779082                2.84396990
              15.61246887               -2.41729306               57.50459490                1.00000000                5.74809442                7.14367020              -20.47124303                0.38239621               -1.55620643               -0.64729143
               6.24067926                3.98062040               59.90647362                1.00000000               -0.55984956               -0.78226617                2.55993331               -0.03699871               -0.07079578                0.94510020
               7.23508077                3.58226374               59.60868158                1.00000000               -0.35692090               -0.34940842                1.16185479                0.01940876               -0.07402097                0.17705879
               8.23354084                3.18302076               59.31052858                1.00000000                0.04922093                0.07517300               -0.22019344                0.02521590                0.01593105               -0.26389037
               9.23606518                2.78249679               59.01431605                0.46910253                0.40757271                0.53794985               -1.63778680               -0.06723045                1.36244856               -0.82173363
              10.24169230                2.37890177               58.74297758                0.47443104                0.82539238                1.06832133               -3.32422318               -0.09573055                2.45904208               -0.11210702
              11.25257303                1.97181208               58.46806142                0.37485686                1.35603316                1.53782438               -4.93444689               -0.15310293                2.24273560               -0.53310730
              12.26881296                1.56051931               58.19207790                0.02248445                1.50704875                2.03450177               -6.44104386               -7.95022896               10.13965637               -0.95407013
              13.28271401                0.99012701               58.07533103                0.00010000               -7.38350523               -4.46104208               -2.06731452              -34.97529055               21.62156648                1.44643476
              14.12114286               -0.01526698               58.06598928                0.00010000              -15.16777924                7.79562058               -6.30824431              -41.09173545               19.96585028                4.30141520
              14.97935842               -0.91767328               57.93413455                0.25404751               -3.31419554                5.70558950              -22.63133955              -22.46082002                7.95803775               15.16371447
              16.05485895               -1.34585636               57.65784982                1.00000000                7.55005234                6.22707363              -25.64936645               -0.77401976                2.46133854                9.15971109
               6.63653778                4.97325513               59.80838615                1.00000000               -0.45696236               -0.68543332                2.23928787               -0.04053911                0.13615069                1.12975657
               7.63196816                4.57917530               59.50688372                1.00000000               -0.25214120               -0.26253127                0.84735186                0.01272275                0.28626205                0.12335378
               8.63149496                4.18418231               59.20816037                0.75553167                0.15303177                0.16740747               -0.52993780                0.01856382                0.54403906               -0.54637222
               9.63502880                3.78820046               58.91165353                0.00010000                0.59713240                0.60982710               -1.88176656               -0.07375603                2.62124716               -1.02331648
              10.64343761                3.38956699               58.65444021                0.00010000                1.12411653               -0.12119255               -3.73846511               -1.11752609                3.77989236                1.93809622
              11.65751113                2.98741707               58.38003461                0.00010000                1.60841629               -1.04983375               -5.35227089               -1.76173268                2.90234209                5.20163345
              12.67560593                2.58047533               58.10492810                0.00010000               -1.38755627               -4.45799473               -6.71799841              -16.59412134               20.07000820               11.44002651
              13.62976000                1.87109840               58.17312904                0.00010000               -6.12660629               -7.46848918               -3.82332444              -36.95410839               34.94879436                5.30851030
              14.55307381                1.05438479               58.18810554                0.00010000               -9.66995454                5.91721616               -5.82699909              -42.17003286               38.89262249                2.72935687
              15.43636091                0.13538483               58.32165257                0.43856020               -4.98595862                3.66492248               -4.18621080              -23.43115298               22.84480805               14.80827881
              16.45335464               -0.29275159               57.99046785                0.96750834                1.69937251                4.14273294               -8.18375046               -1.52045336               -0.66836549                7.95350509
               7.02802813                5.96691173               59.70891181                1.00000000               -0.36200901               -0.57462153                1.90854934               -0.05237172                0.25257773                0.93405390
               8.02440804                5.57701312               59.40271521                0.66605256               -0.15705836               -0.16495037                0.51938231                0.00571125                0.57590839               -0.26714104
               9.02488697                5.18636891               59.10284949                0.14585662                0.23986688                0.27990882               -0.84577594                0.00390124                1.17782370               -1.10420228
              10.02920538                4.79469333               58.80860032                0.00010000               -0.23808991                0.43483765               -2.15712321               -1.49429205                6.15820875                0.28366775
              11.02012517                4.37647792               58.60851762                0.00010000               -0.13876699               -1.33651374               -3.17971323               -3.29980478               10.85815377                4.13448802
              12.02643004                3.95081541               58.41061647                0.00010000                1.65620145               -3.90979084               -4.36084355               -5.98585009               14.20363364                9.29951818
              13.05324920                3.47135941               58.27332464                0.00010000                2.16461711               -8.97959147               -4.79749633              -15.26351062               22.22486547               14.86744994
              14.06972238                2.84075723               58.21592151                0.00010000               -1.98967145               -3.08175218               -5.18415514              -24.10923086               31.07938077                2.93789713
              15.01345577                2.10307734               58.24089481                0.00010000              -10.59253209                3.68842886               -5.02779751              -35.16552715               45.07083388               -4.68638028
              15.85787174                1.15562517               58.45539105                0.08562094               -6.63665179               12.66706209               -6.36476700              -15.26111587               29.39138896              -20.63901573
              16.88072273                0.73699830               58.11510141                0.70502389                2.28509910                4.25895443               -9.76670598                7.05203447                2.59550744              -20.33020902
               7.41528758                6.96176270               59.60654647                0.96651687               -0.26623688               -0.45583645                1.58084346               -0.04806960                0.11686529                0.73725453
               8.41262521                6.57587630               59.29297261                0.39955168               -0.06974064               -0.07101728                0.16415399                0.03736619                0.61319447               -0.59374077
               9.41389277                6.18978048               58.98928239                0.00010000                0.12043644                0.36014386               -1.18807806               -0.21306366                3.43485160               -1.74103076
              10.41503394                5.79689721               58.73209857                0.00010000                0.37133362               -0.56298832               -1.33577592               -2.34528617               10.67924232                2.98353209
              11.42131944                5.36283672               58.57589002                0.00010000                1.39393467               -1.57528266               -3.10148096               -3.86947133               16.18472617                3.87837568
              12.44291263                4.90922125               58.42644034                0.00010000                2.95372324               -3.88676785               -4.13819130               -6.24579429               18.71325353                5.85801471
              13.48039390                4.40088350               58.31197895                0.00010000                3.64724110               -5.74137243               -5.02170112              -12.23372569               23.42089963                5.12450849
              14.51585746                3.80946336               58.24242636                0.00010000                2.72507103               -2.88479192               -5.87335519              -19.27182689               28.30827297                0.31679875
              15.53489533                3.12815336               58.21154651                0.00010000               -0.93199077                2.76883600               -6.90932208              -22.02300583               28.11334871               -9.45876993
              16.49721764                2.38872608               58.12646122                0.06423860               -5.16231300               18.31838781               -6.31240129               -9.48053556               17.21753424              -33.31576776
              17.43164907                1.79242750               57.87562861                0.67530119               -6.55685749               11.50581603               -9.62158944               -4.01319840                9.78050746              -32.12205253
               7.79883955                7.95779500               59.50281170                0.91745972               -0.17019665               -0.34592846                1.28110972               -0.03721730                0.05683755                0.72856447
               8.79713758                7.57559277               59.18232161                0.30851674                0.03826151                0.00965246               -0.15625637                0.06572507                0.53225248               -0.62429552
               9.79960478                7.19357178               58.87132587                0.00010000                0.60529216                0.37061044               -1.55709804               -1.19588822                7.62126605               -2.07090942
              10.80924342                6.78343357               58.69227222                0.00010000                1.54034623               -0.99600028               -2.36609788               -2.98547875               15.38368065                2.27242884
              11.83041170                6.34497227               58.53766722                0.00010000                2.71119734               -1.72132722               -3.39084320               -4.78160329               18.26868409                2.31516682
              12.86346737                5.87308005               58.41411114                0.00010000                3.89604347               -3.08060446               -4.52232746               -7.65658120               21.37305053                2.66610328
              13.90833257                5.35653196               58.31517187                0.00010000                4.67743052               -3.54369451               -5.65151804              -12.15299071               24.25802980                1.61608229
              14.95701598                4.78306139               58.23872486                0.00010000                4.27001810               -1.69205425               -7.01359951              -16.89703142               25.98594035               -1.79089213
              15.99373293                4.15845406               58.16056230                0.00010000                2.34854575                3.52063518               -8.81800343              -19.06265450               24.26804548               -7.95379363
              17.00398690                3.52199292               58.03396409                0.02809029               -0.03385050               12.25002764              -11.14334239              -12.22856102               14.88006211              -14.54386875
              17.99305592                2.96711462               57.76330119                0.62442306               -1.09309728               17.86858999              -13.02146890               -4.03817972                7.26762031              -17.85012359
               8.17894770                8.95484413               59.39992138                0.89740199               -0.07847652               -0.25598383                0.99646488               -0.04159062                0.02580250                0.81442404
               9.17816293                8.57606935               59.07236017                0.27288514                0.15932544                0.09606501               -0.47021497                0.04518069                0.40113331               -0.60387002
              10.18213421                8.19719269               58.75227524                0.00010000                1.28804742                0.38349288               -1.93029185               -1.87954082                9.78276839               -2.23365119
              11.20392388                7.77697721               58.61171924                0.00010000                2.69533427               -0.45508571               -2.99150383               -4.11586097               19.52568554               -0.62920959
              12.23604089                7.32841017               58.48808091                0.00010000                3.71487162               -1.34425723               -4.05958641               -6.01065671               21.43740899                0.51496728
              13.27822131                6.84760916               58.38567313                0.00010000                4.56559314               -2.00647292               -5.18424307               -8.60627776               23.62104089                0.70990667
              14.32735275                6.33000961               58.30344083                0.00010000                4.88867083               -1.84197342               -6.48195742              -11.93055118               25.52592206                0.13786648
              15.37599473                5.77562227               58.23394350                0.00010000                4.36789729                0.09689374               -8.15461939              -14.93321511               26.59096021               -1.47818770
              16.41471070                5.19856607               58.16389458                0.00010000                3.39955681                4.42378914              -10.91323862              -15.51360737               25.05853705               -3.19939702
              17.44398587                4.63372663               58.04871866                0.03861969                2.29656907               11.07765689              -16.45824064               -9.96189989               16.10302194               -1.50178238
              18.46064208                4.14979930               57.78723359                0.61085279                1.66562159               16.98467345              -18.80457602               -3.82018862                9.01695894               -3.09897986
               8.55555731                9.95267533               59.29752575                0.88780805                0.01353264               -0.18269409                0.71338967               -0.04743252                0.01404592                0.86709478
               9.55569263                9.57751407               58.96264615                0.26195244                0.27743984                0.20131048               -0.79274958               -0.01085954                0.28997397               -0.62313609
              10.56110610                9.20124164               58.63326360                0.00010000                2.00080473                0.48374202               -2.34910632               -2.46550954               11.45948772               -2.40508826
              11.59570873                8.77433185               58.52096617                0.00010000                3.92302560               -0.10166995               -3.70435355               -5.02163602               22.98551443               -1.57848085
              12.63956661                8.31808712               58.42496504                0.00010000                4.70168263               -0.78011216               -4.84710770               -6.59040479               24.59407259               -0.79563300
              13.68974238                7.83295059               58.34807514                0.00010000                5.10709100               -1.02197333               -5.98829693               -8.47685443               26.36309225               -0.37807830
              14.74170843                7.31969250               58.29128179                0.00010000                5.00264221               -0.42712376               -7.33406710              -10.54995833               27.88035312               -0.13848356
              15.78979522                6.78499926               58.24771132                0.00010000                4.18239991                1.37462254               -9.19458715              -11.76206326               28.85642687                0.96102726
              16.82535643                6.24692985               58.21044883                0.00010000                3.18602236                4.75940805              -11.66552261               -9.99531047               30.48766722                1.95795129
              17.85351567                5.74354606               58.19760257                0.07942905                2.95751930                9.42190773              -19.44245997               -4.88724970               21.13335010                7.85018142
              18.88450682                5.30680809               57.95598321                0.60884694                3.09911478               11.56522586              -19.24045217               -1.43881945               11.30050439                5.50360150
               8.92832156               10.95119025               59.19534141                0.88921861                0.10578697               -0.11775775                0.43246115               -0.05322984                0.00346136                0.87976270
               9.92937943               10.58009555               58.85278955                0.27580307                0.38423379                0.32195020               -1.12888510               -0.06765581                0.16424962               -0.66044795
              10.93600623               10.20686753               58.51343625                0.00010000                2.86331255                0.70312422               -2.91640404               -2.98744042               12.97921410               -2.40539114
              11.98664568                9.77494381               58.42631598                0.00010000                5.48039125               -0.00729789               -4.56362694               -5.46692183               26.22188574               -1.73139577
              13.04561406                9.31280793               58.35562695                0.00010000                6.02165871               -0.55918260               -5.74328862               -6.08662069               27.76447199               -1.19986086
              14.10707885                8.82716969               58.30545083                0.00010000                5.93454306               -0.32541225               -6.82499067               -6.96215987               29.59144924               -0.77740679
              15.16430492                8.32146714               58.28191936                0.00010000                5.32186320                0.51033650               -8.14456936               -7.90311350               32.11323094               -0.02896691
              16.21351612                7.80311473               58.29696314                0.00010000                4.59763870                1.90631681               -9.65440483               -7.60928055               33.34033366                2.92397008
              17.25625769                7.29375423               58.31030073                0.03603351                3.64232578                3.51550144              -12.45876436               -4.80416254               35.52139935               15.03560260
              18.28636263                6.82216478               58.37449740                0.14586059                2.45419742                5.41093357              -11.55115389               -1.68347177               20.39446115                6.78695865
              19.30534164                6.38110381               58.08495750                0.60440528                1.89790098                4.69140811               -9.21260619               -1.14142925                4.37481650                4.41919291
               9.29668210               11.95032017               59.09293737                0.84606173                0.19801342               -0.05524790                0.15810481               -0.05336007                0.01590783                0.77544265
              10.29866223               11.58395307               58.74270292                0.29044780                0.49134734                0.44716764               -1.47673319               -0.07313240                0.22374027               -0.62269334
              11.30650904               11.21530413               58.39661490                0.00010000                4.08838323                0.94133571               -3.64931034               -3.63453085               14.62710858               -1.68935929
              12.38042989               10.77418590               58.33326087                0.00010000                7.95496354               -1.06270929               -5.43210306               -4.48140545               29.36571628               -1.06973881
              13.46560831               10.30690347               58.28498323                0.00010000                8.07050408               -0.73536684               -6.62628423               -4.00001516               30.95847256               -0.83744589
              14.54183998                9.82644235               58.25968401                0.00010000                7.10464093               -0.06417323               -7.57485307               -3.96905919               33.13948752               -0.61119113
              15.60770113                9.32989923               58.27041267                0.00010000                6.17412716                0.90197438               -8.77984517               -4.26121699               36.85292905                0.00043730
              16.66532252                8.82312560               58.34585188                0.00010000                5.12609954                1.93608578              -10.15199569               -3.91346822               47.21932078                2.85344900
              17.71022312                8.31723987               58.59914159                0.16801407                3.35870652                2.02701976               -8.14785116               -2.39892087               34.02805187               14.67859244
              18.73249665                7.85176473               58.43114188                0.27110067                1.67885257                2.01499874               -4.10395333               -0.83818893                7.39474149                1.50133093
              19.74380017                7.40063625               58.12729459                0.59728423                1.13035244                1.46014530               -4.10013609               -0.68581304                1.21165681                0.70255707
               9.65998855               12.95008529               58.98855361                0.92226740                0.29442771               -0.02348802               -0.12133148                0.22600687                0.34263398                0.67195120
              10.66293282               12.58903891               58.63373956                0.68884232                0.65471235                0.50858329               -1.81124999                0.20750733                0.92616443               -0.56162289
              11.67308279               12.22569425               58.29060979                0.45500111                7.12426990                1.03901232               -4.03351648               -5.11008919               16.56729956               -1.00956189
              12.80541822               11.75368962               58.24716623                0.36753732               12.01372544               -2.04962756               -6.04075329               -3.88084998               32.39381814               -0.30100513
              13.91335730               11.29810059               58.21679621                0.36055232                9.96418453               -0.88028786               -7.22146792               -1.61527061               34.26082304               -0.17094558
              15.00470191               10.82588623               58.21209929                0.36599385                8.45200126               -0.05561187               -8.02632997               -1.64350479               36.78062169                0.03110079
              16.08239733               10.33950662               58.24753823                0.38380037                7.16020954                0.96073966               -9.12648162               -1.73286973               41.60021777                0.55950684
              17.14790610                9.84183644               58.37172732                0.41491245                4.86214068                1.87108431              -10.11212336               -2.00224152               52.22865422                3.85766924
              18.17964014                9.33429462               58.65801759                0.63862515                1.91481876                1.70547494               -5.67513559               -2.02688218               34.15028338                4.64361745
              19.18620248                8.86246476               58.45237429                0.68861572                0.71211026                1.07000276               -3.01899974               -0.82881226                5.61630439                0.03777538
              20.19388235                8.41030672               58.14878040                0.79612984                0.76798682                0.96704719               -3.13233156               -0.20758661                1.08425526                0.21590654
               6.13905561                3.10006094               61.03761383                1.00000000               -0.63938111               -0.80683935                2.79181254               -0.25789045               -0.60896252                0.67540007
               7.13266180                2.69169146               60.72605412                1.00000000               -0.45022812               -0.37867809                1.42320907               -0.19851102               -0.76700908                0.10713041
               8.13005105                2.28259451               60.41092240                1.00000000               -0.07418163                0.03573641                0.06840375               -0.20038902               -0.71433946               -0.12221743
               9.13117817                1.87183775               60.10013209                0.61612899                0.18576461                0.49624679               -1.32150869               -0.33984514                0.10834778               -0.61635920
              10.13376634                1.45709867               59.80130752                0.55050843                0.51038297                1.04536534               -2.89809347               -0.34053117                0.99616486               -0.08214486
              11.14138583                1.03979080               59.50796598                0.43133599                0.92745529                1.49222058               -4.44080210               -0.39348954                1.26056513               -0.40860354
              12.15231545                0.61740009               59.21434223                0.09671870              -10.13361456                2.01416805               -5.85932116              -16.10024321                6.67896636               -0.66657383
              12.93871354               -0.12390604               59.02897773                0.00010000              -21.97368107                5.13079287               -2.11759608              -27.07599519                3.83638342               -4.80867500
              13.71284183               -1.15466763               58.89690757                0.00010000               -5.35850980                7.49662356               -6.52130228              -28.84580466                5.79535199                7.70935697
              14.83154334               -2.07468115               58.60617696                0.60296532                8.61118935                6.17903459              -16.17452046              -24.42658146               -0.34014223                2.26351163
              15.88506561               -2.54735517               58.29671683                1.00000000                5.35222728                7.31243431              -19.51750154                0.92159721               -2.03908491               -0.79508123
               6.54484619                4.09199255               60.93178643                1.00000000               -0.54362779               -0.76128394                2.49459799               -0.03929897               -0.05624151                0.92850428
               7.53940991                3.68790468               60.62012269                1.00000000               -0.34360867               -0.33880718                1.12468887                0.01481871               -0.04886366                0.17007797
               8.53797402                3.28295187               60.30825612                1.00000000                0.05588617                0.07567765               -0.22941396                0.02216323                0.03069893               -0.26093028
               9.54052763                2.87680022               59.99798662                0.47432629                0.42052466                0.52846419               -1.61681849               -0.07269611                1.21996276               -0.77419322
              10.54638451                2.46755233               59.70989869                0.47410938                0.83862941                1.03689562               -3.27047470               -0.09699220                2.19854189               -0.16784464
              11.55730022                2.05471300               59.41889864                0.36540621                1.33884638                1.50758036               -4.86302267               -0.17057418                2.05033579               -0.58565874
              12.57316144                1.63754177               59.12797479                0.00010000               -0.16563876                1.93617766               -6.32174774              -14.66290826               13.09345939               -0.91811203
              13.55398745                0.92740189               59.05881445                0.00010000               -8.66950506               -1.02659166               -2.64570721              -35.29235358               20.66189906               -0.50365079
              14.39977134               -0.07970140               59.00125052                0.00010000              -13.51830765                7.56622497               -6.85726636              -38.62900484               10.63221414                6.91873794
              15.28362130               -1.01289081               58.68070084                0.17615030               -1.64078673                5.64345936              -24.40281636              -22.18689315                1.06090179               28.13159651
              16.36695560               -1.47423082               58.37095915                1.00000000                8.33343062                5.94848563              -27.70710683               -0.71277613                1.12225236               22.12990978
               6.94644537                5.08483527               60.83054416                1.00000000               -0.44465121               -0.66437237                2.18477876               -0.04487552                0.14873637                1.10811913
               7.94199886                4.68491532               60.51521239                1.00000000               -0.24232962               -0.25423860                0.81733694                0.00523283                0.30868489                0.10690617
               8.94159878                4.28410806               60.20281267                0.72909166                0.15624668                0.16743935               -0.53449753                0.01356384                0.58820317               -0.55433123
               9.94512379                3.88240704               59.89293785                0.00010000                0.61574696                0.60314847               -1.85026026               -0.09280088                2.42749556               -0.96928885
              10.95391372                3.47783658               59.61739228                0.00010000                1.14305531               -0.44682043               -3.64772464               -1.18401144                3.42355364                2.36023718
              11.96798490                3.06994240               59.32693284                0.00010000                1.62273422               -1.61679311               -5.22861816               -1.75206648                2.75134155                5.85095042
              12.98636840                2.65612365               59.03817965                0.00010000               -0.89376310               -5.98531796               -6.58142443              -20.28275490               21.77857900               12.58415710
              13.95010964                1.85556212               59.12789074                0.00010000               -5.29069890               -4.49280415               -5.08385575              -40.34864929               37.38238528                4.52647010
              14.88055442                0.99665687               59.12318839                0.00010000               -8.38873643                6.33426127               -6.95282567              -43.03468035               41.81029554                5.03224053
              15.78233491                0.03818803               59.28461384                0.42697723               -4.35321482                3.65859091               -3.00854822              -23.71648508               25.66237434               28.31332608
              16.79349013               -0.42838545               58.91649184                0.95888834                1.11552200                3.77111382               -5.92510580               -1.67562589               -1.38863810               21.73956703
               7.34378857                6.07870510               60.72783241                1.00000000               -0.35467946               -0.55391914                1.86825356               -0.05511476                0.26670113                0.91921500
               8.34024178                5.68281991               60.40781225                0.64013522               -0.15174967               -0.16320751                0.49978390                0.00432475                0.60112511               -0.30263234
               9.34075358                5.28630066               60.09432206                0.11910707                0.23506581                0.27624826               -0.85448330                0.00970398                1.24531106               -1.13002076
              10.34494309                4.88886319               59.78715091                0.00010000               -0.27923319                0.13454743               -2.12043410               -1.87099800                6.41289668                0.95705751
              11.33516891                4.45861592               59.57737958                0.00010000               -0.04856297               -1.96564026               -3.04401052               -3.84235375               11.27671780                4.79407926
              12.34397183                4.02237714               59.36753107                0.00010000                2.33588535               -5.11783751               -4.24468974               -6.93460568               14.91370904               10.31146680
              13.38188662                3.51783541               59.22480915                0.00010000                3.12547042              -11.16140325               -4.87576166              -17.80945621               23.39105095               16.13852341
              14.40648124                2.83754580               59.16173367                0.00010000               -1.27174009               -2.61335960               -5.59277627              -28.15441849               32.59355109                3.11793531
              15.35645182                2.04698383               59.18665464                0.00010000               -8.60736623                4.03284127               -5.71704157              -38.77215645               45.81642862               -3.60996274
              16.23433392                1.06028101               59.37366112                0.11904988               -4.49308781               11.13106670               -9.41357462              -19.03719146               29.72428767              -17.25615373
              17.26659006                0.60119145               59.00233613                0.75119090                3.22561458                3.79149653              -11.94978285                4.34065179                2.45147358              -17.31730580
               7.73711346                7.07375688               60.62230758                0.95189701               -0.26236600               -0.43442511                1.56051703               -0.04548089                0.11011963                0.74618293
               8.73448980                6.68165117               60.29457977                0.38006503               -0.06819410               -0.08330961                0.15756887                0.05221600                0.64178912               -0.62821731
               9.73574958                6.28963302               59.97738801                0.00010000                0.04493856                0.32202731               -1.18355131               -0.46348148                4.19346819               -1.80419924
              10.73538857                5.88509799               59.72073716                0.00010000                0.39015565               -1.07883305               -0.99339857               -2.93658000               11.14732477                2.94430524
              11.74355269                5.43852378               59.54543220                0.00010000                1.73423577               -2.26794368               -3.00337169               -4.64853145               16.22727702                4.13767282
              12.77007329                4.96758565               59.38532499                0.00010000                3.57289620               -5.03643542               -4.08005222               -7.66395958               19.30734547                6.20619130
              13.81501062                4.43289558               59.26131758                0.00010000                4.38997819               -6.96176474               -5.07934291              -14.96892879               24.08148276                5.30288341
              14.85787285                3.80329493               59.18204089                0.00010000                3.36827351               -3.31227123               -6.10602159              -22.96721054               28.78793864                0.32801932
              15.88237609                3.07731369               59.13801781                0.00010000               -0.52446979                2.85744002               -7.53356809              -27.53137671               29.43725427               -9.63562765
              16.84738345                2.26080937               59.06533762                0.07089937               -4.19469021               17.72299364               -6.40986252              -15.18050200               17.35627313              -34.59569344
              17.79848228                1.64744448               58.77222524                0.69631047               -4.89011735               11.87408432              -11.28563056               -7.54103195                9.17737626              -30.29709015
               8.12709038                8.07001660               60.51564038                0.90655721               -0.16804232               -0.32361909                1.27391519               -0.03654288                0.04997254                0.76342954
               9.12540995                7.68115372               60.18075034                0.29674871                0.04733770               -0.01550851               -0.15446984                0.07860508                0.54337698               -0.64478634
              10.12803713                7.29274120               59.85567431                0.00010000                0.59553909                0.27098684               -1.56710111               -1.59850672                7.97387892               -2.18940073
              11.13732074                6.86728653               59.66904045                0.00010000                1.58367418               -1.38818851               -2.30523809               -3.80348270               15.98369109                1.60341198
              12.15971061                6.41325704               59.50422251                0.00010000                2.95000512               -2.37174839               -3.30806126               -5.90532677               18.69210099                2.19245150
              13.19632084                5.92164843               59.36890146                0.00010000                4.35440758               -3.92704956               -4.50716519               -9.51037101               21.76730376                2.63699349
              14.24679877                5.37860012               59.25791388                0.00010000                5.31990395               -4.42256467               -5.74979312              -14.94205044               24.52610727                1.51505052
              15.30271892                4.77130038               59.16650809                0.00010000                5.07555403               -2.32615135               -7.29393212              -20.58123274               25.94076823               -2.07669205
              16.34830985                4.10413263               59.07016833                0.00010000                2.89370878                3.15334700               -9.07784569              -23.52938261               23.98420917               -9.00526141
              17.36059309                3.41474088               58.92069159                0.00897496               -0.29053197               13.80142770              -11.29802633              -15.55307797               14.50773258              -18.82934786
              18.34249921                2.83867314               58.62991399                0.62342016               -1.80938855               18.69851209              -13.59478978               -6.64157790                6.58946579              -20.38915805
               8.51410837                9.06728450               60.40990916                0.88992589               -0.07710674               -0.23529106                0.99422762               -0.04278248                0.02104937                0.86215113
               9.51333730                8.68134100               60.06763693                0.26610794                0.17691327                0.06751970               -0.46708164                0.03112307                0.38894951               -0.63177873
              10.51764663                8.29505276               59.73269874                0.00010000                1.27328883                0.24070068               -1.97967354               -2.39744500                9.99454310               -2.43133213
              11.53880308                7.85733422               59.58185675                0.00010000                2.67188098               -0.76885750               -2.97038950               -5.19387816               19.99617482               -1.04471054
              12.57108425                7.39108881               59.44751882                0.00010000                3.78598568               -1.79802178               -4.04018909               -7.41617936               21.88635479                0.15644250
              13.61452279                6.88904466               59.33348572                0.00010000                4.77167039               -2.56930024               -5.22581271              -10.75738245               23.95223711                0.47805862
              14.66651766                6.34444429               59.23733749                0.00010000                5.30964474               -2.46656902               -6.66563191              -15.03682417               25.58412507               -0.13532129
              15.72071569                5.75677190               59.14947418                0.00010000                5.09151331               -0.51101588               -8.61459421              -18.99127585               25.92837605               -2.03869396
              16.76834793                5.14038063               59.04784896                0.00010000                4.05328506                4.18953541              -11.71451468              -20.04601026               23.06454669               -4.43393681
              17.80178139                4.53683792               58.88561116                0.00195492                2.47191441               11.52205658              -15.92147032              -13.48819346               13.82745093               -6.48467028
              18.81778622                4.02141472               58.59441504                0.59902474                1.60048286               17.38548034              -18.63031361               -5.74083958                7.23495357               -7.88286659
               8.89812173               10.06531078               60.30470619                0.88231140                0.01424259               -0.16472213                0.71582773               -0.04967088                0.00885758                0.92299073
               9.89826416                9.68250411               59.95467459                0.25801299                0.29866428                0.17536875               -0.79035767               -0.06527622                0.23490419               -0.67076777
              10.90409502                9.29755522               59.60916433                0.00010000                1.95714828                0.33952037               -2.47038836               -3.07073406               11.47811039               -2.77194363
              11.93740712                8.85190938               59.48326726                0.00010000                3.77907820               -0.27413329               -3.78890638               -6.17005889               23.28329593               -2.24576462
              12.97967658                8.37729661               59.37593530                0.00010000                4.52052957               -0.98011040               -4.93001495               -8.05325020               25.03948955               -1.32162322
              14.02781771                7.87026243               59.28729830                0.00010000                4.93292307               -1.23717336               -6.12195569              -10.76426184               26.69119949               -0.73166342
              15.07833504                7.32926874               59.21577793                0.00010000                4.95696708               -0.67385479               -7.69397825              -13.98827976               27.80796172               -0.55759894
              16.12695705                6.76108006               59.15083757                0.00010000                4.44942915                1.10854074               -9.94483008              -16.16064837               28.22403681                0.20268541
              17.16732362                6.18792334               59.08420113                0.00010000                4.14190423                4.92275506              -13.65727318              -15.28883391               26.44713395                0.48143468
              18.20979514                5.64518202               58.96879647                0.02870403                4.56026004               10.95402065              -22.09759036               -9.68617892               17.55178929                6.78845469
              19.25852883                5.18638275               58.70075740                0.59160677                4.87336857               15.20026555              -25.75972382               -4.10246905               10.78899948                5.80672123
               9.27872829               11.06399006               60.19973680                0.88414733                0.10590545               -0.10498765                0.43954723               -0.05723596               -0.00357337                0.94948928
              10.27978734               10.68484837               59.84141745                0.27547003                0.40491999                0.30406062               -1.13161691               -0.15876856               -0.01786785               -0.73517144
              11.28682669               10.30184317               59.48283663                0.00010000                2.79365841                0.64726526               -3.19579902               -3.57662725               12.69799302               -3.02414639
              12.33566051                9.85185155               59.37860043                0.00010000                5.24197576                0.08026943               -5.06541647               -6.48442722               26.38060411               -2.69816733
              13.39166620                9.37148660               59.29646671                0.00010000                5.58024571               -0.42520269               -6.08344731               -7.34379467               28.33467424               -1.87251395
              14.44726542                8.86430120               59.23558554                0.00010000                5.21341160               -0.12708713               -7.08448561               -9.01862934               30.00140574               -1.16785944
              15.49593443                8.33096719               59.19705469                0.00010000                4.57913483                0.85975869               -8.67875015              -11.28866503               32.07369722               -0.49672416
              16.53884812                7.77894272               59.19210169                0.00010000                4.12674303                2.46147011              -11.38375086              -12.37412824               32.36641604                1.92421434
              17.57846929                7.23883573               59.16965030                0.00010000                3.53751409                4.67177301              -14.70996255               -9.33717435               34.76123880               14.26020385
              18.60959840                6.75591834               59.21107774                0.08489689                3.74330411                8.82767749              -23.01031396               -3.97752417               24.30710179               12.45751266
              19.65333538                6.32542003               58.95527345                0.58372601                4.37369748                9.21586176              -22.65135631               -2.75944690               12.58094297               10.14668734
               9.65526038               12.06321103               60.09463980                0.83864641                0.19752971               -0.05175102                0.17553877               -0.05564568                0.00735635                0.85788249
              10.65723568               11.68858533               59.72779022                0.30478615                0.51494589                0.44139708               -1.49257327               -0.13537007               -0.17889924               -0.71078501
              11.66555930               11.31050052               59.35726550                0.00010000                4.04197331                1.02897046               -4.13859006               -4.07114090               13.99951813               -2.20815518
              12.73807514               10.85351477               59.27496855                0.00010000                7.73958720               -0.67966934               -6.67763285               -5.15175826               29.48107430               -1.88846497
              13.82035104               10.36879255               59.21523136                0.00010000                7.49446982               -0.26969283               -7.45731826               -4.75993923               31.82708765               -1.33579639
              14.88796454                9.86772069               59.18129637                0.00010000                5.87845884                0.52764400               -7.96299151               -5.22424789               33.79645506               -0.87310231
              15.93792022                9.34646391               59.17827462                0.00010000                4.18207047                1.86084651               -9.50166089               -6.53989179               36.68298670               -0.37730571
              16.97160595                8.81030946               59.23129981                0.00010000                3.28421523                3.78488428              -12.30393988               -7.09502398               47.51133712                1.98108699
              18.00360452                8.28135880               59.48895821                0.12354503                3.60272070                4.00845751              -17.59137556               -4.54524483               38.39944365               16.25099360
              19.04366036                7.82173557               59.38336163                0.20484916                3.03659894                4.06602396               -7.92140615               -1.15714162               11.87095675                5.89921223
              20.06433650                7.37069998               59.07572888                0.57547406                2.06761387                3.17366164               -8.69788059               -2.23382121                3.79920199                3.49135125
              10.02686678               13.06295504               59.98752227                0.91798720                0.29236681               -0.02559895               -0.09000626                0.23276763                0.38134374                0.76059637
              11.02979044               12.69367632               59.61545701                0.70547986                0.68038241                0.50909913               -1.83007647                0.22885383                0.58668296               -0.65494483
              12.04047442               12.32242258               59.24758010                0.47706690                7.22714332                1.19220556               -4.37009474               -5.27939489               15.84793014               -1.34752980
              13.17433331               11.83825816               59.18108324                0.36742901               12.08935374               -1.52566054               -8.04467571               -4.19067464               32.30631912               -0.55363576
              14.28226150               11.36609275               59.13933764                0.36058771                9.53878975               -0.26998069               -8.45889002               -1.97915847               35.42742928               -0.42704960
              15.36510911               10.87485408               59.12803653                0.36575110                7.01431600                0.71333908               -8.62835817               -2.18097451               37.69068252               -0.14240667
              16.42254782               10.36818412               59.15067336                0.38285339                4.84718242                2.17202094              -10.00834007               -2.54792332               41.54541952                0.31813346
              17.46205275                9.85464041               59.25296580                0.41261697                2.67952371                4.43309426              -13.35496856               -3.41428126               53.97294263                3.36603684
              18.47613829                9.31900488               59.58216476                0.61381511                1.75308159                3.76460865              -14.20478314               -3.61670235               39.16058709                8.92747962
              19.49711439                8.83723881               59.41926409                0.65299103                1.72959141                1.55032488               -4.85892278               -1.16017875                8.84950050                0.61254193
              20.51073012                8.38889326               59.10956925                0.78560042                1.36157358                1.81932809               -6.56267629               -0.19519320                2.79964541                0.88656046
               6.45150462                3.21406326               62.06512441                1.00000000               -0.61730172               -0.78031070                2.70215413               -0.25170053               -0.58621434                0.66316917
               7.44533160                2.80016895               61.74005276                1.00000000               -0.43228400               -0.36619183                1.37444788               -0.19458929               -0.73491745                0.10322501
               8.44285894                2.38556706               61.41153730                1.00000000               -0.06476690                0.03448218                0.05907310               -0.19499102               -0.69346166               -0.11484159
               9.44403626                1.96940522               61.08702857                0.60988953                0.19489927                0.48019437               -1.28822513               -0.33102551                0.01284813               -0.59600946
              10.44675692                1.54937533               60.77258874                0.53561876                0.51655244                1.00847872               -2.82363692               -0.33968161                0.81223431               -0.11478920
              11.45436731                1.12662320               60.46389477                0.40547656                0.93680473                1.45088516               -4.34153163               -0.39569772                1.14315320               -0.45710574
              12.46549302                0.69918870               60.15634364                0.05307654              -15.33627286                1.91309484               -5.70293073              -23.58021246                9.66002131               -0.74947440
              13.14764185               -0.19552769               60.01849355                0.00010000              -22.98384897                7.66686760               -1.41413721              -25.25731298                9.58381737               -1.92030808
              14.00581604               -1.15602637               59.83192134                0.00010000                0.03669862                5.28533298               -6.21873494              -23.74036887                3.77590288               12.15098039
              15.14837582               -2.08250449               59.45635198                0.65606594                9.23956979                4.90262586              -12.98681981              -23.03344723               -2.44096628                1.57853569
              16.19060743               -2.58167932               59.11424487                1.00000000                4.22316075                5.86461429              -15.87709026                0.70051177               -2.01680731               -0.59060077
               6.86288192                4.20626015               61.95636558                1.00000000               -0.52481121               -0.73458668                2.41369490               -0.04173973               -0.04283299                0.91599122
               7.85763381                3.79650704               61.63117536                1.00000000               -0.32955137               -0.32725460                1.08438577                0.00967431               -0.02508562                0.16289144
               8.85629089                3.38591188               61.30594030                1.00000000                0.05940333                0.07313381               -0.22909354                0.01873787                0.04510121               -0.26106412
               9.85882187                2.97420717               60.98197969                0.48114464                0.42301146                0.51225829               -1.57374087               -0.07444670                1.08150792               -0.72940234
              10.86475112                2.55946012               60.67756809                0.47585937                0.83408866                0.99577575               -3.17532506               -0.09591736                1.94074036               -0.21005008
              11.87550364                2.14113205               60.37080096                0.35803305                1.30076076                1.45902207               -4.72842150               -0.18785916                1.87863044               -0.61889369
              12.89076633                1.71831965               60.06564295                0.00010000               -2.64136921                1.80677053               -6.12028176              -20.76322320               14.99294994               -0.92518876
              13.82267626                0.88114098               60.02241688                0.00010000               -8.94327945                2.71181390               -4.51307352              -33.83677938               22.78601580                1.75213533
              14.71190075               -0.10317305               59.92884395                0.00010000               -9.59042177                6.28259218               -7.28842729              -34.39393134                4.60971697               11.47118722
              15.63086783               -1.03347823               59.44607822                0.12510792               -0.75566815                4.55977848              -20.07341546              -20.59655046               -5.14560483               41.36975417
              16.69678738               -1.52303318               59.10370768                1.00000000                6.59195572                4.61710442              -22.96070726               -0.39457348               -0.19246262               36.62349038
               7.27017606                5.19937153               61.85208172                1.00000000               -0.43027026               -0.63637734                2.11527733               -0.04873834                0.15936284                1.09356567
               8.26587336                4.79362386               61.52323046                1.00000000               -0.23212487               -0.24569744                0.78536027               -0.00173494                0.32927029                0.09175430
               9.26553356                4.38702974               61.19747042                0.69600660                0.15628695                0.16406314               -0.52885149                0.00950837                0.63604173               -0.57218408
              10.26899909                3.97965039               60.87464832                0.00010000                0.61900671                0.59140027               -1.79743091               -0.10774834                2.25759234               -0.91947005
              11.27791369                3.56929084               60.58148571                0.00010000                1.13757483               -0.75702657               -3.51736915               -1.16592563                3.10009659                2.79989256
              12.29175059                3.15580364               60.27546225                0.00010000                1.61529599               -2.12397267               -5.04126899               -1.60978619                2.61964185                6.48488098
              13.31021961                2.73532411               59.97329961                0.00010000                0.03241847               -7.36638533               -6.36763084              -23.04968827               22.82931828               13.58715167
              14.29239896                1.85870859               60.07145193                0.00010000               -3.88314956               -1.60876039               -5.85259837              -41.43134987               38.76145151                6.06612140
              15.23255662                0.96962547               60.04904902                0.00010000               -6.80470057                5.96108603               -7.32987904              -42.20306801               45.83843461                9.78808203
              16.15630495                0.00869108               60.26148161                0.42729168               -3.53653817                3.16282704               -2.01543306              -22.65772596               29.37665520               42.21416593
              17.16182586               -0.48933723               59.87196573                0.95634886                0.55209111                2.89759816               -3.44262139               -1.02209156               -1.10623755               37.32356236
               7.67340248                6.19353261               61.74627688                1.00000000               -0.34615854               -0.52465698                1.81264760               -0.05547487                0.27875579                0.91481215
               8.66994090                5.79159309               61.41271088                0.61471067               -0.14739763               -0.16250021                0.47973577                0.00838765                0.61857205               -0.33394684
               9.67045453                5.38919315               61.08575982                0.09015901                0.22324516                0.26572596               -0.85232067                0.02566324                1.31705860               -1.16093908
              10.67440580                4.98603517               60.76619164                0.00010000               -0.25875846               -0.28783096               -2.06035854               -2.19682062                6.70671295                1.74100758
              11.66527936                4.54431958               60.54763741                0.00010000                0.14344259               -2.52718024               -2.92662376               -4.20095601               11.71705390                5.50287271
              12.67727465                4.09865259               60.32572267                0.00010000                3.07941298               -6.19144764               -4.12218680               -7.59520353               15.48442794               11.37665827
              13.72686762                3.57099194               60.17580941                0.00010000                4.12366281              -13.07438376               -4.88455094              -19.72993886               24.09532558               17.70747928
              14.75974791                2.84896578               60.10406599                0.00010000               -0.45053647               -2.37296312               -5.78104525              -31.62131115               33.56578994                4.77638461
              15.71785689                2.01604868               60.12655397                0.00010000               -6.15359498                4.11508260               -6.04280025              -40.57002000               45.14148051               -0.17082149
              16.63667601                1.02977831               60.26711956                0.16548039               -2.27273551                7.05453259              -10.68447641              -21.36495850               28.17307514              -12.20527676
              17.67240218                0.53491878               59.87610575                0.80774758                3.57261720                2.41225326              -12.03230710                2.49382161                1.52545737              -13.00274090
               8.07294560                7.18887839               61.63775681                0.93909280               -0.25650316               -0.40352938                1.52040833               -0.03962308                0.10228195                0.76557274
               9.07038057                6.79037386               61.29612399                0.36201267               -0.06704311               -0.09766032                0.15256212                0.07480858                0.66493749               -0.65853104
              10.07160474                6.39234426               60.96561136                0.00010000               -0.02221627                0.26399451               -1.16484306               -0.80711850                5.07297534               -1.88098982
              11.06993624                5.97389377               60.71223060                0.00010000                0.48362077               -1.58264772               -0.88895376               -3.38168893               11.66884576                3.02459701
              12.08127715                5.51874724               60.51582259                0.00010000                2.16189582               -2.87924512               -2.96113186               -5.14028673               16.17820402                4.52498416
              13.11317416                5.03197468               60.34483929                0.00010000                4.20152502               -6.04966997               -4.02670005               -8.85316857               19.77547389                6.79431993
              14.16530765                4.47383644               60.21039209                0.00010000                5.08709228               -8.00894378               -5.07371261              -17.31724450               24.49265583                6.01103500
              15.21491601                3.81124932               60.12030592                0.00010000                3.75180170               -3.74357604               -6.12170705              -25.90401669               28.85372049                1.43017048
              16.24034369                3.05192712               60.06087515                0.00010000               -0.23901681                2.62345039               -7.43032298              -33.00454330               30.26241019               -8.09523962
              17.21013567                2.14978173               59.99826397                0.08833178               -1.94611718               14.76770532               -7.36292798              -19.76497033               16.59826041              -29.56563460
              18.20142135                1.55890783               59.64991600                0.72474109               -0.87143247               10.11114369              -11.75382327               -7.38747697                5.50655369              -22.65100179
               8.46961908                8.18546202               61.52829001                0.89744676               -0.16478816               -0.29285231                1.24701489               -0.03383733                0.04352038                0.80459638
               9.46797120                7.78963988               61.17923221                0.28767907                0.05865828               -0.04321690               -0.14531095                0.08913931                0.53744024               -0.66414779
              10.47079225                7.39447304               60.83998385                0.00010000                0.61989203                0.13658847               -1.56578008               -1.95285750                8.32129487               -2.35310833
              11.48036904                6.95438222               60.64616746                0.00010000                1.68002331               -1.60187911               -2.30425330               -4.43236489               16.62240623                1.00196275
              12.50439271                6.48673468               60.47150599                0.00010000                3.23765206               -2.94605016               -3.27387985               -6.79305779               19.11191795                2.32728108
              13.54512208                5.97765919               60.32396783                0.00010000                4.84276888               -4.66005956               -4.49501548              -11.08241958               22.07066459                3.00314601
              14.60124809                5.41081307               60.20017600                0.00010000                5.92274050               -5.21986523               -5.76047671              -17.29129037               24.61139551                2.04789492
              15.66357689                4.77409426               60.09284621                0.00010000                5.89927626               -3.03652052               -7.27914719              -23.65803040               25.67808461               -1.45747325
              16.71923362                4.06851768               59.97900539                0.00010000                3.54094998                2.19637084               -8.93431520              -27.47204359               23.35161856               -8.29785662
              17.73439589                3.32513242               59.80800356                0.00240154               -0.64165862               15.30733080              -10.54978238              -18.37714450               13.75007905              -20.69529437
              18.70640044                2.73714166               59.49140539                0.63000417               -2.79954476               18.11953635              -13.52854844               -9.48347279                6.38307055              -19.82081264
               8.86391313                9.18302134               61.41980593                0.88396922               -0.07607939               -0.20772610                0.97603478               -0.04225329                0.01652166                0.91307075
               9.86315234                8.78950952               61.06301853                0.26402067                0.19460588                0.03391576               -0.44809515                0.00080325                0.33956897               -0.66024471
              10.86780525                8.39507603               60.71268177                0.00010000                1.29374809                0.05959232               -2.00833173               -2.81849665               10.18905572               -2.69332677
              11.88902730                7.94185619               60.55231145                0.00010000                2.71668865               -1.08546705               -2.96896868               -6.05075779               20.48842370               -1.29096503
              12.92213902                7.45982624               60.40727713                0.00010000                3.92100406               -2.20139586               -4.03379425               -8.55750236               22.32280885                0.12781630
              13.96744738                6.93877349               60.28115688                0.00010000                5.04538814               -3.07208472               -5.25547682              -12.58927222               24.25587025                0.76044882
              15.02304679                6.36943913               60.17012820                0.00010000                5.83017007               -3.09948746               -6.74580862              -17.75871360               25.53321767                0.30675619
              16.08405078                5.75051891               60.06165162                0.00010000                5.84089344               -1.38343951               -8.73963663              -22.56543626               25.14216996               -1.59050594
              17.13986466                5.09585454               59.92960429                0.00010000                4.49590107                3.31197561              -11.52412514              -23.87419822               21.38238599               -5.03919934
              18.17396880                4.45592835               59.73028925                0.00010000                2.39343763               11.43580807              -14.85193220              -16.04783418               12.22939861               -9.31806586
              19.18773341                3.92129856               59.41462732                0.59375760                1.37646027               16.24712196              -17.24420930               -6.96475371                5.96747634              -10.86661244
               9.25579766               10.18130750               61.31184231                0.87810709                0.01349207               -0.13874591                0.70255796               -0.05014768                0.00470871                0.98191204
              10.25593258                9.79031820               60.94683900                0.26230215                0.31389927                0.13834917               -0.76292657               -0.14363554                0.10373174               -0.72093553
              11.26207564                9.39566488               60.58385584                0.00010000                1.93355477                0.16037025               -2.55012580               -3.63337285               11.42515010               -3.23123736
              12.29460368                8.93267288               60.44518804                0.00010000                3.71248583               -0.62885117               -3.77786574               -7.06788724               23.60198972               -2.85139637
              13.33632536                8.44270676               60.32636474                0.00010000                4.45600317               -1.18823205               -5.00495310               -9.16359822               25.51575244               -1.52671650
              14.38372374                7.91621750               60.22563602                0.00010000                4.90015183               -1.44795290               -6.23933329              -12.74059189               27.06458924               -0.47086484
              15.43432840                7.34882332               60.13740223                0.00010000                5.10645114               -1.02015855               -7.92731851              -17.17880543               27.84059161               -0.12475692
              16.48585276                6.74642547               60.04881472                0.00010000                5.10059090                0.53089293              -10.38392161              -20.49340419               27.10362804                0.17082489
              17.53634022                6.13475720               59.93730336                0.00010000                5.10712120                3.91733412              -14.72144359              -19.99675610               23.30991632                0.28588891
              18.58799519                5.55384858               59.75565076                0.00010000                5.00123666               10.04107624              -20.54997763              -12.98801925               13.70296303                1.51191095
              19.63636495                5.06208410               59.44078873                0.58208031                4.83697632               14.38837604              -24.51354725               -5.13466458                7.19728847                0.05626092
               9.64488878               11.18024642               61.20413235                0.88067897                0.10334601               -0.08075731                0.42893193               -0.06045501               -0.01296358                1.02755020
              10.64592224               10.79227650               60.83015721                0.29377771                0.39471640                0.26898100               -1.09865253               -0.27185139               -0.35082406               -0.82313067
              11.65278311               10.39828343               60.44952027                0.00010000                2.73527155                0.53663314               -3.30267452               -4.28759573               12.02295951               -3.73326897
              12.70062767                9.92927917               60.32500765                0.00010000                5.12696630                0.06304541               -5.43839423               -7.23699918               26.30567650               -4.35782355
              13.75532244                9.43606159               60.23395801                0.00010000                5.29456576               -0.26950728               -6.53000912               -7.99839222               29.04130726               -2.31004969
              14.80651899                8.90981444               60.16376112                0.00010000                4.69701376                0.01559041               -7.29664533              -10.80117788               30.64878512               -0.88864652
              15.84926271                8.34903596               60.10834436                0.00010000                4.08649172                0.99555610               -9.08084197              -14.58243180               32.03702740               -0.06522271
              16.88824882                7.76113677               60.06928813                0.00010000                4.16218535                2.77288800              -12.80598654              -17.79109176               32.12932124                2.07474223
              17.93250642                7.17420122               60.01610148                0.00010000                4.93163470                4.74940467              -16.74752026              -15.72884689               29.52750432               10.60778130
              18.98688152                6.65674987               59.91429112                0.03085976                6.80313297               10.38570235              -29.24062277               -8.49926035               20.21017471               16.03938227
              20.06856908                6.20906608               59.63193037                0.57403352                8.16875609               12.70416870              -33.92726578               -4.83414079               13.59148306               12.60673259
              10.03052840               12.17969235               61.09644814                0.83248127                0.19301447               -0.03570678                0.17253495               -0.05659593               -0.01329760                0.96064989
              11.03245854               11.79569782               60.71285145                0.35590446                0.43963342                0.41649575               -1.46712174               -0.23041996               -0.79376964               -0.82142387
              12.03932107               11.40639755               60.31384310                0.00010000                3.98134923                0.99155128               -4.02359032               -4.50659886               12.43288493               -2.66763141
              13.11208553               10.93393379               60.19970821                0.00010000                7.82505895                0.05541773              -10.17166325               -5.49607650               29.18912116               -3.60394004
              14.19582225               10.43731662               60.13583687                0.00010000                7.13201421                0.26427230               -8.20595245               -4.88871571               33.26626581               -1.61487112
              15.25472581                9.91652931               60.10042418                0.00010000                4.77675887                0.98716693               -8.17345781               -6.39606634               34.82310505               -0.63685629
              16.29135742                9.36873444               60.08037945                0.00010000                2.50699277                2.60179256              -10.14318855               -8.77661737               37.05856122               -0.05230368
              17.30486567                8.80188323               60.09977309                0.00010000                1.73963759                5.23442129              -14.17809551              -11.56822097               44.95981984                1.85551509
              18.32615018                8.22974529               60.24731408                0.05299376                3.91397251                7.61149525              -28.22010470               -8.81367110               45.44696437               14.40804850
              19.38314512                7.76156263               60.27271375                0.13160121                5.44497723                7.30804045              -22.65059905               -3.23356701               23.45229084               13.85748807
              20.43504972                7.31616747               59.95333698                0.56828059                5.19046021                7.56455515              -23.48894665               -4.50472284               11.18003756               10.15652523
              10.41174594               13.17953229               60.98675349                0.91390920                0.28627140               -0.01600633               -0.08193033                0.22916666                0.43101820                0.88194176
              11.41460865               12.80060642               60.59713803                0.74701845                0.63346138                0.49086026               -1.79272449                0.14411901                0.20638795               -0.78180676
              12.42441516               12.41811446               60.20320789                0.52323256                7.25892103                1.17169116               -4.03866947               -5.00153536               13.73728216               -1.59532556
              13.55978707               11.93038752               60.08627272                0.36714305               12.52687188               -0.35462664              -13.33218676               -4.06821668               31.15982529               -0.46505572
              14.67495260               11.44134704               60.04761841                0.36061900                9.36963848                0.40304212               -9.28364625               -2.12845190               37.30693477               -0.80693418
              15.74717984               10.92955777               60.03953213                0.36555908                5.67119235                1.30284653               -9.03054618               -2.76835864               39.13987457               -0.13025399
              16.78837645               10.40107181               60.04737143                0.38179710                2.43468585                3.23373717              -10.93504700               -3.48472641               41.81814932                0.36394668
              17.79587356                9.86582520               60.10462795                0.41035538                0.40885743                6.39419729              -15.47537229               -4.63124554               53.62749476                1.60149155
              18.79655360                9.32643112               60.37392193                0.56902622                1.99572189                9.66858361              -30.24386151               -6.10538371               50.51368042               13.67209718
              19.83578800                8.80291068               60.35519583                0.60890015                3.63556670                4.13480569              -16.30857576               -3.03940947               21.21083075                6.08888583
              20.86926493                8.36035718               60.01752687                0.78356888                3.34769356                4.41897113              -18.04594934               -0.83382900                9.28197440                2.90185348
               6.77747464                3.33084200               63.09165692                1.00000000               -0.59240708               -0.74869281                2.59666157               -0.24359131               -0.56538931                0.65245283
               7.77155057                2.91151076               62.75354308                1.00000000               -0.41343151               -0.35259484                1.32169792               -0.18922516               -0.70547996                0.09921193
               8.76920601                2.49149167               62.41210386                1.00000000               -0.05834350                0.03057966                0.05859691               -0.18820019               -0.67437390               -0.10811025
               9.77038370                2.07001533               62.07436759                0.60451316                0.19694090                0.45770914               -1.23373767               -0.31774303               -0.08145124               -0.57813752
              10.77314483                1.64484419               61.74483478                0.52209589                0.50551449                0.96101599               -2.70753449               -0.33563001                0.61959648               -0.14518506
              11.78049399                1.21683630               61.42113535                0.38095235                0.88861369                1.39313516               -4.17695515               -0.42121138                1.01660091               -0.50010645
              12.79091710                0.78381199               61.10028362                0.01205801              -16.28409007                1.82700378               -5.47103511              -26.30101726               12.11537574               -0.87097313
              13.45481218               -0.17015887               61.00069499                0.00010000              -22.02078205                7.96450894               -2.46197954              -25.29580338               16.89059036                2.48579532
              14.35050146               -1.10549323               60.77253287                0.00010000                2.27941533                3.80879037               -5.48537982              -20.83991515                3.30874123               15.52216705
              15.50040049               -2.02256293               60.34644056                0.74001773                8.92211132                3.19375791               -9.02260395              -21.08548071               -3.27711491                1.08905145
              16.52894368               -2.53809280               59.97917503                1.00000000                2.85431930                3.86109223              -11.10808633                0.33738821               -1.57627128               -0.18790468
               7.19436996                4.32335507               62.98006033                1.00000000               -0.50364869               -0.70233583                2.31816598               -0.04400068               -0.03022715                0.90573747
               8.18933348                3.90798481               62.64181040                1.00000000               -0.31491232               -0.31479361                1.04135719                0.00436994               -0.00233385                0.15543864
               9.18807172                3.49179747               62.30367425                1.00000000                0.05982655                0.06765933               -0.21963455                0.01516813                0.05948405               -0.26364548
              10.19053001                3.07459242               61.96651180                0.48973919                0.41531606                0.48951757               -1.50956132               -0.07332363                0.95072488               -0.68699559
              11.19637804                2.65445435               61.64639218                0.47945616                0.81339807                0.94604607               -3.04240811               -0.09339356                1.69130240               -0.24268729
              12.20679797                2.23076766               61.32433021                0.35250979                1.25132380                1.39410052               -4.53932311               -0.21512329                1.71758743               -0.63635924
              13.22140451                1.80208203               61.00556915                0.00010000               -3.01456026                1.69441131               -5.87817083              -23.26167249               15.89649663               -0.95134455
              14.14650676                0.90948622               60.96855298                0.00010000               -7.65500895                3.26971599               -5.43278596              -33.73551460               26.75456736                5.92733031
              15.06830434               -0.06740533               60.85548197                0.00010000               -7.03306479                5.01008586               -6.81120309              -32.16597959                2.63194564               16.34157637
              16.00584547               -0.99062535               60.27923253                0.09957133               -1.02284492                4.19964735              -13.39118747              -19.27628702               -8.97797567               51.18923259
              17.04784744               -1.49948188               59.91174500                1.00000000                4.20019688                4.18902599              -15.47063932                0.18701914               -0.63093725               48.18997897
               7.60733514                5.31679528               62.87284971                1.00000000               -0.41395790               -0.60144044                2.03108737               -0.05175400                0.16806228                1.08287790
               8.60319557                4.90521488               62.53091959                1.00000000               -0.22166947               -0.23686815                0.75181299               -0.00768117                0.34759095                0.07809523
               9.60290175                4.49284486               62.19223564                0.65583971                0.15323898                0.15717314               -0.51286140                0.00665381                0.68554032               -0.59873555
              10.60626034                4.07980568               61.85698923                0.00010000                0.60999834                0.57543185               -1.72498991               -0.12050002                2.10953406               -0.87270085
              11.61510172                3.66376511               61.54704490                0.00010000                1.11517460               -1.00589262               -3.35648160               -1.07432258                2.80956059                3.21412060
              12.62856384                3.24471831               61.22610746                0.00010000                1.59316835               -2.51171968               -4.81158999               -1.36872322                2.49843834                7.07413562
              13.64696509                2.81770022               60.91082703                0.00010000                1.05127085               -8.35947537               -6.10450149              -24.27187835               23.53122338               14.46787762
              14.64958925                1.89523545               61.01083877                0.00010000               -1.98358267               -1.26333597               -5.95763944              -42.12230129               39.66416191                9.18592394
              15.60729343                0.99470848               60.97659081                0.00010000               -5.13189765                4.95733014               -6.78010827              -40.29409556               49.90405552               15.48371374
              16.54695130                0.06143002               61.24430517                0.43963721               -2.84481562                3.50092340               -1.67143434              -20.33112979               32.96570082               52.99121530
              17.55039712               -0.45431228               60.84763942                0.95727705                0.34458218                3.13341252               -1.98755043               -0.01026057               -0.35557834               50.32121299
               8.01649567                6.31132626               62.76408537                1.00000000               -0.33653998               -0.48700343                1.74153038               -0.05340202                0.28905285                0.91511812
               9.01313028                5.90324744               62.41740697                0.59050354               -0.14408400               -0.16278321                0.45961378                0.01765507                0.62664871               -0.35986815
              10.01361399                5.49494093               62.07727565                0.00010000                0.20347410                0.24721725               -0.83764003                0.05271676                1.38967700               -1.19498627
              11.01719976                5.08610106               61.74594374                0.00010000               -0.18175195               -0.70957897               -1.97976785               -2.41552601                6.99828841                2.44442425
              12.00997896                4.63433649               61.51884710                0.00010000                0.41443189               -2.93051115               -2.86714943               -4.30807188               12.09252369                6.20384050
              13.02548839                4.18053326               61.28508734                0.00010000                3.77354296               -6.97457114               -4.02975044               -7.84972708               15.90008543               12.43269839
              14.08544982                3.63489252               61.12711813                0.00010000                5.07820398              -14.44752657               -4.84269572              -20.69408767               24.46447514               19.45851281
              15.12705247                2.88421950               61.04611276                0.00010000                0.53890204               -2.60586654               -5.70437020              -33.41381537               34.19761311                7.33598238
              16.09622786                2.03174127               61.06579864                0.00010000               -3.94044179                3.41245039               -5.85722635              -40.12267855               44.17707431                4.85069446
              17.04824364                1.07939312               61.15997159                0.23106382               -0.85505168                3.35913315               -9.58981585              -21.25991936               25.81248974               -7.76518772
              18.07912682                0.56318637               60.76168999                0.87891829                3.08831838                1.67185437               -9.88883479                1.12493412                0.42126247               -8.34990113
               8.42242473                7.30705521               62.65271575                0.92845267               -0.24907380               -0.36334277                1.46257401               -0.03056440                0.09383394                0.78825328
               9.41993399                6.90195922               62.29763101                0.34742823               -0.06611290               -0.11356117                0.15114335                0.10343186                0.67903796               -0.68094852
              10.42110247                6.49778920               61.95409115                0.00010000               -0.06898669                0.18338480               -1.13234802               -1.12156643                5.87072649               -1.96999701
              11.41855426                6.06561410               61.70295809                0.00010000                0.67028036               -1.94280626               -1.26599242               -3.57936797               12.30388481                3.42808944
              12.43450808                5.60515489               61.48620956                0.00010000                2.62295029               -3.29941855               -2.96106549               -5.31087842               16.10884238                4.98019878
              13.47101327                5.10522689               61.30479099                0.00010000                4.74445091               -6.75697482               -4.02191403               -9.64147376               20.09717469                7.55506782
              14.52939710                4.52874969               61.15984333                0.00010000                5.67254653               -8.75353067               -5.03786086              -18.87051471               24.70822355                7.12366844
              15.58446420                3.84311812               61.05960675                0.00010000                4.01345729               -4.17071381               -5.92456877              -27.76967217               28.92713902                3.38080174
              16.60966625                3.06295749               60.98941135                0.00010000                0.29218093                1.88525447               -6.69863150              -35.52742103               30.44669995               -5.43850805
              17.59030782                2.12861268               60.91807906                0.12535367               -0.21784750                9.47082982               -7.30209409              -20.44408282               16.18666576              -18.99733030
              18.60530930                1.57912480               60.53714877                0.76801593                1.50014797                5.71795977               -9.28680635               -3.73728063                1.74973644              -13.51517809
               8.82607637                8.30405940               62.54058068                0.89054086               -0.16114487               -0.25307978                1.20039323               -0.02887475                0.03714489                0.84511939
               9.82446492                7.90097622               62.17784412                0.28374834                0.07257069               -0.07149496               -0.12709954                0.09340348                0.50318995               -0.67473559
              10.82752778                7.49860863               61.82435870                0.00010000                0.68908974               -0.02374841               -1.54758079               -2.13494661                8.59435232               -2.54583022
              11.83824671                7.04724493               61.62295539                0.00010000                1.83104086               -1.65598857               -2.33612636               -4.74192854               17.16882357                0.62499918
              12.86414860                6.56834812               61.43874491                0.00010000                3.54087013               -3.31842485               -3.33270025               -7.38321241               19.46792212                2.71657072
              13.90906412                6.04539377               61.27900115                0.00010000                5.29998483               -5.13207208               -4.53774373              -12.13751749               22.24474829                3.67199110
              14.97014830                5.45982191               61.14270434                0.00010000                6.41935552               -5.76982495               -5.73285757              -18.86491838               24.58522797                3.08733640
              16.03745123                4.80080522               61.02092515                0.00010000                6.50182883               -3.70624153               -7.00154311              -25.53783759               25.33511182               -0.06613073
              17.10018487                4.06944636               60.89148203                0.00010000                4.28717202                0.91705893               -8.24131005              -30.71518723               22.77419103               -6.12429266
              18.12319467                3.26880971               60.70969595                0.01779687                0.15860420               13.71083643               -8.49754977              -21.04311426               12.46182099              -19.21981217
              19.10335696                2.67754557               60.35934302                0.65192862               -1.98377114               13.77871628              -11.33573575              -10.96889880                5.50677252              -15.53237501
               9.22801360                9.30199362               62.42942985                0.87980813               -0.07607613               -0.17183988                0.93691938               -0.03912190                0.01294338                0.95994788
              10.22725284                8.90052932               62.05867503                0.27043653                0.20606135               -0.00147480               -0.41095942               -0.04095190                0.24275124               -0.67763780
              11.23213483                8.49731423               61.69253211                0.00010000                1.33616762               -0.12583247               -1.98134618               -3.06568985               10.28041709               -2.95195932
              12.25397619                8.03249433               61.52247738                0.00010000                2.82800867               -1.25298415               -2.93860770               -6.49182746               20.88340620               -1.26527800
              13.28869500                7.53878639               61.36684293                0.00010000                4.14064688               -2.41333603               -4.11461323               -9.22569173               22.63760467                0.39277968
              14.33678913                7.00258545               61.22837618                0.00010000                5.39961372               -3.35764370               -5.35892552              -13.82126531               24.42908944                1.45060221
              15.39668728                6.41335319               61.10242132                0.00010000                6.36469314               -3.56322351               -6.79512835              -19.58861393               25.42173898                1.33087203
              16.46408299                5.76899329               60.97468145                0.00010000                6.53353666               -2.19725855               -8.52842414              -25.01886338               24.45552557               -0.35099725
              17.52735801                5.08129867               60.81736645                0.00010000                4.86316666                1.88487811              -10.54313958              -26.98314218               20.17624780               -4.45036853
              18.56134633                4.40282941               60.58857252                0.00010000                2.05508010               11.13043262              -13.16242741              -18.47125878               10.99680579              -10.32379579
              19.56845961                3.85469913               60.24953085                0.60216158                0.71132852               14.63296712              -15.52472930               -8.37094295                4.88548703              -11.59045696
               9.62822252               10.30062261               62.31875735                0.87554962                0.01027426               -0.10291946                0.66718152               -0.04730363                0.00245011                1.03416356
              10.62832526                9.90094673               61.93941606                0.28292300                0.30132270                0.09219948               -0.70469265               -0.22002632               -0.09822845               -0.75460592
              11.63424897                9.49609198               61.55816181                0.00010000                1.93063747               -0.00618543               -2.45802383               -3.92304348               11.27733490               -3.55801935
              12.66693801                9.02218525               61.40770994                0.00010000                3.76473367               -1.11597111               -4.01982137               -7.63252350               23.72097109               -3.29975217
              13.70954365                8.52008140               61.27583624                0.00010000                4.55669997               -1.14864521               -5.18707852               -9.94502414               25.75880580               -1.45781462
              14.75807201                7.97824089               61.16251164                0.00010000                5.12122674               -1.54226692               -6.46136433              -14.12291606               27.31112223                0.28589739
              15.81196818                7.38855744               61.05723156                0.00010000                5.55282343               -1.33338390               -8.12086849              -19.34600723               27.78927379                0.93572104
              16.86912848                6.75686005               60.94315914                0.00010000                5.73588629                0.02429544              -10.55910357              -23.59095436               26.13036718                0.84885615
              17.92668591                6.10714392               60.78977225                0.00010000                5.56202761                2.98409885              -14.19400849              -23.43916575               20.82964853                0.22032818
              18.98036903                5.49141836               60.55779691                0.00010000                5.27563718                7.84067894              -18.57599528              -15.01561720               11.24526200               -2.38062447
              20.03219865                4.97020491               60.21048645                0.58666649                5.18296194               10.51536499              -21.68010090               -6.04999940                5.76339001               -5.73450607
              10.02641929               11.29993523               62.20831544                0.87863528                0.09636520               -0.04098597                0.39230127               -0.05792694               -0.02007508                1.09832068
              11.02738294               10.90237331               61.81944440                0.34254578                0.30080712                0.21146497               -1.01461735               -0.35523169               -0.71991578               -0.89510732
              12.03243543               10.49719053               61.41678314                0.00010000                2.49766773                0.36841447               -2.88440939               -4.95435705               11.16810286               -3.94322956
              13.07733630               10.01017491               61.26983255                0.00010000                5.06517232               -0.10071742               -5.46561694               -7.42256281               26.09459137               -7.14745171
              14.13373888                9.51581348               61.16586653                0.00010000                5.42592378                0.13766617               -7.29479095               -8.15090282               29.44434143               -2.08545706
              15.18585477                8.97174011               61.08965263                0.00010000                4.87045471                0.04858277               -7.57782524              -12.36579669               31.20466905                0.01454468
              16.23114797                8.38668551               61.01543785                0.00010000                4.39113244                0.89166626               -9.58920258              -16.72432829               31.81916128                0.94074200
              17.27367742                7.76947919               60.93598196                0.00010000                4.64342033                2.76099433              -13.43664536              -20.54828115               31.31105361                2.62140883
              18.32401638                7.14098065               60.83469989                0.00010000                6.21477885                5.22776961              -19.09924136              -19.84594876               25.59924331                5.63789318
              19.39797300                6.55964299               60.62626528                0.00111246                8.29350781                8.32811280              -27.46466743              -12.48299873               14.29336193               11.48720474
              20.48988654                6.06500643               60.27672813                0.58100258                9.19135378               10.90145406              -32.97962866               -4.73904828                7.94830970                7.50612934
              10.42218781               12.29980289               62.09809050                0.82855568                0.17775160                0.00239789                0.13190254               -0.04774833               -0.05077090                1.05918869
              11.42396533               11.90517602               61.69844778                0.45718307                0.25862105                0.35468519               -1.35821766               -0.31308817               -1.17528731               -0.91260097
              12.42736023               11.50346027               61.27679370                0.10019329                3.79492345                0.72979758               -2.93895117               -4.56775855                8.28545673               -2.59062668
              13.49986380               11.02017090               61.07153529                0.00010000                7.88000781                2.28265638              -17.02186238               -5.24212702               25.25456687               -6.31098512
              14.58496039               10.52283473               61.05111231                0.00010000                7.00101268                0.52887442               -8.10110784               -4.97782275               35.41196751               -1.14264880
              15.63988405                9.97921255               61.01782721                0.00010000                4.73910721                1.11464899               -8.73389415               -7.70725794               35.50474520                0.06616480
              16.67974253                9.40639076               60.97541085                0.00010000                3.19918351                2.73967945              -10.96430333              -10.22328007               37.04015464                0.66415489
              17.70386772                8.81207994               60.94773790                0.00010000                2.99303036                5.37406539              -16.22273683              -13.01583605               39.71564235                2.49852046
              18.73960314                8.21169932               60.92455612                0.00010000                5.14077764                9.91252370              -29.97264443              -12.11358367               42.52290190                6.48282032
              19.80668327                7.65798062               60.93034965                0.07597219                9.35438282               11.72046953              -41.56993767               -7.18561327               29.26115547               15.46692854
              20.92669080                7.18823399               60.60594994                0.58009180               12.00075235               12.67720610              -45.74071257               -2.88361340               18.33763538               10.46886344
              10.81471805               13.29998318               61.98588366                0.91057900                0.27457512                0.01802970               -0.13824545                0.20140661                0.47280558                1.00566684
              11.81746380               12.90946701               61.57960252                0.81946643                0.56836679                0.42909892               -1.62647293               -0.05998820                0.14196994               -0.89696402
              12.82608538               12.51178648               61.16680671                0.59947613                6.78277490                0.83262110               -3.04015035               -2.80943376                7.71429118               -1.46165036
              13.95311930               12.05582804               60.91443951                0.36696681               12.45276983                3.56571344              -18.02025493               -3.94422524               24.82546707               -3.50763969
              15.07514078               11.52639097               60.95366471                0.36057445                9.75171393                0.35562462               -9.48700949               -4.07170820               40.39210075               -0.93311348
              16.14815358               10.99403309               60.94742561                0.36539412                5.93371012                1.48205443               -9.73544532               -3.41864113               39.63069097               -0.08336312
              17.19381498               10.44147910               60.93197242                0.38095717                2.99492868                3.50883351              -12.20610260               -4.44638453               42.19018092                0.32408431
              18.20805215                9.87696050               60.94345836                0.40812163                2.10145201                6.48805655              -17.89250572               -4.69395612               46.70247658                1.54971535
              19.23584402                9.33923112               60.97728753                0.51751810                3.48369554               12.75318043              -35.67253937               -4.52131804               53.32759199                4.69577799
              20.27772606                8.79405238               61.09309257                0.57081173                6.79317538               13.60717561              -41.48087969               -3.92974976               36.82203022               14.65128008
              21.37170753                8.31855055               60.74865026                0.79165361                9.39814705               13.03165629              -44.32828222               -3.04850907               21.44887464                8.31754919
               7.11642450                3.45030549               64.11705764                1.00000000               -0.56494433               -0.71233824                2.47636644               -0.23342140               -0.54512732                0.64169237
               8.11077505                3.02561855               63.76648672                1.00000000               -0.39387746               -0.33792556                1.26526235               -0.18225494               -0.67686108                0.09498696
               9.10854695                2.60026408               63.41270924                1.00000000               -0.05493678                0.02431141                0.06640452               -0.18000266               -0.65507005               -0.10180128
              10.10967632                2.17355405               63.06235382                0.60046257                0.19170728                0.42915605               -1.15955337               -0.30115223               -0.16910056               -0.56119791
              11.11238109                1.74335681               62.71843805                0.51009619                0.47870848                0.90394370               -2.55309840               -0.32836821                0.43489795               -0.17351618
              12.11925049                1.31023135               62.38035567                0.35785179                0.79298978                1.32013999               -3.95246000               -0.46513879                0.90589295               -0.53925736
              13.12824089                0.87119817               62.04692294                0.00010000              -15.30230430                1.75511799               -5.17545722              -25.96469556               13.77174093               -0.98568189
              13.81320440               -0.08152777               61.96925396                0.00010000              -20.09978031                7.10715744               -3.75550314              -24.66893085               20.43956079                4.41682087
              14.72624528               -1.01148123               61.72221375                0.00010000                3.14934845                3.10817699               -4.81199407              -19.47749957                3.51838664               17.68269597
              15.87619137               -1.92630740               61.27589990                0.85137994                8.36838982                1.87492107               -5.60094368              -20.06941623               -3.21979469                0.69837068
              16.89361308               -2.45057737               60.89208314                1.00000000                1.74217087                2.28793793               -6.92364797                0.12606516               -1.03948794                0.03624874
               7.53877723                4.44318211               64.00272890                1.00000000               -0.48040162               -0.66507231                2.20906958               -0.04562984               -0.01824176                0.89525614
               8.53397321                4.02223930               63.65200251                1.00000000               -0.29990270               -0.30146746                0.99607016               -0.00053600                0.01948110                0.14756225
               9.53277917                3.60050720               63.30154761                1.00000000                0.05726112                0.05947696               -0.20149332                0.01170474                0.07385167               -0.26767151
              10.53511843                3.17784561               62.95178846                0.50030571                0.39897958                0.46051923               -1.42544532               -0.07033761                0.82905453               -0.64622899
              11.54075876                2.75239625               62.61671992                0.48491486                0.77799962                0.88807618               -2.87458413               -0.09036383                1.45539222               -0.26741744
              12.55067842                2.32343275               62.28001450                0.34867231                1.18573650                1.31489345               -4.29816441               -0.24800848                1.55473426               -0.64185683
              13.56447349                1.88874935               61.94807953                0.00010000               -2.14118166                1.59672622               -5.59228808              -23.30085322               16.58243284               -0.96322972
              14.50785479                0.98954381               61.91376116                0.00010000               -5.53066951                2.31975249               -5.44044558              -33.12173958               28.96413366                8.21332002
              15.45386010                0.01960054               61.79261989                0.00010000               -5.64047562                4.02321517               -5.78101135              -31.30879735                2.35631232               19.80752244
              16.39504528               -0.90755819               61.17825447                0.09751160               -1.73582019                5.70418656               -7.86561973              -18.94597691              -10.61217735               56.98024415
              17.41914370               -1.42769799               60.79429489                1.00000000                2.40984208                5.88597046               -9.18128593                0.70765666               -0.55496025               55.51173973
               7.95739753                5.43700405               63.89270347                1.00000000               -0.39582846               -0.56065923                1.93310904               -0.05332887                0.17502600                1.07196222
               8.95343925                5.01958920               63.53826672                1.00000000               -0.21114024               -0.22774955                0.71740865               -0.01200229                0.36313709                0.06582641
               9.95317473                4.60145362               63.18721319                0.60897850                0.14706339                0.14653548               -0.48596226                0.00536802                0.73360204               -0.63133912
              10.95638051                4.18276444               62.84014852                0.00010000                0.59059770                0.55545962               -1.63440820               -0.13268016                1.97912595               -0.82800048
              11.96498668                3.76111834               62.51435608                0.00010000                1.07783545               -1.15822620               -3.16651764               -0.95038731                2.54462680                3.55346232
              12.97793722                3.33652922               62.17923045                0.00010000                1.55630443               -2.74048580               -4.54415835               -1.08293686                2.37393049                7.57944155
              13.99611277                2.90313269               61.85120958                0.00010000                2.09905957               -8.88017234               -5.79316745              -24.05018679               24.14999861               15.24434053
              15.01991842                1.96486728               61.95229914                0.00010000                0.05292807               -2.13131813               -5.73082257              -41.84923737               40.58686796               11.95531163
              15.99717133                1.06898307               61.91344686                0.00010000               -3.76740262                4.03207451               -5.85464932              -37.17057512               53.11296496               19.94557797
              16.94457036                0.18777633               62.22805292                0.45979210               -2.45627598                5.41294320               -1.68748935              -16.99259291               35.68936572               59.86899138
              17.94804581               -0.33285796               61.83221472                0.95778312                0.34754486                5.30546960               -1.48305660                0.84891774                0.19784315               59.06230849
               8.37254034                6.43196893               63.78110749                1.00000000               -0.32567509               -0.44279544                1.65582822               -0.04875091                0.29732535                0.91338052
               9.36928359                6.01768431               63.42190316                0.56800673               -0.14145203               -0.16357359                0.44032122                0.03078335                0.62454595               -0.37898327
              10.36971130                5.60343791               63.06900702                0.00010000                0.17582641                0.22038194               -0.80780980                0.08939836                1.45772878               -1.23074781
              11.37280012                5.18895481               62.72659628                0.00010000               -0.08625311               -0.86602628               -1.87799136               -2.33455861                7.22921160                2.75929818
              12.36798624                4.72923173               62.49029443                0.00010000                0.71026093               -3.13324679               -2.87094579               -4.18486755               12.31394006                6.85629389
              13.38700533                4.26862303               62.24512766                0.00010000                4.35727299               -7.36834974               -4.00087683               -7.72695824               16.13756910               13.38255304
              14.45513170                3.71114590               62.07895550                0.00010000                5.90071626              -15.12045495               -4.83207777              -20.65809999               24.62348606               21.13840184
              15.50501966                2.94691744               61.98997859                0.00010000                1.62039273               -3.04071525               -5.52668265              -33.34657555               34.64968164               10.02079640
              16.48753955                2.10024203               62.00940945                0.00010000               -2.39926029                2.42452471               -5.34266509              -37.62913572               43.54060613                9.58172311
              17.45703445                1.20070067               62.07532324                0.32277646               -0.50744582                1.61672201               -6.78378785              -19.01347163               23.95504651               -4.25461504
              18.47739063                0.67841140               61.67832906                0.96985038                2.03561799                1.19045968               -6.49439092                0.28261434               -0.24476496               -4.05669810
               8.78499176                7.42814814               63.66700829                0.91930293               -0.24058244               -0.31593103                1.38838850               -0.01830301                0.08629247                0.80420749
               9.78258593                7.01631773               63.29914686                0.33908332               -0.06497813               -0.12915768                0.15518415                0.13432564                0.67943038               -0.69127603
              10.78369219                6.60586126               62.94296440                0.00010000                0.06547961                0.08387828               -1.08781751               -1.15085440                6.26719220               -2.06915564
              11.78389552                6.16544391               62.68691075                0.00010000                0.89644539               -2.07959459               -1.78450745               -3.54243385               12.75315501                3.93160836
              12.80162110                5.69845340               62.45660128                0.00010000                2.87941811               -3.43994991               -3.01935500               -5.32812674               16.12087169                5.41983960
              13.84148389                5.18916222               62.26440101                0.00010000                5.15176294               -7.05546037               -4.10589623               -9.93387631               20.19106900                8.34028033
              14.90465636                4.60072359               62.10963487                0.00010000                6.12034424               -9.05820441               -5.04641074              -19.46061437               24.79453142                8.40452670
              15.96389077                3.90405298               62.00181455                0.00010000                4.30745121               -4.46102501               -5.64902111              -28.33841200               29.10657652                5.63045394
              16.99080538                3.11747357               61.92690252                0.00010000                1.11203932                0.89173454               -5.75175475              -34.27675584               31.02314563               -2.01902827
              17.98613156                2.22011077               61.85222209                0.19116258                0.37356278                3.47710181               -5.10118520              -18.38927352               16.36484490               -9.41336948
              18.99827664                1.69095124               61.46417987                0.83459409                1.21450822                1.78503389               -5.41411511               -0.92339838                0.24934579               -6.80865095
               9.19583509                8.42565031               63.55229787                0.88542271               -0.15781183               -0.20522554                1.13367043               -0.02042097                0.03333256                0.87289446
              10.19425698                8.01510115               63.17669022                0.28862357                0.08664675               -0.09664521               -0.09876306                0.08921734                0.43395021               -0.66851583
              11.19756803                7.60511547               62.80903223                0.00010000                0.75511619               -0.18137663               -1.48787071               -2.09095936                8.75037381               -2.71435490
              12.20935930                7.14736291               62.59944493                0.00010000                2.00686795               -1.68239193               -2.37445167               -4.80968353               17.49773460                0.68534802
              13.23770539                6.66043273               62.40485199                0.00010000                3.83491590               -3.39314473               -3.49025401               -7.62389367               19.59009753                3.14541573
              14.28605762                6.12751383               62.23321296                0.00010000                5.66616338               -5.24435844               -4.67356039              -12.57420096               22.22463257                4.43171316
              15.35102866                5.52998181               62.08551885                0.00010000                6.77219117               -5.95971164               -5.74532141              -19.46484757               24.49222826                4.32799804
              16.42150144                4.85769694               61.95281535                0.00010000                6.74589905               -4.13940003               -6.59520576              -25.87898507               25.17006457                1.79840195
              17.48594664                4.11807672               61.81417918                0.00010000                4.71349377               -0.44583137               -6.99037396              -32.43805364               22.83779116               -3.42988148
              18.51577132                3.27024271               61.63805256                0.06591961                1.56475507                9.06203459               -5.35737930              -21.41778369               11.35095535              -13.45638725
              19.51724174                2.71411208               61.26469068                0.69939080                0.14704216                7.36973776               -6.84473410               -7.35057057                2.77063706               -8.83509362
               9.60568165                9.42404363               63.43854432                0.87787087               -0.07765352               -0.12725610                0.87251921               -0.03117262                0.01158818                0.98829384
              10.60490511                9.01438483               63.05479935                0.29019957                0.19647996               -0.03222227               -0.35509055               -0.07516616                0.10930656               -0.66971239
              11.60961125                8.60223373               62.67305485                0.00010000                1.37397443               -0.24310035               -1.82698356               -3.04141613               10.27475472               -3.03889985
              12.63238460                8.13179607               62.49353930                0.00010000                2.96905352               -1.40201252               -2.95869768               -6.48269250               20.98954791               -1.33268931
              13.66899232                7.63059051               62.32498487                0.00010000                4.40330930               -2.29529265               -4.27494833               -9.42633108               22.59663408                0.74393100
              14.72045079                7.08427505               62.17397837                0.00010000                5.80919884               -3.34274158               -5.58624352              -14.32839524               24.35128862                2.23053336
              15.78517629                6.48152936               62.03422563                0.00010000                6.88826865               -3.77303005               -6.86873946              -20.22861832               25.23406823                2.55722960
              16.85821616                5.82126498               61.89108313                0.00010000                7.21611254               -2.77974304               -8.15403160              -25.92772245               24.13245137                1.24597958
              17.92949854                5.10855694               61.71874149                0.00010000                5.17621832                0.18767980               -9.11247991              -28.37823689               19.41327784               -2.47241232
              18.96174052                4.40135146               61.46704071                0.00795767                1.70139720                9.91503076              -10.09126547              -19.68980200               10.69594332              -11.36970817
              19.96352649                3.83834599               61.10413273                0.63556515                0.17859626               10.30423056              -12.25550530               -9.84995049                5.04059391              -11.54314905
              10.01452925               10.42310518               63.32518594                0.87498089                0.00343054               -0.05819699                0.60152386               -0.03746239                0.00445539                1.06065066
              11.01456355               10.01445671               62.93274515                0.32463235                0.23996078                0.04789060               -0.61278780               -0.23502987               -0.28444641               -0.74530383
              12.01932846                9.60025347               62.53469536                0.00010000                1.83925615               -0.07233870               -2.06746220               -3.94941338               10.70775113               -3.39095439
              13.05134867                9.11932266               62.36479162                0.00010000                3.86856619               -0.46456424               -3.95689314               -7.23375412               23.42094252               -3.51896386
              14.09669978                8.61452688               62.22262317                0.00010000                4.86010940               -0.57570614               -5.68934373              -10.16334004               25.75774529               -1.57992641
              15.14855086                8.06065899               62.09640874                0.00010000                5.63832924               -1.47426524               -6.75575935              -14.97077001               27.25844865                1.11331552
              16.20946637                7.45452121               61.97498486                0.00010000                6.36842739               -1.59289227               -8.35879284              -20.22082966               27.53256449                2.06078628
              17.27591941                6.80210208               61.83763264                0.00010000                6.44145209               -0.61393941              -10.39618790              -24.78496001               25.47136601                1.92395672
              18.33829541                6.12183032               61.65342319                0.00010000                5.81334095                2.18091396              -12.74838111              -25.44246688               19.79431551               -0.34843997
              19.39218623                5.46854333               61.38413085                0.00010000                5.39791318                5.62948850              -16.00505060              -16.63268161               10.17599765               -5.09539849
              20.44625367                4.92019669               61.00718671                0.61579265                5.40674465                6.26895918              -18.71365993               -6.68050912                4.49040154               -8.77893043
              10.42222935               11.42287969               63.21197838                0.87883408                0.08268766                0.01013589                0.32116409               -0.04024591               -0.01927540                1.12818524
              11.42305623               11.01534264               62.80986486                0.42531608                0.17638334                0.14154856               -0.87129016               -0.32033396               -0.83292094               -0.89170380
              12.42575702               10.60078696               62.39183208                0.04437489                2.51899389                0.21539843               -1.97517172               -4.01118077               10.30701442               -3.31814256
              13.47343611               10.12250479               62.21569531                0.00010000                4.93160812                2.18922309               -9.22406836               -9.51004939               24.40988232              -13.26695941
              14.52438918                9.61907638               62.08806219                0.00010000                5.38024712                0.60692931               -7.23856532              -10.33225764               29.43059305               -1.56689592
              15.58104105                9.05478975               62.01220461                0.00010000                5.74637143               -0.02896827               -8.09353028              -13.87167784               31.61128856                0.71534718
              16.63931661                8.44967151               61.91656031                0.00010000                5.70833992                0.54808799              -10.14579036              -17.65100509               31.17361362                1.90423022
              17.69520785                7.80898619               61.80055522                0.00010000                5.74456747                2.11375776              -13.44471157              -21.16912279               29.39100416                2.60371115
              18.75420796                7.15217522               61.63411665                0.00010000                6.77563343                4.74918725              -18.92060774              -21.96719493               22.84624317                2.70439927
              19.83072052                6.51394123               61.36499778                0.01172990                8.62008053                6.77652901              -25.26684497              -14.68309368               11.62030141                1.26916122
              20.92660957                5.96372517               60.97233780                0.61276456                9.58890537                6.67129586              -29.31944454               -4.80419769                5.82638260               -4.15598959
              10.82879843               12.42330790               63.09908619                0.82614121                0.14511766                0.05898095                0.03420931               -0.02527374               -0.09444055                1.07839201
              11.83024960               12.01728768               62.68568710                0.60343122                0.15721347                0.25075088               -1.11839916               -0.26388492               -0.98449805               -0.87260109
              12.83194270               11.60456144               62.25506407                0.24858937                0.63043273                0.40342325               -1.59391654               -1.80367871               -0.19004328               -2.00890858
              13.84285826               11.16310712               61.85927096                0.00010000                6.29134866                2.59607469              -12.75793571               -9.09468342               23.44925528              -11.27904115
              14.95776967               10.62666546               61.97381471                0.00010000                9.88319589               -0.07482106               -8.76541520               -8.88040807               41.35039489               -0.66227068
              16.04052218               10.06007963               61.92574630                0.00010000                7.22400805                0.69519875               -9.50542718               -9.03687957               35.18639717                0.51537562
              17.10224983                9.46548297               61.86109339                0.00010000                5.47555350                2.23794229              -11.98854034              -10.94358425               35.82119929                1.35881668
              18.15003325                8.84437724               61.77531835                0.00010000                4.58733178                4.81962048              -17.05870648              -12.96343877               35.37401074                2.01591215
              19.19399647                8.21681406               61.64786119                0.00010000                6.84705777                8.13543227              -26.15829484              -14.05200362               31.17446394                2.90150837
              20.28697440                7.60407391               61.44131500                0.06095833               12.83026868               12.82546022              -46.52221154               -9.65230542               19.09289082                4.12193247
              21.45060184                7.05362261               61.03852273                0.61481537               16.36274383               13.87911770              -54.16056150               -2.01925609                9.93133591               -2.08255547
              11.23376433               13.42405931               62.98398858                0.90832288                0.27606701                0.07514051               -0.28248437                0.12642506                0.48637754                1.01462998
              12.23652500               13.02035766               62.56460858                0.91508156                0.50498355                0.30699785               -1.28785644               -0.13265476                0.34255507               -0.83450781
              13.24386400               12.60885542               62.14240489                0.69739395                1.64567076                0.42939856               -1.95629231               -1.10443838                0.27860292               -1.10402843
              14.26943841               12.17442628               61.72586762                0.36669880               10.29722590                1.13191569              -10.74807850               -6.90575732               21.98066853               -1.74937206
              15.44980852               11.61757996               61.85787822                0.36072015               14.60237689               -0.90854989              -10.09074925               -6.08274301               44.34273252               -2.02927240
              16.56148595               11.06869372               61.84482322                0.36514751                9.31694006                0.86140960              -10.78018524               -4.06110259               39.24366363               -0.00755689
              17.63614732               10.49443036               61.80324938                0.37997601                6.15610142                2.89473893              -13.71374505               -4.77600757               40.40726835                0.41579401
              18.68460798                9.90537860               61.74677784                0.40582660                3.86619503                6.10013596              -19.68416462               -5.51985119               41.90880347                0.80440840
              19.71347122                9.31488387               61.66047114                0.47435863                5.81289413                9.80698029              -30.54228576               -4.79893260               40.04342863                0.09066277
              20.80086586                8.77045044               61.52557824                0.55313569               13.68279116               16.63765314              -56.55888688               -2.28967074               27.90280281                3.84618733
              21.98712704                8.24130753               61.13096123                0.81053378               18.62611797               18.76849180              -63.75116103                0.73822934               18.35503078               -1.92390789
               7.46771395                3.57233334               65.14118424                1.00000000               -0.53521962               -0.67189680                2.34269961               -0.22104511               -0.52434676                0.62931789
               8.46236175                3.14237892               64.77884833                1.00000000               -0.37382201               -0.32228695                1.20552122               -0.17345806               -0.64772796                0.09048090
               9.46023751                2.71177890               64.41343195                1.00000000               -0.05444371                0.01611830                0.08144520               -0.17031237               -0.63397673               -0.09569627
              10.46127288                2.27992209               64.05117652                0.59764287                0.18017111                0.39510495               -1.06796107               -0.28184894               -0.24472672               -0.54375652
              11.46384093                1.84481011               63.69377281                0.49967828                0.44270367                0.83778561               -2.36604730               -0.31753838                0.26666618               -0.19944447
              12.47012695                1.40673350               63.34208615                0.33608470                0.68063498                1.23222453               -3.68077584               -0.51063721                0.81010697               -0.56956179
              13.47745363                0.96178517               62.99677447                0.00010000              -14.09071783                1.67456245               -4.82906094              -24.69323034               14.65762069               -1.08614953
              14.18831259                0.02916313               62.92558492                0.00010000              -18.16151888                6.15443059               -4.73483260              -23.42818940               21.90976208                4.78469365
              15.11422325               -0.89265159               62.67629299                0.00010000                3.89113043                3.01636027               -4.67061089              -18.45198802                4.46153057               18.64841759
              16.26613520               -1.81330467               62.23442169                0.98610182                8.07820922                1.01311793               -3.28369772              -19.87781535               -2.45995105                0.35470368
              17.27578744               -2.34179133               61.84070207                1.00000000                0.96522335                1.24126609               -4.06676042                0.03933007               -0.55713062                0.02279303
               7.89545791                4.56561437               65.02424172                1.00000000               -0.45535273               -0.62386994                2.08794515               -0.04607155               -0.00681366                0.88194629
               8.89090439                4.13915605               64.66173181                1.00000000               -0.28475583               -0.28740793                0.94910528               -0.00437251                0.04009622                0.13914865
               9.88976280                3.71194008               64.29964438                1.00000000                0.05171986                0.04898824               -0.17528871                0.00857890                0.08792187               -0.27158708
              10.89193878                3.28387314               63.93800289                0.51274765                0.37485215                0.42578818               -1.32298009               -0.06625119                0.71883485               -0.60651223
              11.89725984                2.85318796               63.58890050                0.49204344                0.72971308                0.82248734               -2.67531426               -0.08729967                1.23790597               -0.28500416
              12.90653305                2.41905574               63.23836692                0.34617777                1.10233331                1.22302428               -4.00954426               -0.27975857                1.38986098               -0.63499513
              13.91930651                1.97853080               62.89372339                0.00010000               -1.26419817                1.49629476               -5.24641114              -22.44527803               17.10464185               -0.95428002
              14.88124908                1.09070744               62.85974407                0.00010000               -3.41846173                1.44805632               -5.45318423              -31.51210226               29.96871086                9.05557601
              15.85093727                0.13751201               62.73986174                0.00010000               -4.46610835                3.47410382               -5.16034080              -30.71526148                2.92525417               21.57412875
              16.79192692               -0.80317349               62.12192014                0.11457336               -2.31349391                8.75228715               -4.40711124              -19.55275649              -10.77397323               59.85986102
              17.80466739               -1.32937867               61.72811928                1.00000000                1.27404785                9.23455245               -5.18591029                0.89162936               -0.29251412               59.47509055
               8.31970916                5.55985594               64.91151189                1.00000000               -0.37605728               -0.51626591                1.82307655               -0.05287182                0.18036835                1.05632308
               9.31594858                5.13663076               64.54526777                1.00000000               -0.20085804               -0.21842023                0.68311051               -0.01399982                0.37558006                0.05492001
              10.31569200                4.71275867               64.18251639                0.55553729                0.13756952                0.13173392               -0.44771561                0.00598720                0.77665989               -0.66573581
              11.31869997                4.28843785               63.82430107                0.00010000                0.56101678                0.53258274               -1.52727097               -0.14705065                1.86309564               -0.78188214
              12.32691233                3.86125985               63.48371454                0.00010000                1.02444862               -1.19853950               -2.94908297               -0.83886682                2.30339675                3.77657781
              13.33918895                3.43119398               63.13522429                0.00010000                1.49920198               -2.80209912               -4.23967494               -0.82515637                2.24406416                7.94306151
              14.35689637                2.99171107               62.79496368                0.00010000                2.99501949               -8.96477627               -5.43032582              -22.96538074               24.66834736               15.85516954
              15.39908934                2.05812426               62.89622232                0.00010000                1.84512902               -2.77937125               -5.66365298              -40.32687565               41.36099443               13.82855560
              16.39379895                1.17683048               62.85949783                0.00309395               -2.85592940                3.62040317               -5.23742829              -33.28125699               55.37081124               22.66924111
              17.34197075                0.36174107               63.21055539                0.47292778               -2.38842879                8.66525697               -1.85769817              -13.37163600               37.48185126               63.42300039
              18.34603038               -0.15710028               62.81797828                0.94637427                0.40596273                8.97329648               -1.52511087                1.29348976                0.37434707               63.72859042
               8.74085083                6.55528905               64.79720193                1.00000000               -0.31291740               -0.39534798                1.55744141               -0.04192639                0.30350554                0.90323551
               9.73772166                6.13478764               64.42621339                0.55137689               -0.13876927               -0.16420610                0.42269489                0.04518090                0.61229674               -0.38947950
              10.73807545                5.71457476               64.06111945                0.00010000                0.13874614                0.18111074               -0.75971347                0.13637885                1.51722536               -1.26784240
              11.74049658                5.29452479               63.70838391                0.00010000               -0.01745378               -0.85201161               -1.75683929               -2.20385394                7.35176176                2.83603789
              12.73772637                4.82921717               63.46142819                0.00010000                0.95410614               -3.11328686               -2.90512694               -3.94940531               12.32565210                7.32189812
              13.75957871                4.36301376               63.20506980                0.00010000                4.76711207               -7.36233898               -4.03544047               -7.36848967               16.14684595               14.09425024
              14.83306862                3.79923527               63.03047657                0.00010000                6.50067242              -15.07171010               -4.92825247              -19.84579626               24.56869351               22.51934428
              15.88959215                3.03512001               62.93557911                0.00010000                2.43133520               -3.26169159               -5.46117423              -31.95382290               34.97864368               12.32659095
              16.88169532                2.20992007               62.95894534                0.00010000               -1.55835987                2.04883536               -4.86157179              -33.95328479               43.71334806               13.00802568
              17.85842496                1.37013165               63.02429583                0.44024795               -0.67377128                0.79374479               -3.70194218              -16.07380972               23.41495823               -1.80866879
              18.86821989                0.85008726               62.63180217                1.00000000                0.97949362                0.68452241               -3.27395468                0.01307470               -0.30997880               -1.24572174
               9.15987344                7.55194898               64.68048352                0.91248854               -0.23069540               -0.26538946                1.29986490               -0.00486008                0.07971773                0.80385935
              10.15756649                7.13334664               64.30073470                0.33965544               -0.05955089               -0.14171121                0.16498435                0.15599046                0.65769239               -0.68598254
              11.15868242                6.71638088               63.93233480                0.00010000                0.12069985               -0.01718401               -1.02278191               -1.01219591                6.39267198               -2.14857305
              12.15998048                6.27139762               63.66726794                0.00010000                1.03764171               -2.01007205               -2.01963022               -3.27508485               12.80632664                4.15421327
              13.17943526                5.79899412               63.42582246                0.00010000                3.09102859               -3.31721610               -3.16758025               -5.14971335               15.98581393                5.75044455
              14.22180106                5.28394720               63.22267306                0.00010000                5.42194666               -6.92815439               -4.28345633               -9.77030281               20.02731271                8.97862027
              15.28787419                4.69027686               63.05891512                0.00010000                6.37635107               -8.87220793               -5.16278662              -19.18674606               24.74290261                9.57888788
              16.34932808                3.99289043               62.94662633                0.00010000                4.59237149               -4.38076694               -5.48260987              -27.49348216               29.44292419                7.74130346
              17.37972162                3.21780719               62.87437625                0.00010000                1.54996430               -0.04551569               -4.83816923              -31.26331469               32.37726165                1.40507049
              18.38032736                2.37761597               62.81605535                0.28794005                0.33295106                0.73658496               -2.60405875              -15.99698471               16.86112257               -4.04693743
              19.38638064                1.85659017               62.42886647                0.92867341                0.60532784                0.54017846               -2.49351977               -0.23890085               -0.01888249               -2.79744375
               9.57795831                8.54998126               64.56325409                0.88255151               -0.15487489               -0.15387757                1.04865295               -0.00969029                0.03021041                0.87153050
              10.57640957                8.13195342               64.17586886                0.30485691                0.09111171               -0.11332430               -0.06219787                0.08058900                0.33946118               -0.63965143
              11.57978055                7.71423108               63.79460129                0.00010000                0.79860424               -0.27538865               -1.34904991               -1.87112604                8.73978126               -2.74450358
              12.59238165                7.25432335               63.57546635                0.00010000                2.12009873               -1.54518776               -2.43656462               -4.47507904               17.49819271                0.79960256
              13.62218252                6.76287285               63.36893983                0.00010000                4.02541260               -3.15501462               -3.70305553               -7.45596620               19.35279949                3.46035558
              14.67288990                6.22445067               63.18552995                0.00010000                5.91039728               -4.99734314               -4.90767617              -12.41543275               21.93601272                5.02934964
              15.74039047                5.62179111               63.02779792                0.00010000                6.96511425               -5.76225444               -5.85342577              -19.02781554               24.33029968                5.43416115
              16.81219219                4.94750467               62.88902103                0.00010000                6.56565076               -4.18974209               -6.24151265              -24.99466385               25.37131985                3.60980677
              17.87170348                4.20900976               62.75167455                0.00010000                4.37550481               -1.26003872               -5.52836510              -30.13484762               24.34351157               -0.87352466
              18.89970228                3.38486335               62.60254836                0.15301973                1.68949958                2.58704934               -2.51232483              -16.92861672               11.93755931               -6.98181107
              19.90549348                2.86089083               62.22244834                0.78022784                0.57911921                1.23749720               -2.94592447               -1.96191193                0.54500150               -4.73399470
               9.99573532                9.54887143               64.44688024                0.87813558               -0.08068743               -0.07898467                0.78401665               -0.01738276                0.01265192                0.97445594
              10.99492844                9.13108015               64.05157322                0.32400604                0.15773260               -0.04891440               -0.28516091               -0.06404852               -0.00382743               -0.62467434
              11.99888997                8.71087311               63.65599244                0.00010000                1.34543452               -0.23677104               -1.51294834               -2.70046543               10.04269653               -2.80007425
              13.02183713                8.24049386               63.46330342                0.00010000                3.06493214               -1.23366960               -3.02415257               -5.99659409               20.66184556               -1.09351363
              14.06018861                7.73589382               63.28134397                0.00010000                4.63685030               -1.87336487               -4.50737739               -9.27973084               22.15229152                0.76336783
              15.11457414                7.18400034               63.11665131                0.00010000                6.20376316               -3.10848570               -5.87713385              -14.14363270               23.89947009                2.81415255
              16.18426388                6.57503178               62.96504653                0.00010000                7.38210071               -3.71763118               -7.00464159              -19.69498288               24.89146096                3.54780557
              17.26221616                5.90909559               62.81160082                0.00010000                7.77010594               -3.08187875               -7.75699316              -24.72500424               24.06246371                2.72989030
              18.33966600                5.19260641               62.63511686                0.00010000                6.38289003               -1.21048949               -7.70545121              -28.76840524               19.54475572               -0.17086831
              19.38987396                4.42935695               62.38674721                0.08658440                2.77107201                5.33449881               -5.27687508              -19.04215601               10.08442645              -10.51948617
              20.39508744                3.88134011               62.00442074                0.70666890                0.52134803                3.27651995               -6.21029755               -6.28160980                3.54649834               -9.25137515
              10.41319321               10.54840157               64.33078783                0.87731389               -0.00662972               -0.01363759                0.50588049               -0.01636927                0.01108937                1.03091368
              11.41312691               10.13097513               63.92716031                0.38463248                0.15821586                0.02585666               -0.49554157               -0.14817633               -0.33508409               -0.67130694
              12.41635753                9.70949566               63.51681257                0.01426810                1.71510695               -0.02070742               -1.48147832               -3.37349355               10.31323859               -2.74683755
              13.44742905                9.22964996               63.32857208                0.00010000                3.83619520                0.49312548               -3.98856039               -6.83117039               22.40333649               -6.97047192
              14.49308143                8.72540555               63.16204936                0.00010000                5.17251227               -0.13048991               -6.06487009              -10.08580870               24.89844143               -1.34768015
              15.55087930                8.16228096               63.02739645                0.00010000                6.41570673               -1.36454209               -7.05301527              -15.14793904               26.92169199                1.49628705
              16.62139557                7.54743849               62.89005570                0.00010000                7.46190835               -1.81850957               -8.59615841              -19.72040459               26.87810369                2.83033559
              17.70011746                6.88586710               62.73523538                0.00010000                7.73392221               -1.26139367              -10.06597072              -24.04567582               24.93418145                2.88830780
              18.77607401                6.18479997               62.53480463                0.00010000                6.50040006                0.40121108              -10.95233122              -25.87405426               19.24819443                0.40669433
              19.83012547                5.49155332               62.23769590                0.07016019                4.99104774                4.92425537              -12.08723342              -17.80474078               10.25700841               -8.74871015
              20.87589496                4.92642123               61.83621325                0.68473145                4.57694988                3.46052539              -12.94633005               -6.68087422                2.70668458               -9.90589977
              10.83026081               11.54859867               64.21473872                0.88132572                0.06100168                0.04794783                0.21830397               -0.00493974               -0.01564609                1.06444928
              11.83087082               11.13159728               63.80201860                0.52781378                0.12422332                0.10025805               -0.68265967               -0.14845695               -0.63556097               -0.75105500
              12.83274527               10.71045896               63.37727970                0.14155822                1.92165064                0.16068128               -1.12973353               -2.38114683                5.35685720               -2.34673851
              13.86930383               10.25035637               63.08535118                0.00010000                4.65480847                2.73839084              -11.60970101               -8.72528578               21.54430228              -12.40206761
              14.92584144                9.73328403               63.02109522                0.00010000                6.01392956                0.71838621               -6.64712451              -12.06176754               32.28494601               -2.64243942
              15.98958243                9.15670950               62.92778203                0.00010000                7.02141006               -0.26897542               -8.55290598              -14.45842115               30.88766103                0.89109182
              17.06626964                8.53866158               62.81252204                0.00010000                7.71793665               -0.02802322              -10.55026934              -17.38214426               30.01252099                2.35626614
              18.14394116                7.88386771               62.66708773                0.00010000                7.51145220                1.01542293              -13.14416730              -20.67841390               27.38117143                2.77893645
              19.21649869                7.20063064               62.45628774                0.00010000                7.41083592                2.92875117              -16.10037760              -21.75019451               20.16158757                0.99920006
              20.29215788                6.52784206               62.12092838                0.07964224                8.76177259                4.41427419              -21.70344385              -14.11629662               10.53468151               -9.08119389
              21.39173414                5.95055062               61.69033924                0.68350908                9.95762607                3.07691119              -22.42459223               -4.97878952                1.51160198              -12.03717923
              11.24709720               12.54936052               64.09877469                0.82584950                0.12002918                0.09361699               -0.10130209                0.00921694               -0.09470522                0.94845404
              12.24829749               12.13298029               63.67607980                0.75586290                0.14391524                0.16683088               -0.78760424               -0.08117307               -0.53433492               -0.63292979
              13.24997550               11.71270929               63.24491537                0.40113093                0.09003906                0.22826642               -0.77655356               -0.54546941               -0.83168748               -1.33280239
              14.25009827               11.28441778               62.81637657                0.00010000                4.77587277                1.86454570               -2.51213704               -8.24902559               23.21139267               -7.46796496
              15.34549296               10.73977328               62.87580400                0.00010000               10.31175236               -0.78027635               -8.76790513              -10.51589712               40.96729809               -2.08330201
              16.45633332               10.15690145               62.82771867                0.00010000               10.05507549               -0.04907009              -10.04336000               -9.74109951               35.13281372                0.50986261
              17.54659447                9.54687802               62.73564004                0.00010000                8.41234094                1.34107050              -12.73495538              -10.84948986               33.67111781                1.52460327
              18.62458013                8.90617556               62.60656377                0.00010000                7.52506515                3.31309895              -16.62839156              -12.92188683               31.03726398                1.96186008
              19.69709577                8.24337499               62.40139022                0.00010000                8.66497069                5.75969144              -22.56612555              -14.24616197               20.67125524                0.39442197
              20.79787955                7.57983881               61.99990542                0.10528607               11.69031445                8.73037931              -36.10104772               -9.11406905                8.53794242               -8.83703930
              21.93090206                6.98795945               61.52273871                0.68248319               13.30225092                7.23223899              -36.28801752               -2.37253379               -2.74763848              -11.53455408
              11.66320561               13.55047101               63.98023397                0.90749259                0.26929889                0.11104906               -0.43147832                0.05712983                0.48162491                0.83366156
              12.66589860               13.13493390               63.55384539                1.00000000                0.35963964                0.19536095               -0.89186772               -0.01222548                0.45975901               -0.52449917
              13.67039840               12.71502429               63.12768087                0.78766980                0.56803684                0.23150003               -1.17885890               -0.32204082                0.12866153               -0.71246652
              14.67725933               12.28764729               62.69947794                0.36642011                8.63207131                0.32295118               -1.75031459               -7.15118309               22.96367995               -0.37063567
              15.84303983               11.71767850               62.75184973                0.36070215               15.51981791               -2.20947789               -9.19177934               -6.84127264               42.72795580               -2.05735259
              16.98765569               11.15572810               62.73182190                0.36489014               12.84829551               -0.11733532              -11.57622233               -4.47753781               38.42792249               -0.17992498
              18.10000574               10.56548299               62.65769752                0.37910868               10.06753825                1.86049708              -14.86728811               -4.93879325               37.29776106                0.34109793
              19.18900646                9.95012969               62.54977506                0.40361318                7.89532309                4.39541326              -19.84564144               -6.04029446               35.86583750                0.26007246
              20.25791220                9.31582446               62.36644181                0.44656551                8.81427892                7.24494736              -27.60012970               -6.30235923               25.55468835               -1.34173188
              21.36529203                8.70244965               61.96191484                0.56547324               13.50649858               12.26108411              -49.31448808               -4.29020472                9.46139502              -11.50820987
              22.52804217                8.09519540               61.47362704                0.84320610               16.27501355               10.72359463              -49.96190921               -1.01141369               -2.79822934              -14.35990726
               7.83060939                3.69677690               66.16391164                1.00000000               -0.50366055               -0.62835090                2.19777496               -0.20642987               -0.50257119                0.61423664
               8.82557279                3.26166122               65.79059714                1.00000000               -0.35350874               -0.30583859                1.14309697               -0.16261159               -0.61759432                0.08567050
               9.82353922                2.82592530               65.41433814                1.00000000               -0.05659313                0.00657167                0.10228086               -0.15902193               -0.61065778               -0.08966552
              10.82444093                2.38902618               65.04099459                0.59632277                0.16327872                0.35646427               -0.96223903               -0.26082988               -0.30667294               -0.52457429
              11.82680479                1.94911254               64.67111710                0.49082630                0.40050195                0.76418932               -2.15366347               -0.30257360                0.11804511               -0.22257031
              12.83245097                1.50627857               64.30674015                0.31513188                0.55448660                1.13161278               -3.37373147               -0.55658131                0.72581843               -0.59062937
              13.83789453                1.05557734               63.95034172                0.00010000              -13.02849203                1.58971999               -4.44323484              -23.29207236               14.95170582               -1.19310046
              14.57188112                0.14584782               63.87455731                0.00010000              -16.56276986                5.41701114               -5.29208934              -22.14043260               22.51499421                4.56220237
              15.50663913               -0.76565038               63.62880153                0.00010000                4.53510747                3.35286607               -4.91584267              -17.64790351                6.21601442               18.60858140
              16.66258327               -1.69421022               63.21022594                1.00000000                8.16352922                0.77155580               -2.31157752              -20.09277822               -1.01737844                0.18174012
              17.66990971               -2.22495594               62.81074793                1.00000000                0.73264394                0.94835477               -2.87609604                0.02396964               -0.18593769               -0.04088119
               8.26366078                4.69049339               66.04448780                1.00000000               -0.42883078               -0.58033019                1.95695692               -0.04486884                0.00385882                0.86377203
               9.25937247                4.25860283               65.67098461                1.00000000               -0.26971309               -0.27275997                0.90111920               -0.00644087                0.05897556                0.13022834
              10.25826652                3.82599102               65.29804184                1.00000000                0.04332673                0.03692667               -0.14191069                0.00616961                0.10120025               -0.27388238
              11.26023901                3.39259082               64.92532886                0.52717959                0.34431706                0.38598001               -1.20448827               -0.06166181                0.62042041               -0.56757325
              12.26515286                2.95675443               64.56321364                0.50098294                0.67068730                0.75048343               -2.44981276               -0.08347603                1.04222793               -0.29548686
              13.27365275                2.51759470               64.19982362                0.34462509                1.00181598                1.12044967               -3.68135448               -0.30807465                1.23215285               -0.61956583
              14.28518918                2.07147454               63.84315131                0.00010000               -0.62810486                1.39527818               -4.84633271              -21.34948047               17.34562957               -0.94152622
              15.26109066                1.20001793               63.80469748                0.00010000               -1.75000328                0.98777662               -5.63600278              -29.64366111               30.43378496                9.19162063
              16.25018911                0.26787828               63.68941307                0.00010000               -3.48911923                3.44673417               -5.33214446              -30.14486175                4.08213039               21.91139037
              17.19130827               -0.68649467               63.09011225                0.13788752               -2.46469939               12.40354349               -3.08552556              -20.51035082               -9.82181935               61.11542117
              18.20089513               -1.21547239               62.69057669                1.00000000                0.95868545               13.14934531               -3.64841624                0.64108968                0.02931413               61.39137976
               8.69349314                5.68517030               65.92916500                1.00000000               -0.35467955               -0.47156943                1.70372018               -0.05009071                0.18422656                1.03262851
               9.68994635                5.25620602               65.55192893                1.00000000               -0.19092603               -0.20875222                0.64971544               -0.01334687                0.38464447                0.04517714
              10.68967462                4.82666383               65.17825888                0.49740625                0.12489640                0.11358177               -0.39866982                0.00792634                0.81111279               -0.69624612
              11.69244427                4.39674578               64.80960310                0.00010000                0.52283860                0.50589368               -1.40463822               -0.16270080                1.75764272               -0.73472259
              12.70013139                3.96412221               64.45537442                0.00010000                0.95625474               -1.15963322               -2.70722605               -0.76988418                2.08593492                3.86775734
              13.71156937                3.52868757               64.09443695                0.00010000                1.41751475               -2.72677167               -3.89996840               -0.66990979                2.11473386                8.11767534
              14.72848169                3.08348290               63.74260306                0.00010000                3.55173943               -8.69465936               -5.01831124              -21.61385709               24.88879639               16.19265238
              15.78260416                2.16560335               63.83902608                0.00010000                3.08864001               -2.84863388               -6.00673601              -38.25827422               41.50707042               14.89735340
              16.79025449                1.30328430               63.80869829                0.02547629               -2.34386133                3.88229200               -5.60933884              -29.44210149               57.05440626               24.11073874
              17.73572693                0.55386065               64.19089896                0.44276937               -2.47837638               12.27610001               -2.43367743              -10.20424123               38.88195303               64.52662406
              18.74068696                0.03803097               63.80171251                0.89713067                0.49600300               12.90405873               -2.02060349                1.18119483                0.33775124               65.36026758
               9.12058753                6.68106200               65.81225632                1.00000000               -0.29755293               -0.34985658                1.44988609               -0.03389085                0.30688255                0.87942493
              10.11761200                6.25442779               65.43035706                0.54141032               -0.13511218               -0.16317043                0.40682133                0.05714029                0.59144589               -0.39072513
              11.11788529                5.82826265               65.05381275                0.00010000                0.09573093                0.13720657               -0.69134041                0.18093388                1.56086879               -1.29543833
              12.11952662                5.40270869               64.69145950                0.00010000               -0.00359481               -0.76500221               -1.61183223               -2.03053838                7.33998208                2.78730112
              13.11781339                4.93356177               64.43219189                0.00010000                1.06836244               -2.90857822               -2.91220140               -3.69242824               12.10127055                7.50181221
              14.14089387                4.46305927               64.16441885                0.00010000                4.90914330               -7.02065414               -4.08946253               -6.93061506               15.86680096               14.43922254
              15.21599625                3.89758135               63.98039045                0.00010000                6.76149510              -14.42514466               -5.11100073              -18.64672798               24.23559925               23.41773718
              16.27612377                3.14304525               63.88075510                0.00010000                2.85467670               -3.00831129               -5.67522182              -29.86866328               35.15257275               14.08305351
              17.27308979                2.34552412               63.91217801                0.00010000               -1.18234917                2.47807312               -4.87233587              -30.26754048               44.95630707               15.32251238
              18.25247679                1.55902733               64.00128440                0.55861041               -0.84557023                0.35294255               -1.53220930              -13.48892406               24.21489278               -0.39671351
              19.25617838                1.04260878               63.61284997                1.00000000                0.37015988                0.31626120               -1.20780373               -0.06236572               -0.14203693                0.08488814
               9.54608376                7.67817317               65.69300559                0.90760703               -0.21952579               -0.21889021                1.20174795                0.00805567                0.07525029                0.77876040
              10.54388850                7.25294261               65.30244655                0.34881274               -0.05356854               -0.14790931                0.17787273                0.16609003                0.61817734               -0.66391266
              11.54501239                6.82940797               64.92250877                0.00010000                0.13229438               -0.08474439               -0.92635843               -0.83079978                6.34344669               -2.15413402
              12.54653439                6.38144573               64.64651815                0.00010000                1.04599324               -1.76946074               -2.08281658               -2.89996654               12.63262374                4.13626298
              13.56593226                5.90595064               64.39324968                0.00010000                3.12015484               -2.97217150               -3.31366225               -4.81434265               15.60223944                5.85664890
              14.60893749                5.38827448               64.17873189                0.00010000                5.48144447               -6.44683465               -4.51047166               -9.29723563               19.57706733                9.31481995
              15.67556114                4.79498001               64.00637914                0.00010000                6.41753163               -8.25238634               -5.40952405              -18.23450253               24.51371212               10.42538948
              16.73728812                4.10543712               63.89216235                0.00010000                4.66802256               -3.90633310               -5.56676684              -25.66034032               29.97543618                9.45191497
              17.76892160                3.35284577               63.83013914                0.00010000                1.57878344               -0.28292479               -4.28919465              -27.91589377               34.23308350                4.10062639
              18.76886379                2.56091950               63.80014091                0.39785727                0.16775782                0.04436489               -1.20280116              -13.86088245               17.93852199               -1.79742036
              19.77227675                2.04435619               63.41430948                1.00000000                0.34129633                0.06345668               -1.08578992               -0.04815968               -0.06993174               -1.11409262
               9.97120976                8.67668420               65.57327093                0.88223626               -0.15107576               -0.10870799                0.95186493                0.00178792                0.02873738                0.82872262
              10.96969900                8.25146960               65.17544627                0.32934228                0.07782029               -0.11713558               -0.02312242                0.08557132                0.25509840               -0.58784373
              11.97276616                7.82656777               64.78205123                0.00010000                0.76428043               -0.26935003               -1.12862667               -1.52137698                8.53684474               -2.57049696
              12.98498461                7.36731948               64.55071364                0.00010000                2.09658113               -1.23128305               -2.49894320               -3.93569185               17.09344776                0.84523049
              14.01469779                6.87411834               64.33079088                0.00010000                4.04675915               -2.66011543               -3.90155271               -7.02194495               18.75138035                3.50958477
              15.06591979                6.33412257               64.13505944                0.00010000                5.97228887               -4.47914406               -5.18262258              -11.78922904               21.33279857                5.29646392
              16.13414356                5.73253362               63.96845034                0.00010000                6.95657058               -5.23761617               -6.06717741              -17.83545651               24.04090929                6.13070691
              17.20505120                5.06491859               63.82798510                0.00010000                6.25729885               -3.78943467               -6.10024234              -23.02805064               25.98946755                4.89714939
              18.25928954                4.33986562               63.70361188                0.00010000                3.93487546               -1.54181361               -4.51798813              -26.43391430               26.79609411                1.22194295
              19.28374871                3.55991463               63.58780607                0.26672705                1.45261326               -0.25526500               -1.10405406              -13.53631667               13.51845901               -3.36463339
              20.28834181                3.04387791               63.20577219                0.88755901                0.45930930               -0.24013072               -1.18941168               -0.26204002                0.02171643               -2.61876000
              10.39654872                9.67599901               65.45422466                0.88081954               -0.08323558               -0.04096123                0.68387961               -0.00009473                0.01423589                0.90034484
              11.39571636                9.25059990               65.04909613                0.36399787                0.10931254               -0.04422058               -0.21321603                0.00800443               -0.04531291               -0.54291555
              12.39873497                8.82402097               64.64279588                0.00010000                1.22768079               -0.12691575               -1.14326854               -2.11822649                9.64148266               -2.32790051
              13.42026998                8.35682007               64.43305625                0.00010000                2.99776453               -0.47270067               -2.96139646               -5.10393142               19.83034088               -1.31615278
              14.45869026                7.85274834               64.23483732                0.00010000                4.72338216               -1.31481616               -4.73524447               -8.84910062               21.24620998                0.55429565
              15.51473762                7.29869160               64.05643569                0.00010000                6.46828689               -2.73342786               -6.11561900              -13.47310414               23.08105258                2.98085790
              16.58805600                6.69022768               63.89413280                0.00010000                7.73287405               -3.44406065               -7.17567957              -18.19986126               24.28987562                4.02011469
              17.66939511                6.02964843               63.73594327                0.00010000                7.85956338               -3.02686292               -7.46636101              -22.17076427               23.98366086                3.58375686
              18.74524727                5.32200949               63.56463247                0.00010000                6.23650303               -1.55361517               -6.32305922              -25.61624978               21.40583524                1.07390576
              19.79412517                4.55581420               63.36150320                0.20721454                2.69310595               -0.02633409               -1.53910855              -13.51434278               10.29039270               -5.97287761
              20.79910939                4.03955357               62.97992678                0.81781939                0.49842208               -0.38588580               -1.42121807               -0.87551921                1.20411553               -4.87624993
              10.82200608               10.67586498               65.33530355                0.88156530               -0.01689529                0.00914044                0.40247646                0.01241899                0.01702190                0.92223240
              11.82183713               10.25058519               64.92283431                0.44466435                0.10876875                0.04010750               -0.37880130                0.01260702               -0.25547621               -0.53790346
              12.82418146                9.82402945               64.50506579                0.06803869                1.61707402                0.08642117               -0.99272972               -2.09465559                9.30099258               -2.02455018
              13.85417861                9.35786547               64.28502041                0.00010000                3.58313935                1.49194352               -4.65457539               -6.79853912               20.69054729               -9.52602736
              14.89584424                8.84782202               64.10132577                0.00010000                5.23998757               -0.01376898               -5.75880979              -10.47222259               24.02233187               -1.51518555
              15.95897836                8.27945402               63.95534843                0.00010000                7.16726327               -1.32011191               -7.26161689              -14.57698888               25.97022578                1.47312350
              17.03918951                7.66365241               63.80306169                0.00010000                8.54378730               -1.95075929               -8.72022053              -18.14336773               25.65749556                3.04880825
              18.12985411                7.00438133               63.63631323                0.00010000                9.08046344               -1.82059524               -9.61550510              -21.25943068               23.99848580                3.24520012
              19.22079878                6.30879332               63.43437657                0.00010000                8.30318338               -0.82179298               -9.26505209              -24.33207958               18.52012652                1.53074996
              20.29591778                5.55938795               63.14238618                0.20165652                4.12769431                0.71468214               -5.49696196              -12.96978210                8.97656549               -8.18992554
              21.30335267                5.03616020               62.74826011                0.80449598                0.74348896               -0.15487231               -4.46259160               -1.37724977                1.59619687               -7.14253656
              11.24735668               11.67618182               65.21634445                0.88629158                0.04473555                0.04583766                0.11612962                0.03642434               -0.01837130                0.89629965
              12.24780403               11.25140205               64.79621167                0.61426322                0.11024533                0.11085500               -0.49840667                0.05763354               -0.37009645               -0.51022465
              13.24956158               10.82574939               64.36923741                0.22126047                0.63513012                0.17373864               -0.68253422               -0.69561951                1.34209626               -1.55135967
              14.26050663               10.38665894               63.98350129                0.00010000                3.90478388                2.08778014               -6.44232251               -7.56287835               19.71506261              -10.62704951
              15.32765726                9.85247296               63.95511970                0.00010000                7.34304099                0.32114516               -6.50908802              -12.22201456               33.55105648               -2.98846387
              16.40736745                9.27228936               63.84114649                0.00010000                8.63020361               -0.66085062               -8.56446404              -13.84482046               29.35891729                0.55315154
              17.50026133                8.65121250               63.70555492                0.00010000                9.58490632               -0.64264250              -10.62952327              -16.07076314               27.92299586                2.35208215
              18.59906558                7.99323653               63.53767187                0.00010000               10.16688625               -0.17271142              -12.41155563              -18.52323127               24.98642742                2.77201504
              19.70359906                7.30557363               63.31210910                0.00010000               10.41485333                0.28775550              -13.28465267              -21.49237707               16.22561063                0.82457593
              20.80736265                6.57010784               62.93092890                0.21787989                5.72104183                1.34793591              -10.82971879              -11.43252623                6.84031518               -9.32862762
              21.81801989                6.03645613               62.52384596                0.81202182                1.06572474                0.17417646               -8.32046128               -1.03368038                0.56795618               -7.31992550
              11.67229411               12.67678173               65.09706015                0.82706628                0.11281208                0.08160762               -0.19781970                0.04292172               -0.03989329                0.73142281
              12.67342223               12.25280229               64.66993501                0.85293851                0.13590323                0.14672172               -0.51857738                0.05958758               -0.21022050               -0.33012276
              13.67501217               11.82750422               64.23953300                0.49672040                0.13876244                0.16628519               -0.47377074               -0.09690584               -0.38851052               -0.82073999
              14.67619748               11.39962107               63.80902822                0.00010000                4.53806808                0.70759459               -0.52829550               -6.46113917               20.69052718               -2.98631463
              15.76577353               10.85424492               63.79845661                0.00010000               10.35724677               -1.40657455               -6.92997162               -9.45088269               38.13990345               -2.39163219
              16.88334241               10.26623700               63.72487910                0.00010000               11.55267764               -0.77003014              -10.01566237               -9.33081015               33.21622517                0.11906152
              17.99682709                9.65079956               63.60639428                0.00010000               11.08429671                0.29624339              -12.77565784              -10.07109269               30.39268215                1.43492822
              19.10502835                9.00092710               63.44275052                0.00010000               10.86264191                1.54604688              -15.62819538              -12.10681356               26.20982903                1.74828602
              20.21407992                8.31454843               63.19653868                0.00010000               11.56782052                2.61862066              -18.31634079              -15.28771381               12.63096803               -0.05506514
              21.33638476                7.58634667               62.71929405                0.22657186                6.79512777                2.30797840              -15.77239175               -9.96794084                3.13284210              -10.12411952
              22.34998248                7.03964373               62.31276238                0.80340166                1.35977231                0.79382986              -10.79888167               -0.18438664                0.05347299               -7.00931527
              12.09617399               13.67781397               64.97535901                0.90704348                0.20992971                0.10322391               -0.47478956                0.04023975                0.44670247                0.59373344
              13.09827329               13.25433648               64.54677122                1.00000000                0.23153467                0.15341933               -0.62612829                0.04816228                0.42339768               -0.19843342
              14.10080468               12.82907509               64.11882771                0.83188703                0.31349331                0.15708696               -0.75872552               -0.09703103                0.32093586               -0.41392894
              15.10454315               12.40081084               63.69086133                0.36620000                8.56094929                0.11897663               -0.69093357               -7.40211361               20.65549559               -0.30360419
              16.27202367               11.82434147               63.67404263                0.36067486               15.98267279               -2.99034537               -7.09670196               -6.57109000               39.14761298               -1.40496447
              17.42419661               11.25688876               63.61329878                0.36474319               14.60628551               -0.93482435              -11.43802298               -4.27478518               35.13525245               -0.38591558
              18.56414938               10.65713736               63.50590362                0.37812426               13.44919131                0.63378060              -15.02287975               -4.90433546               32.30334513                0.26490457
              19.69318044               10.02415746               63.34986501                0.40148642               12.41379172                2.32303609              -19.17373519               -6.14435689               28.39443343                0.05685458
              20.81242521                9.35794605               63.10846855                0.43311981                9.48640481                4.33976157              -23.80560969              -10.55997374               10.27029442               -1.27139675
              21.88290853                8.61626741               62.53928848                0.61451427                4.76564132                2.99207390              -24.60960945              -10.62828847               -3.37744006              -14.46425802
              22.90773804                8.05233273               62.13172304                0.89695445                2.48295089                1.26889975              -18.98640754               -0.61791200               -3.29541572              -10.80423080
               8.20429152                3.82346574               67.18513974                1.00000000               -0.47081565               -0.58292929                2.04437321               -0.18983969               -0.48011199                0.59630473
               9.19958336                3.38331739               66.80171027                1.00000000               -0.33323087               -0.28885629                1.07892395               -0.14972627               -0.58708014                0.08061776
              10.19762690                2.94257820               66.41547757                1.00000000               -0.06114497               -0.00365034                0.12748036               -0.14619954               -0.58585263               -0.08385046
              11.19836046                2.50076208               66.03193174                0.59611763                0.14146868                0.31510872               -0.84594398               -0.23913601               -0.35409178               -0.50348465
              12.20045627                2.05616562               65.65069954                0.48345560                0.35291186                0.68552816               -1.92400424               -0.28506765               -0.01089621               -0.24359719
              13.20541870                1.60875398               65.27461152                0.29504279                0.41071599                1.02136442               -3.03953096               -0.61110827                0.64551673               -0.60120076
              14.20867059                1.15230399               64.90790977                0.00010000              -12.26330134                1.51349424               -4.02604548              -22.16389338               14.80134755               -1.30651670
              14.96015267                0.26012683               64.81974314                0.00010000              -15.28978445                4.99442471               -5.47652658              -21.34931682               22.48832026                3.84552992
              15.90287490               -0.64170305               64.57797614                0.00010000                5.18442794                3.75461034               -5.10344093              -17.04944480                8.46584202               17.58107768
              17.06384123               -1.56944248               64.18819014                1.00000000                8.40748989                0.79043992               -2.14736114              -19.97960202                0.68261134                0.10536286
              18.07102470               -2.10226646               63.78318015                1.00000000                0.71834716                0.97508128               -2.70556192                0.04761223               -0.11017133               -0.09025478
               8.64254147                4.81763645               67.06338086                1.00000000               -0.40116077               -0.53628723                1.81878025               -0.04204699                0.01343756                0.84026728
               9.63852986                4.38042882               66.67975419                1.00000000               -0.25494569               -0.25777654                0.85276438               -0.00652559                0.07546780                0.12088645
              10.63744256                3.94254170               66.29680617                1.00000000                0.03227628                0.02423132               -0.10255048                0.00487616                0.11328713               -0.27386451
              11.63917539                3.50391316               65.91391313                0.54390410                0.30835416                0.34253424               -1.07368028               -0.05719841                0.53481147               -0.52971040
              12.64360964                3.06302091               65.53990425                0.51149968                0.60315215                0.67355653               -2.20414587               -0.08023113                0.87057212               -0.30065677
              13.65123843                2.61896763               65.16473983                0.34364237                0.88677964                1.00991320               -3.32311833               -0.33728460                1.08355720               -0.59698742
              14.66134523                2.16743893               64.79679674                0.00010000               -0.37877061                1.30104957               -4.40544493              -20.37419851               17.20237094               -0.92882005
              15.64366302                1.31007108               64.74702401                0.00010000               -0.70900613                0.99434366               -5.78690046              -28.43065142               30.14672254                8.67878385
              16.64716511                0.39584305               64.63321885                0.00010000               -2.46680538                3.89916828               -6.48755757              -29.57349329                4.79827405               20.51469567
              17.59432691               -0.56153808               64.06020963                0.14850765               -2.14201550               15.52719409               -3.07054645              -21.28021671               -8.33635573               61.59385106
              18.60432480               -1.09251565               63.65515096                1.00000000                0.99978882               16.50491258               -3.62791130               -0.09107658                0.11654396               62.44312410
               9.07786582                5.81273999               66.94558629                1.00000000               -0.33182287               -0.42997426                1.57873191               -0.04553751                0.18653913                1.00014371
              10.07454759                5.37816185               66.55826208                1.00000000               -0.18128702               -0.19866482                0.61764984               -0.01064426                0.39006393                0.03600147
              11.07424008                4.94306283               66.17454299                0.43673171                0.10948466                0.09372053               -0.34073213                0.00993679                0.83515045               -0.71778608
              12.07673729                4.50761276               65.79620831                0.00010000                0.47785511                0.47213020               -1.26679047               -0.18421878                1.66035346               -0.67751174
              13.08379718                4.06963675               65.42957002                0.00010000                0.87588472               -1.08213703               -2.44448561               -0.77388636                1.89412613                3.84273996
              14.09425498                3.62895225               65.05722492                0.00010000                1.31429934               -2.57321777               -3.53152111               -0.69170214                1.99292972                8.08704084
              15.11008317                3.17832498               64.69459746                0.00010000                3.44402685               -8.18124942               -4.56853297              -20.44197107               24.56578905               16.19866677
              16.16313552                2.28001371               64.77608760                0.00010000                3.64655138               -2.32131353               -6.21799481              -36.24258197               40.77438531               15.33218239
              17.18301420                1.43628032               64.74731105                0.00010000               -1.82699620                4.95432108               -7.98492523              -26.28926277               56.60090366               24.68505767
              18.12659559                0.74110140               65.16188184                0.32076347               -2.59279497               15.72467519               -5.94898721               -8.03622880               40.74546407               62.65237685
              19.13115830                0.22783179               64.77756621                0.77514116                0.45627048               16.58518509               -4.79590997                0.56920035               -0.00127289               63.95423479
               9.51078700                6.80903696               66.82619965                1.00000000               -0.27928568               -0.31152118                1.33808008               -0.02660804                0.30708037                0.84219252
              10.50799414                6.37645553               66.43434982                0.53636419               -0.12983059               -0.15913399                0.39235486                0.06292066                0.56577031               -0.38465881
              11.50819039                5.94441611               66.04729265                0.00010000                0.04614733                0.09984453               -0.60661173                0.20699569                1.59264397               -1.30251245
              12.50891709                5.51335577               65.67614727                0.00010000               -0.06989812               -0.63720139               -1.40076307               -1.89415913                7.22563158                2.65671632
              13.50679243                5.04137816               65.40318416                0.00010000                0.98995381               -2.60543240               -2.79757126               -3.51916828               11.57248483                7.40444648
              14.52871617                4.56750327               65.12328055                0.00010000                4.73259646               -6.46746148               -4.10597854               -6.58031323               15.27898301               14.35287436
              15.60144435                4.00381394               64.92825656                0.00010000                6.60699390              -13.38001073               -5.34384526              -17.46118335               23.55487797               23.65196926
              16.66085604                3.26364481               64.82207467                0.00010000                2.94239028               -2.26574896               -6.16116054              -27.34715900               35.02792447               15.41857138
              17.66029216                2.49492948               64.86149862                0.00010000               -0.94025921                3.60527656               -6.00353333              -26.86494266               47.29696287               17.08713408
              18.64205086                1.75295542               64.99365165                0.62314315               -0.90220675                0.70222458               -0.51383474              -11.37047742               26.13590052                1.24242846
              19.64224803                1.23918806               64.60764609                1.00000000                0.01971658                0.67771509               -0.33014351               -0.10240764               -0.02494094                1.46028211
               9.94249653                7.80650957               66.70451848                0.90486208               -0.20696731               -0.18501581                1.10165948                0.01672999                0.07162427                0.72981543
              10.94042686                7.37497917               66.30429215                0.36178855               -0.05083874               -0.14542819                0.18907923                0.16436198                0.57212874               -0.62931767
              11.94147975                6.94505972               65.91380763                0.00010000                0.07325969               -0.09410423               -0.80231860               -0.65253806                6.15859837               -2.06077018
              12.94189205                6.49486873               65.62561161                0.00010000                0.88932785               -1.43329520               -2.03273725               -2.54688710               12.17361239                3.91733005
              13.95926631                6.01752811               65.35954922                0.00010000                2.91604450               -2.49506306               -3.35782525               -4.45969022               14.93679612                5.66882799
              15.00021294                5.49960302               65.13246363                0.00010000                5.27258280               -5.74135656               -4.70118487               -8.68165480               18.80139586                9.25201236
              16.06471797                4.91072476               64.95072464                0.00010000                6.24319318               -7.35811748               -5.75714189              -16.90328274               24.01887638               10.79481013
              17.12507680                4.23469873               64.83529099                0.00010000                4.58433820               -3.09890333               -6.03892592              -23.31874838               30.58934224               10.57669371
              18.15640473                3.50838585               64.78859236                0.00010000                1.49253303                0.20129033               -4.37543281              -24.60202980               36.49192700                6.02632971
              19.15492746                2.75514589               64.79199933                0.47342638                0.01200738                0.16264819               -0.70802000              -12.05697257               19.46124638               -0.83565896
              20.15664488                2.24138610               64.40715067                1.00000000                0.17174149                0.18551342               -0.61523656                0.01139730               -0.08471352               -0.37568296
              10.37418239                8.80533664               66.58229139                0.88327541               -0.14511574               -0.08319326                0.85770733                0.01005999                0.02813166                0.74741165
              11.37273123                8.37354696               66.17540641                0.35233897                0.05338395               -0.10726922                0.00960061                0.11107421                0.21104450               -0.52200010
              12.37525007                7.94253403               65.77202876                0.00010000                0.63898645               -0.18795919               -0.89117911               -1.12886746                8.17195865               -2.26784171
              13.38551096                7.48468986               65.52548749                0.00010000                1.88071330               -0.75023460               -2.49468319               -3.32733277               16.34169199                0.75304225
              14.41286433                6.99147690               65.29090878                0.00010000                3.81877254               -2.05416304               -4.00721370               -6.47733319               17.85400966                3.21887763
              15.46188641                6.45267614               65.08187749                0.00010000                5.77093285               -3.81372589               -5.38649425              -10.90692689               20.41759537                5.17066897
              16.52828299                5.85665159               64.90645437                0.00010000                6.74667904               -4.49510228               -6.36619115              -16.25867778               23.53649400                6.31034548
              17.59681999                5.20166674               64.76701618                0.00010000                5.97607031               -3.11280676               -6.30438192              -20.56917072               26.71267586                5.54763422
              18.64780440                4.49895528               64.66131479                0.00010000                3.55455833               -1.25330015               -4.37587115              -22.98201599               29.38375196                2.58461962
              19.66791116                3.75620839               64.58046728                0.36003788                1.10955849                0.00866963               -0.64445171              -11.52984609               15.21854218               -1.70902570
              20.66999557                3.24289833               64.19866011                0.98024506                0.20844080               -0.00294530               -0.57965660               -0.04712059               -0.06219458               -1.22300256
              10.80627709                9.80484570               66.46055783                0.88522581               -0.08261337               -0.03051145                0.59663640                0.01329473                0.01449107                0.77720378
              11.80545096                9.37283379               66.04730890                0.39508846                0.07412062               -0.02227223               -0.15655340                0.09893712               -0.02911089               -0.44513214
              12.80775950                8.94130054               65.63312706                0.01586554                1.04757793                0.00145544               -0.85924693               -1.40142667                9.12470486               -1.86629292
              13.82640252                8.47986404               65.40407549                0.00010000                2.69869318                0.19972506               -2.89202154               -4.26933149               18.63188894               -2.04996785
              14.86173337                7.97644485               65.18663908                0.00010000                4.52485986               -0.83287190               -4.73359983               -8.30999151               19.98862764                0.27768275
              15.91689971                7.42332850               64.99433893                0.00010000                6.44102214               -2.28217589               -6.21455743              -12.44803238               21.94229280                2.71474758
              16.99055381                6.82082272               64.82153294                0.00010000                7.72449923               -2.98295297               -7.32038123              -16.27941109               23.36865673                3.94410589
              18.07138970                6.17244259               64.66227360                0.00010000                7.58344784               -2.63121214               -7.37344154              -19.27752835               24.08645036                3.69566083
              19.14222277                5.48331984               64.50865567                0.00010000                5.44989003               -1.55084718               -5.36493257              -21.22620592               23.90676895                1.44225286
              20.18038750                4.75531929               64.35596504                0.32514337                2.00499118                0.10603653               -0.51749368              -10.70652910               11.74713308               -2.01597460
              21.18232259                4.24132719               63.97599638                0.93275140                0.19350921               -0.16235007               -0.31330771               -0.09543564                0.10343748               -1.78536057
              11.23847211               10.80472641               66.33883736                0.88772135               -0.02169696               -0.00388218                0.32926482                0.03160303                0.01191382                0.75974064
              12.23825514               10.37310152               65.91958428                0.48018455                0.08595863                0.07291511               -0.29596338                0.14808511               -0.15755690               -0.39034246
              13.24019129                9.94256313               65.49695798                0.09708356                1.33624396                0.18320096               -0.74270945               -0.99395422                7.70259356               -1.49049390
              14.26498002                9.48868436               65.23548057                0.00010000                3.15043792                1.69717633               -3.96421809               -5.82116944               18.65502336               -9.23883334
              15.30320004                8.97481947               65.04687317                0.00010000                5.17839346               -0.00304673               -5.19652238              -10.20838686               23.20702121               -2.06689206
              16.36854789                8.40703262               64.88216411                0.00010000                7.51903177               -1.25433182               -7.19369592              -13.42005488               24.33814204                1.13160768
              17.45358068                7.79699253               64.71565129                0.00010000                9.01122044               -1.92260407               -8.63761992              -16.01698765               24.02403734                2.77716450
              18.54877230                7.14904250               64.54292528                0.00010000                9.34114531               -1.97859339               -9.06279690              -18.16641826               22.70133277                3.07067390
              19.64040359                6.46793834               64.34950359                0.00010000                7.35004658               -1.41798990               -7.42546313              -19.25911390               19.76781132                1.25864046
              20.69577323                5.75832912               64.12775666                0.34989146                2.78337316                0.45211811               -0.98377142               -9.57235950                8.86440923               -1.74400851
              21.69607105                5.23965132               63.74696142                0.94749445                0.02978165               -0.08386735               -0.06657478               -0.12095163                0.51428705               -1.51189076
              11.67015895               11.80476806               66.21706131                0.89246225                0.04169938                0.01240028                0.06585503                0.05627802               -0.02585093                0.69647612
              12.67057594               11.37429209               65.79205047                0.64468563                0.10693134                0.13583840               -0.38563979                0.17807890               -0.19645400               -0.29386080
              13.67229757               10.94496456               65.36362902                0.24590085                0.35734284                0.20705265               -0.55247240                0.12181342                0.70223601               -1.03751809
              14.67772280               10.51380757               64.95650473                0.00010000                3.34598984                1.43235427               -1.58941128               -6.42877286               18.51061478               -8.94868429
              15.73921737                9.97638391               64.89091346                0.00010000                7.43013763               -0.09008843               -5.71150045              -11.31627966               31.53146703               -2.99373454
              16.82632555                9.39824186               64.75649275                0.00010000                9.44934058               -0.99511146               -8.21223480              -12.49205097               27.18422315                0.18594727
              17.92820418                8.78237064               64.59993158                0.00010000               10.53949885               -1.08823211              -10.24117443              -14.11875669               25.24825042                2.00604228
              19.03711553                8.13287072               64.41885661                0.00010000               10.97748452               -1.00471800              -11.22167719              -15.87752869               21.98187168                2.57560822
              20.14775387                7.45496005               64.19059469                0.00010000                9.00558985               -1.10120501              -10.02941587              -16.78705298               16.21903592                0.98445234
              21.21722732                6.76436165               63.90433401                0.39594251                3.47526370                0.53338610               -1.56454155               -8.33853737                6.09664099               -1.58990367
              22.21725915                6.23964984               63.52393002                0.98248739                0.00318225                0.01223695                0.06279325               -0.02299047                0.84987831               -0.92901777
              12.10054961               12.80497442               66.09481830                0.82993351                0.10706166                0.04899500               -0.20163612                0.04220115                0.01681815                0.54225046
              13.10162023               12.37581829               65.66570825                0.84819743                0.12812344                0.15003610               -0.41628975                0.10258408               -0.04735416               -0.12537618
              14.10311208               11.94670419               65.23543995                0.49057967                0.16824914                0.15958731               -0.42952320                0.09713005               -0.07230801               -0.49910404
              15.10498521               11.51733145               64.80581066                0.00010000                4.46640369                0.20507145               -0.26440371               -5.81274857               18.03636198               -1.66662515
              16.19244015               10.97301770               64.73720457                0.00010000               10.38674682               -1.89883786               -5.53698990               -8.29318951               33.72604148               -1.98147694
              17.31272015               10.38713040               64.62740542                0.00010000               12.20682665               -1.35357229               -9.28956779               -8.28078005               29.72530222               -0.14117793
              18.43657669                9.77522789               64.48012688                0.00010000               12.29560858               -0.53041135              -12.07293827               -8.84400155               26.35384750                1.15928984
              19.55863232                9.12894814               64.29399986                0.00010000               11.82974578                0.20835372              -13.78310130              -10.60494933               21.23313044                1.58935075
              20.67317160                8.44591424               64.03506340                0.00010000                9.28401852                0.57883696              -12.95007998              -11.69052764               12.29634739                0.63806048
              21.74431269                7.76899684               63.68445758                0.41002646                3.59316250                0.44069900               -1.97285369               -7.43783798                2.81686607               -1.84257229
              22.74503485                7.23989606               63.30676108                0.98053805                0.07221632                0.07698080               -0.29540045                0.09020110                0.79162555               -0.59934400
              12.52931524               13.80574796               65.97073818                0.90735841                0.15826155                0.07735406               -0.41977717                0.03104828                0.39103370                0.42193018
              13.53089786               13.37729281               65.54132283                1.00000000                0.17058856                0.14745290               -0.55169831                0.04817984                0.38921805               -0.01727489
              14.53272701               12.94815630               65.11250636                0.80875498                0.21282308                0.14521139               -0.62042220               -0.00769775                0.48337018               -0.22338781
              15.53515432               12.51790900               64.68565927                0.36596010                8.54138118                0.05775468               -0.44550460               -7.47054670               18.02623331               -0.18420068
              16.70355463               11.93840715               64.60991569                0.36075084               16.16727197               -3.46105432               -5.84603186               -6.22548073               33.77783505               -1.00915492
              17.85849976               11.37117042               64.50306144                0.36442507               15.29758859               -1.59599763              -10.43352627               -3.75427619               30.11122612               -0.41793468
              19.00950641               10.77176241               64.35723992                0.37718633               14.79152178               -0.34654796              -14.09457910               -4.41365902               26.29088847                0.23162254
              20.15433019               10.13703780               64.16630036                0.39931122               13.21941071                0.80896583              -16.85810341               -5.69149387               20.20574308                0.30827053
              21.27389462                9.46653678               63.89032962                0.42796346                6.00792740                2.06225468              -17.37507850               -8.12080665                7.40198897               -0.56265802
              22.27448874                8.77317563               63.46972265                0.69698255                0.16850512                0.41787888               -3.88743759               -8.24976120               -1.56171749               -3.01518336
              23.27726472                8.24118946               63.09389889                0.97727264                0.27759828                0.12933956               -2.11738397                0.02437008               -0.53002523               -1.01367349
               8.58786611                3.95222077               68.20479910                1.00000000               -0.43727444               -0.53685788                1.88551063               -0.17182757               -0.45795065                0.57660569
               9.58349336                3.50718573               67.81217562                1.00000000               -0.31327068               -0.27169777                1.01408527               -0.13516776               -0.55755784                0.07555135
              10.58160069                3.06159110               67.41688775                1.00000000               -0.06781214               -0.01427938                0.15604465               -0.13233804               -0.56125739               -0.07859042
              11.58213712                2.61499371               67.02407571                0.59747603                0.11532012                0.27263387               -0.72175135               -0.21799175               -0.38950565               -0.48197145
              12.58390709                2.16583118               66.63263702                0.47736320                0.30069728                0.60396318               -1.68306540               -0.26673765               -0.11803270               -0.26101862
              13.58815106                1.71399794               66.24594953                0.27577590                0.24413809                0.90436076               -2.68634137               -0.67987101                0.57443801               -0.60450983
              14.58878986                1.25167308               65.86982081                0.00010000              -11.82849489                1.45373757               -3.57312445              -21.47380771               14.38549681               -1.42099750
              15.35158117                0.36819667               65.76502678                0.00010000              -14.06404451                4.90524753               -5.32340883              -21.20718441               22.30545663                3.15608043
              16.30750897               -0.52451426               65.52673271                0.00010000                5.97251625                3.33515398               -4.86565286              -17.67092928               11.11422691               15.14489799
              17.47103149               -1.43614194               65.16727872                1.00000000                8.51086534                0.78325992               -2.00535436              -19.14766422                2.50735054                0.07426863
              18.47772627               -1.97070266               64.75663670                1.00000000                0.66947816                0.97066840               -2.56888064                0.10563506               -0.10785935               -0.09069831
               9.03118287                4.94685219               68.08086341                1.00000000               -0.37263488               -0.49331954                1.67615066               -0.03803121                0.02156812                0.81320555
              10.02745652                4.50446875               67.68803990                1.00000000               -0.24047740               -0.24276556                0.80456503               -0.00531629                0.08910119                0.11157699
              11.02637332                4.06144830               67.29599083                1.00000000                0.01903185                0.01152692               -0.05843259                0.00410028                0.12337486               -0.27194814
              12.02783716                3.61772005               66.90385525                0.56297137                0.26821418                0.29838482               -0.93421817               -0.05451451                0.46178741               -0.49413683
              13.03173761                3.17187081               66.51913072                0.52341860                0.52971247                0.59329562               -1.94456596               -0.07941511                0.72536654               -0.30091244
              14.03843141                2.72304154               66.13336125                0.34277419                0.76074048                0.89448622               -2.94649633               -0.37054481                0.95003619               -0.57204397
              15.04695241                2.26621045               65.75504241                0.00010000               -0.54142081                1.21616681               -3.93402641              -19.68237327               16.77008644               -0.92220686
              16.02760299                1.41724914               65.68895947                0.00010000               -0.69917178                1.44998342               -5.67426627              -28.17880344               29.08519857                8.26195766
              17.03296898                0.50883728               65.55966192                0.00010000               -1.24769697                4.66099747               -8.23647016              -30.82945649                5.45247438               17.19799807
              18.00264905               -0.42830934               65.02870132                0.13042801               -0.98128180               15.48040537               -3.24981559              -21.02418512               -5.97510414               59.15981529
              19.01334334               -0.96099598               64.61801846                1.00000000                1.06942915               16.76615941               -3.81334815               -1.69033936                0.11382807               61.22539632
               9.47187236                5.94235438               67.96073964                1.00000000               -0.30814341               -0.39392614                1.45156324               -0.04009912                0.18738747                0.96211595
              10.46879092                5.50233042               67.56428193                1.00000000               -0.17204788               -0.18821084                0.58732501               -0.00774260                0.39243613                0.02700044
              11.46843140                5.06182163               67.17144424                0.37546837                0.09166957                0.07497335               -0.27726181                0.00991914                0.85025405               -0.72957537
              12.47062432                4.62096141               66.78426729                0.00010000                0.42829484                0.43598350               -1.11675352               -0.19069795                1.57311637               -0.57343925
              13.47699730                4.17769710               66.40648471                0.00010000                0.78881072               -1.00996565               -2.16794496               -0.93407740                1.72850037                3.78210990
              14.48640053                3.73188766               66.02380653                0.00010000                1.19687482               -2.40817479               -3.14654982               -0.93654808                1.88046739                7.86682029
              15.50093479                3.27599641               65.65123241                0.00010000                2.94888703               -7.58584496               -4.09364988              -19.66720257               24.05224242               15.82107204
              16.54537827                2.39719634               65.71466618                0.00010000                1.77717650               -1.25179287               -6.69914130              -34.57267585               38.35771603               14.91416049
              17.53647832                1.56870569               65.64899979                0.00010000               -1.24986107                6.85741061               -8.06523940              -25.46235386               54.38993189               25.92336768
              18.52038105                0.87346616               66.07191921                0.07101422               -1.35927845               19.10338787              -31.90029447               -8.88434482               41.83007477               53.52662007
              19.50929275                0.36462053               65.70579431                0.55621167               -1.10882945               20.16129713              -29.44571570               -0.16719752                6.88693190               49.00697812
               9.91042881                6.93897367               67.83901792                1.00000000               -0.25943934               -0.28383195                1.22654839               -0.02208578                0.30444010                0.79727283
              10.90783441                6.50070453               67.43820416                0.53116354               -0.12440451               -0.15153799                0.37972191                0.06125537                0.53948817               -0.37543781
              11.90794072                6.06294777               67.04168052                0.00010000                0.01566622                0.08174089               -0.51346139                0.20843427                1.65464215               -1.28278925
              12.90814774                5.62643972               66.66344423                0.00010000               -0.29054566               -0.52546475               -0.81141795               -1.88177663                6.57029003                2.59550267
              13.90212980                5.15167150               66.37624046                0.00010000                0.66266951               -2.30472569               -2.61937222               -3.53714062               10.71388243                7.03049745
              14.92140113                4.67487805               66.08229928                0.00010000                4.30849434               -5.85849378               -4.02991776               -6.48942446               14.38190971               13.87972440
              15.98829969                4.11449355               65.87351354                0.00010000                6.10195349              -12.16590069               -5.54259405              -16.52441244               22.53527899               23.12602812
              17.04344020                3.39221328               65.75753189                0.00010000                2.95761920               -1.25834239               -6.93832037              -25.13395443               34.14984379               15.67293844
              18.04745207                2.64598549               65.79210735                0.00010000               -0.71964384                5.24252503               -8.67010203              -21.64406970               50.97022385               19.24272676
              19.02904732                1.95375841               65.99100771                0.57433249               -0.98807020                4.19622611               -0.34331775               -9.23030879               29.27683766                6.15669718
              20.02769067                1.44222996               65.60624710                1.00000000               -0.13566509                4.06039961               -0.19556342                0.39650713                0.16188489                5.51870385
              10.34796891                7.93667774               67.71503878                0.90402370               -0.19269768               -0.16902915                1.00606480                0.01786870                0.06750400                0.66942902
              11.34604193                7.49929966               67.30622813                0.36858833               -0.05520023               -0.13458426                0.19426262                0.15634119                0.53472266               -0.59131323
              12.34686490                7.06345645               66.90646239                0.00010000               -0.08884400               -0.05281363               -0.66863596               -0.53320003                5.91796960               -1.90563596
              13.34426505                6.61045211               66.60586340                0.00010000                0.54756267               -1.12616410               -1.81776944               -2.35315913               11.61494894                3.39593447
              14.35781616                6.13160258               66.32609317                0.00010000                2.47624693               -2.01327337               -3.24774476               -4.12380766               14.04917957                5.13166971
              15.39378999                5.61471779               66.08470819                0.00010000                4.76475767               -4.96086965               -4.74409874               -8.07995980               17.73058395                8.81707006
              16.45311131                5.03267840               65.89123630                0.00010000                5.87086272               -6.32806620               -6.12286827              -15.56266174               23.07506557               10.64713683
              17.51120724                4.37202949               65.77138383                0.00010000                4.44702464               -2.16623084               -7.00980834              -20.90590528               30.96453093               10.92746275
              18.54205180                3.67355619               65.74263048                0.00010000                1.41615800                1.27546053               -5.30816897              -21.42886941               39.00328746                7.72452417
              19.53953040                2.95739069               65.78598051                0.45942538               -0.08860032                0.40049976               -0.57644595              -10.30003784               21.34892491               -0.33081744
              20.54027979                2.44582852               65.40200474                1.00000000                0.07493924                0.41710949               -0.47242551               -0.00513750               -0.06926346                0.09994978
              10.78554234                8.93559308               67.59042508                0.88613775               -0.13598172               -0.08403139                0.77858972                0.01035146                0.02564767                0.65424387
              11.78418252                8.49801285               67.17563828                0.36211132                0.02909606               -0.08901348                0.02880254                0.14106975                0.20515801               -0.45929806
              12.78612426                8.06189150               66.76422765                0.00010000                0.43779505               -0.08452819               -0.71090366               -0.82494207                7.72085569               -1.97894637
              13.79293842                7.60391644               66.50081998                0.00010000                1.46318568               -0.23122394               -2.38900424               -2.76773813               15.38126299                0.38408516
              14.81538798                7.11140603               66.25064660                0.00010000                3.28938443               -1.46324886               -3.93119556               -5.89362774               16.79661006                2.66485741
              15.85872611                6.57566066               66.02732955                0.00010000                5.21733888               -3.10089246               -5.40165172               -9.92870867               19.25665133                4.69704988
              16.91973475                5.98793223               65.84112651                0.00010000                6.28590936               -3.63827619               -6.64829293              -14.61944167               22.66592974                6.03129620
              17.98444430                5.34888867               65.70189746                0.00010000                5.68893667               -2.21884678               -6.99931076              -18.18216956               27.05895295                5.72229715
              19.03351349                4.67149470               65.61609446                0.00010000                3.31649684               -0.54452219               -5.17276160              -19.97404271               31.95075870                3.15971804
              20.05077424                3.96176841               65.57491703                0.36780624                0.85993849                0.54073164               -0.60714334               -9.93629183               17.08306179               -1.00526314
              21.05071226                3.45057215               65.19417905                0.99077365               -0.00619808                0.48582655               -0.44955135               -0.07784274               -0.05398970               -0.46647323
              11.22333640                9.93499711               67.46615738                0.89082590               -0.07714912               -0.05183891                0.54198211                0.01263675                0.00948419                0.65133403
              12.22256491                9.49751939               67.04596506                0.40222662                0.05630346                0.00119614               -0.12780682                0.15758153                0.00883467               -0.36208713
              13.22446247                9.06176589               66.62561094                0.00010000                0.84154179                0.09130621               -0.70715673               -0.77394906                8.46636254               -1.54682063
              14.23939575                8.60582763               66.37521582                0.00010000                2.18684544                0.83715625               -2.79700951               -3.75014109               17.30354888               -2.36700081
              15.26819938                8.10233760               66.14016532                0.00010000                3.96469352               -0.45981231               -4.44287062               -7.76072705               18.74412923               -0.20144879
              16.31868962                7.55269994               65.93214454                0.00010000                5.96475405               -1.78641515               -6.08239053              -11.20938815               20.56277057                2.15861258
              17.38749446                6.95991288               65.74772517                0.00010000                7.26558796               -2.35675850               -7.35083456              -14.29365248               22.18297981                3.49990612
              18.46400138                6.32765255               65.58847444                0.00010000                7.10983722               -1.98384370               -7.64802342              -16.58314824               24.09100880                3.43745414
              19.52969121                5.66266575               65.45733382                0.00010000                4.88628692               -0.97337944               -5.60640193              -18.08185488               26.45203285                1.69870557
              20.56172712                4.96820532               65.35115333                0.35969912                1.57121209                0.71852016               -0.61618342               -9.10734030               13.75072391               -1.16492739
              21.56111545                4.45554505               64.97366063                0.97273278               -0.06116673                0.37082979               -0.30059024               -0.04019529               -0.00842592               -0.76845084
              11.66075052               10.93455631               67.34188884                0.89466743               -0.01851432               -0.04333543                0.30954949                0.02429405               -0.00065042                0.61531335
              12.66056538               10.49803677               66.91691505                0.47692074                0.07932580                0.09407361               -0.26697826                0.19518243               -0.08163171               -0.28146467
              13.66233704               10.06371762               66.49021160                0.08690534                0.83992546                0.23755811               -0.67028174               -0.13438239                6.93716028               -1.17033163
              14.67736389                9.62065956               66.20573605                0.00010000                2.54820472                1.57637672               -2.09958913               -4.87345483               17.28390910               -8.44108460
              15.71330113                9.10220979               65.99739532                0.00010000                4.97995959               -0.00353712               -4.62603594               -9.53140024               21.64376302               -2.33244691
              16.77696308                8.53993235               65.81147451                0.00010000                7.28039788               -1.09664699               -6.79197966              -11.90342721               22.44760150                0.56424503
              17.85890909                7.94079706               65.63030929                0.00010000                8.65326931               -1.65275631               -8.31325922              -13.76762750               22.24288594                2.25487843
              18.95002846                7.30921179               65.45505729                0.00010000                8.62072667               -1.69892232               -8.66493352              -15.23657105               22.02448895                2.66817680
              20.03132362                6.65202712               65.28586731                0.00010000                6.28598327               -1.14814406               -6.32876854              -16.01309039               21.85070943                1.55965119
              21.07574813                5.97613881               65.12271076                0.41677448                2.19526344                0.67017633               -0.50688253               -7.99026732               10.75392884               -0.70094130
              22.07522889                5.45798875               64.74692862                1.00000000               -0.05192391                0.12655323               -0.04228252               -0.07950658                0.09845735               -0.49993706
              12.09686135               11.93413040               67.21766156                0.89964286                0.04458957               -0.03032193                0.08923602                0.03204792               -0.02834048                0.55189611
              13.09730725               11.49940086               66.78849888                0.61057635                0.11453422                0.14928153               -0.37706083                0.18373793               -0.08203315               -0.16474607
              14.09915204               11.06651705               66.35818796                0.20530925                0.30636185                0.24635916               -0.60028750                0.45404342                1.06830041               -0.73305318
              15.10343448               10.63735517               65.95171307                0.00010000                2.95732755                0.82372341                0.45697206               -5.32269880               16.77908387               -7.73859536
              16.15829859               10.10226686               65.84088969                0.00010000                6.92996594               -0.32983163               -4.47479048              -10.05948497               28.25364464               -3.01990480
              17.24203380                9.53076700               65.67690180                0.00010000                9.22819426               -1.15438022               -7.53647020              -10.87230241               24.49277726               -0.23491540
              18.34286247                8.92685775               65.50073143                0.00010000               10.30030499               -1.20600256               -9.46597999              -11.93461923               22.63504561                1.56044133
              19.44803990                8.29367411               65.31323833                0.00010000                9.98199553               -1.19707108               -9.94457458              -13.12144571               20.52210659                2.32796950
              20.54250238                7.63970287               65.11152078                0.00010000                7.39601167               -1.22262029               -7.22398325              -13.69198646               17.99913462                1.73130620
              21.59596014                6.98160885               64.89963807                0.50282183                2.66615295                0.39838860               -0.37228056               -6.81752405                8.26076040               -0.31773874
              22.59582544                6.45807611               64.52510182                1.00000000               -0.01346943               -0.01503884                0.08589722               -0.05431792                0.13705817               -0.10149892
              12.53085056               12.93394987               67.09302743                0.83339464                0.10029262                0.01411964               -0.12484061                0.00545495                0.06764641                0.42521762
              13.53185349               12.50102240               66.66160922                0.74542671                0.13065183                0.16804839               -0.47693971                0.08385833                0.09894410               -0.02253488
              14.53346360               12.06864480               66.23094254                0.38617611                0.16533053                0.19787396               -0.54248925                0.15476196                0.31574308               -0.30012748
              15.53516010               11.63713403               65.80374015                0.00010000                4.26180018                0.00372220               -0.05167389               -5.44038207               15.82872498               -1.44995253
              16.61869960               11.09561316               65.68771681                0.00010000                9.98830217               -2.17653640               -4.34229013               -7.42048366               29.35225383               -2.07663324
              17.73492614               10.51684475               65.53908774                0.00010000               11.93049967               -1.67744847               -8.29827513               -7.09365262               25.85228535               -0.36717200
              18.85730959                9.91667701               65.36493551                0.00010000               11.99141461               -0.96570052              -10.78104915               -7.38543068               22.59291405                0.90233522
              19.97475443                9.28527037               65.16708849                0.00010000               10.61197787               -0.39761107              -11.56066543               -8.64682999               18.89161055                1.54966357
              21.06954915                8.62757471               64.93753708                0.00010000                7.31349838               -0.17712029               -8.46518391               -9.33117321               14.34727711                1.56920874
              22.12102440                7.98410658               64.67983697                0.55244336                2.58294218                0.19123847               -0.32484678               -5.88709822                5.90894014               -0.21930695
              23.12120800                7.45768797               64.30685437                1.00000000                0.01835947               -0.01462401                0.01493821                0.00611911                0.11940462                0.06083919
              12.96282538               13.93441279               66.96696347                0.90792990                0.14640992                0.04629281               -0.31572799                0.03238499                0.36648483                0.32137564
              13.96428948               13.50276183               66.53573726                0.94440612                0.16551347                0.17394256               -0.65029307                0.04668564                0.45682723                0.07556093
              14.96613565               13.07047453               66.10641926                0.72658024                0.16845064                0.18297261               -0.68785945                0.00059405                0.80446478               -0.09145185
              15.96765849               12.63742961               65.68195124                0.36572559                8.20212739                0.02955810               -0.21844893               -7.33708062               15.79123714               -0.14132906
              17.13017819               12.05873613               65.55712200                0.36074105               15.57192033               -3.68770217               -4.70692317               -5.86271985               28.65806330               -1.22566833
              18.27909690               11.49721803               65.40462825                0.36433819               14.82750194               -1.96267210               -9.15980514               -3.14254426               24.87527402               -0.36231941
              19.42672823               10.90754374               65.22401204                0.37631392               14.25543528               -0.91332697              -12.28991336               -3.63294329               20.92320065                0.30004744
              20.56420560               10.28572188               65.01270294                0.39731954               11.51572366                0.04515116              -13.67541819               -4.62404715               16.18663510                0.62503575
              21.65704271                9.63616046               64.76096698                0.42588903                4.19496530                0.85857509              -10.77808821               -6.26505801                9.88911284                0.62305584
              22.64810491                8.98543361               64.46153972                0.76831958               -0.41288310                0.13270314               -0.53428572               -6.21079072                3.67472995               -0.30890376
              23.64878504                8.45778363               64.08937536                1.00000000                0.06801370                0.00956605               -0.27959220               -0.00729329               -0.08038947                0.02624165
               8.98037947                4.08286924               69.22284996                1.00000000               -0.40359112               -0.49092206                1.72385821               -0.15290021               -0.43732103                0.55694704
               9.97634355                3.63309985               68.82199197                1.00000000               -0.29389046               -0.25458011                0.94941771               -0.11935863               -0.53047837                0.07082395
              10.97450166                3.18280024               68.41859846                1.00000000               -0.07612368               -0.02539906                0.18710015               -0.11750936               -0.53803110               -0.07384132
              11.97482108                2.73156357               68.01749672                0.60023484                0.08600711                0.22752746               -0.59239084               -0.19710388               -0.41348911               -0.46141106
              12.97622180                2.27795784               67.61703823                0.47284121                0.24512898                0.51971239               -1.43399379               -0.24724308               -0.20438124               -0.27527096
              13.97972366                1.82184036               67.22088469                0.25715245                0.05407443                0.78293981               -2.32118460               -0.76546924                0.52298467               -0.60115818
              14.97730329                1.35344084               66.83644729                0.00010000              -11.51868779                1.41423595               -3.09322133              -20.93832009               13.84423922               -1.54746273
              15.74934990                0.47538305               66.71327496                0.00010000              -12.71978957                5.02877771               -4.88919690              -20.76545947               22.70329547                3.18102055
              16.72290750               -0.40466351               66.48066308                0.00010000                6.73671754                2.21994463               -4.41216798              -18.95274242               13.46606023               11.45997363
              17.88408426               -1.29080231               66.14808305                1.00000000                8.36220339                0.78200401               -1.83040313              -17.87061901                4.14639553                0.05327121
              18.89015156               -1.82684395               65.73180253                1.00000000                0.60673081                0.96786242               -2.38946487                0.17738684               -0.09749090               -0.08900553
               9.42861985                5.07796002               69.09690387                1.00000000               -0.34353819               -0.45207187                1.53124657               -0.03312058                0.02797143                0.78566440
              10.42518447                4.63055405               68.69584549                1.00000000               -0.22625734               -0.22811233                0.75680204               -0.00328039                0.09972929                0.10341813
              11.42409470                4.18254625               68.29563751                1.00000000                0.00433873               -0.00093036               -0.01106106                0.00214685                0.13106416               -0.26858516
              12.42527124                3.73383885               67.89522877                0.58463153                0.22581357                0.24957099               -0.78726020               -0.05266133                0.40111253               -0.46148662
              13.42861097                3.28315496               67.50101293                0.53709477                0.45281123                0.51056872               -1.67534555               -0.07814657                0.60515163               -0.29880226
              14.43432747                2.82966976               67.10580990                0.34178043                0.62688830                0.77551302               -2.55830356               -0.40893953                0.83277600               -0.54590398
              15.44114874                2.36758320               66.71811621                0.00010000               -0.67899919                1.14172247               -3.44594146              -19.05169262               16.19191004               -0.92440013
              16.42074748                1.52567083               66.63353869                0.00010000               -1.23379954                1.71707235               -5.48074359              -28.34373542               27.32376549                7.27025525
              17.41647275                0.61753594               66.46848945                0.00010000               -0.21395972                6.34828755               -9.46081458              -30.90003919                8.13370979               17.28313787
              18.41646829               -0.28298227               65.99521332                0.08609048                0.57471656                7.00648618               -3.45360745              -20.61914782               -2.81475374               34.13108534
              19.42796708               -0.81716533               65.57888400                1.00000000                1.14987917                2.32933382               -4.01120185                2.13145261                0.10118766               38.04241307
               9.87452899                6.07382780               68.97461756                1.00000000               -0.28372714               -0.36383711                1.32410849               -0.03484586                0.18752086                0.92386374
              10.87169172                5.62853761               68.57000858                1.00000000               -0.16345947               -0.17767422                0.55829484               -0.00546656                0.39264962                0.01978183
              11.87125980                5.18278163               68.16899776                0.00010000                0.07337123                0.05979597               -0.21109262               -0.00170829                0.86125418               -0.73275399
              12.87315914                4.73655499               67.77387324                0.00010000                0.37840794                0.49154308               -0.96294705               -0.70603590                1.50124832               -0.09997994
              13.87882796                4.28816921               67.38621112                0.00010000                0.69787458               -1.03876548               -1.88096329               -1.28001619                1.58659860                3.65024226
              14.88711663                3.83735062               66.99429393                0.00010000                1.07202035               -2.27368282               -2.75059646               -1.35700554                1.77832932                7.51023536
              15.90026836                3.37627529               66.61272446                0.00010000                2.27029120               -7.06262955               -3.60890111              -19.59287668               22.70574296               15.11263623
              16.93252246                2.50972450               66.64210477                0.00010000                0.66457205               -0.26424503               -7.02523495              -32.47307070               37.82022703               13.80498302
              17.91355981                1.72230224               66.58600626                0.00010000               -1.30599440                8.43086895               -9.71799381              -31.53245041               33.57780791               23.74120026
              18.90640257                0.84932742               66.52387595                0.00010000                4.37934699               22.25051668              -45.92751367              -25.27899743               20.82674984               62.06800697
              20.00114675                0.21974272               66.18865190                0.27630302                9.47441764               23.52585139              -46.21290925              -13.60647644                8.98746129               61.81368714
              10.31850332                7.07068328               68.85073062                1.00000000               -0.23820175               -0.26684063                1.11722715               -0.02132527                0.30154452                0.75440834
              11.31612131                6.62700057               68.44194426                0.51989275               -0.12300862               -0.14094101                0.36776924                0.05324337                0.51787305               -0.36800449
              12.31604315                6.18374217               68.03702342                0.00010000               -0.51791810                0.08091175               -0.41628532                0.28066073                2.09275408               -1.25024371
              13.30576294                5.74366971               67.65991891                0.00010000               -0.69140639               -0.55716569                0.26462490               -1.99807026                6.20795439                1.53145250
              14.30221502                5.26237965               67.35079671                0.00010000                0.66591677               -2.12069263               -2.49322246               -3.84482232                9.66936026                6.70820483
              15.31908128                4.78419610               67.04268219                0.00010000                3.73511523               -5.32182332               -3.77453677               -6.67420944               13.42743333               13.13017282
              16.37691733                4.22633061               66.81740468                0.00010000                5.30889175              -11.01103810               -5.52615539              -16.22674524               21.10731467               21.96000432
              17.42525912                3.52038593               66.68330827                0.00010000                3.46517462               -0.04210433               -7.94848281              -23.98632521               31.66565061               14.97650182
              18.44622082                2.78615332               66.68809658                0.00010000               -0.59056261                5.82934864              -12.43689192              -17.50219310               53.61628199               18.35841832
              19.41344786                2.16202807               66.98678529                0.40859614               -1.56069385               15.76463996               -1.37804918               -5.83362459               34.10070401               33.04348002
              20.41500694                1.65335170               66.60373483                1.00000000                0.15590813               21.78552052               -0.86155915               -4.76441712                0.47853362               31.15504856
              10.76146790                8.06849099               68.72463978                0.90467323               -0.17702085               -0.16901813                0.91769886                0.01106041                0.06104252                0.61677418
              11.75969769                7.62571879               68.30817740                0.36357184               -0.06320143               -0.11882480                0.19268883                0.14096955                0.51306378               -0.56137737
              12.76020387                7.18439987               67.90043491                0.00010000               -0.25687203                0.00321891               -0.54895896               -0.59323883                5.74427448               -1.76216613
              13.75456025                6.72541168               67.58925622                0.00010000                0.06006235               -1.03252773               -1.67447511               -1.88450918               11.02965858                2.37896865
              14.76140512                6.24575536               67.29459432                0.00010000                1.75606183               -1.58388768               -2.96211717               -3.72127944               13.06342327                4.49053433
              15.78968149                5.73091415               67.03758166                0.00010000                3.90692569               -4.25076583               -4.55977516               -7.61212936               16.54705653                8.17587845
              16.83954363                5.15605453               66.82826727                0.00010000                5.16458771               -5.27709827               -6.24226981              -14.59576970               21.59177077               10.01851131
              17.89297324                4.50888241               66.69509483                0.00010000                4.11650845               -1.06819238               -8.29183758              -18.96966594               30.26619985               10.65388187
              18.92187380                3.83888922               66.68242898                0.00010000                1.47792275                3.06464925               -7.84700319              -18.83415080               41.72855353                9.52685134
              19.92253170                3.16462022               66.78047041                0.34217470                0.06686707                0.44511188               -0.72416767               -8.26980736               23.91044774               -0.33533613
              20.92321114                2.65545313               66.39770216                0.98020373                0.06794460                0.42806401               -0.46282601               -0.14746903               -0.10818640                0.16948210
              11.20426894                9.06730291               68.59786318                0.89086385               -0.12371193               -0.10411862                0.71624902                0.00129185                0.02060026                0.58423224
              12.20303182                8.62462407               68.17598246                0.35425257                0.01082722               -0.07017541                0.03363296                0.14900150                0.21902810               -0.41554840
              13.20448548                8.18380655               67.75781068                0.00010000                0.18427244               -0.00098495               -0.60230061               -0.69863959                7.26297607               -1.78527752
              14.20671727                7.72301915               67.47770740                0.00010000                0.89007389                0.10981382               -2.16058335               -2.48728913               14.43422007               -0.18229085
              15.22228696                7.23070190               67.21228487                0.00010000                2.49111286               -1.00441048               -3.63072941               -5.27781323               15.79765032                2.00468415
              16.25653953                6.69918078               66.97384446                0.00010000                4.23733577               -2.42791813               -5.14522979               -8.94997349               18.03374237                4.01612160
              17.30703368                6.12078864               66.77348851                0.00010000                5.32457904               -2.72082314               -6.70172938              -13.09094138               21.33204582                5.50087790
              18.36303111                5.49902208               66.62702997                0.00010000                5.33831612               -1.04252833               -7.94923579              -16.13571776               26.52550044                5.53157500
              19.41380000                4.84744630               66.55785956                0.00010000                3.42283467                0.43159461               -7.50273295              -17.06905208               34.04474462                3.15795595
              20.43148780                4.17093031               66.56832441                0.26856312                0.82958669                0.98033997               -1.06554227               -8.44949270               19.41622188               -0.89917560
              21.43039173                3.66191298               66.18966908                0.88855652               -0.10960674                0.88777396               -0.58738228               -0.20531605                0.01752551               -0.25864380
              11.64685142               10.06640862               68.47139747                0.89757427               -0.06773329               -0.08872026                0.51676678               -0.00244604                0.00178498                0.57561725
              12.64617409                9.62431528               68.04475276                0.38459288                0.04922877                0.01571682               -0.12611332                0.16197401                0.05565255               -0.31634129
              13.64783600                9.18438017               67.61898393                0.00010000                0.58725135                0.13864702               -0.65300158               -0.55396576                7.82536410               -1.37539979
              14.65791912                8.72760796               67.34813530                0.00010000                1.59256134                1.01731328               -2.41106880               -3.09778996               16.11840079               -2.25027321
              15.67968723                8.22566715               67.09778166                0.00010000                3.13380790               -0.16278689               -3.95899861               -6.86011452               17.67820686               -0.76941089
              16.72059528                7.68235579               66.87269112                0.00010000                4.90981427               -1.28102569               -5.64324358               -9.79913304               19.18855864                1.45156614
              17.77788351                7.10163806               66.67451625                0.00010000                6.15029764               -1.58524002               -7.15277273              -12.32510013               20.73585665                2.87295318
              18.84360123                6.48803184               66.50931313                0.00010000                6.53505119               -1.06899657               -8.08957251              -14.17219991               23.44996740                3.09092804
              19.90858453                5.84752111               66.39652763                0.00010000                4.77369708               -0.12509519               -7.66088138              -15.39202587               28.17876734                1.79596018
              20.93907517                5.18422702               66.34364137                0.27208622                1.42774720                1.24476243               -1.35798615               -7.80048995               15.97941053               -0.94357665
              21.93713948                4.67320861               65.96998458                0.88717804               -0.19356908                0.81492053               -0.59476087               -0.14120328                0.09322381               -0.44514185
              12.08840670               11.06552851               68.34502835                0.90310378               -0.01069481               -0.08706107                0.32880816               -0.00570637               -0.00986274                0.55284984
              13.08829975               10.62493841               67.91424471                0.43819434                0.08533974                0.09938612               -0.28523142                0.16428807                0.00280779               -0.23577036
              14.09011349               10.18657949               67.48355234                0.00010000                0.75873694                0.25961935               -0.70109568                0.05202005                7.04283887               -1.01988636
              15.10347449                9.74336542               67.19348879                0.00010000                2.01116720                1.67118008               -1.31969326               -4.32248485               16.50826265               -7.48831151
              16.13033684                9.22744616               66.95435245                0.00010000                4.05557318               -0.00014120               -3.77951808               -8.51954211               19.84778590               -2.65664309
              17.18458595                8.67356027               66.74632452                0.00010000                6.22593921               -0.82127295               -6.09499370              -10.13091206               20.66594792               -0.11503505
              18.25485562                8.08908384               66.54938611                0.00010000                7.45590563               -1.13424123               -7.73435385              -11.46165345               20.52211594                1.59377954
              19.33370406                7.47764215               66.36962661                0.00010000                7.74543447               -1.03164652               -8.52443010              -12.54861823               21.31541939                2.44313147
              20.40976431                6.84494440               66.22292822                0.00010000                5.80432174               -0.48023555               -7.44678363              -13.45321514               24.05663537                1.94409989
              21.44979050                6.19582555               66.11761901                0.33395373                1.99200837                0.83268206               -0.80817350               -6.84733442               13.22236384               -0.40938455
              22.44960448                5.67821139               65.74611577                0.94661011               -0.01860218                0.22427489               -0.19995611               -0.16475041                0.08828711               -0.27032962
              12.52791750               12.06466740               68.21884603                0.90792793                0.04913760               -0.06758257                0.15432657               -0.01982619               -0.01762936                0.51269596
              13.52840887               11.62630300               67.78450925                0.53227512                0.12659453                0.15953995               -0.44733155                0.11447051                0.05953025               -0.12750646
              14.53044939               11.18957256               67.35162327                0.00010000                0.10969361                0.29454232               -0.75745840                0.59555362                2.49436621               -0.58266254
              15.53060275               10.76103156               66.96564417                0.00010000                2.43260723                0.73644060                3.43537222               -5.12986383               16.89972304               -8.61247920
              16.57910153               10.22566433               66.80141765                0.00010000                6.28683033               -0.60967195               -3.63227850               -9.06502114               24.95360430               -3.15221381
              17.65633935                9.66593033               66.60576334                0.00010000                8.27335157               -1.07498844               -6.50026610               -8.93749455               22.02981744               -0.79981227
              18.74456856                9.07895324               66.41061198                0.00010000                9.02144770               -0.95449272               -8.43357260               -9.64764117               20.51518324                1.06287073
              19.83676831                8.46739891               66.21996512                0.00010000                8.83841306               -0.85826747               -9.12043704              -10.54389703               19.80436132                2.27150815
              20.92133683                7.83791640               66.04611502                0.00010000                6.60465928               -0.85460920               -7.09199642              -11.44569512               20.99748372                2.24744005
              21.96886149                7.20088066               65.89688840                0.43337849                2.38679882                0.34417451               -0.36427063               -5.84192948               11.05223368               -0.04189878
              22.96907280                6.67769411               65.52564796                1.00000000                0.02113098               -0.06860415                0.02409540               -0.12947127                0.01894626               -0.01478923
              12.96473896               13.06417686               68.09232148                0.83705432                0.09450355               -0.01820009               -0.01222187               -0.04577169                0.10876180                0.40314228
              13.96568400               12.62812921               67.65616946                0.59209454                0.12785221                0.21224783               -0.64858729                0.02316040                0.33896537               -0.00948338
              14.96729601               12.19247033               67.22459017                0.00010000               -0.04492796                0.29006304               -0.81112940                0.10589811                1.16857081               -0.18914862
              15.96478544               11.75809423               66.80477718                0.00010000                3.84208152               -0.11856567                3.40953826               -5.37720158               17.00841236               -3.99968628
              17.04413764               11.21525272               66.65035877                0.00010000                9.38808534               -2.52904587               -3.41787562               -6.55481904               26.66434684               -2.57071274
              18.15254715               10.65206050               66.46143992                0.00010000               10.81482878               -1.65436627               -6.97244017               -5.62414443               22.49956913               -0.60589206
              19.26043421               10.06999399               66.26450590                0.00010000               10.56579090               -0.96714621               -9.21822771               -5.81282690               19.86331810                0.63852133
              20.36386297                9.46047680               66.06278656                0.00010000                9.34672246               -0.45446497               -9.90964694               -6.89010652               18.05585363                1.63120496
              21.44736866                8.82785222               65.86575973                0.00010000                6.46556164               -0.28891503               -7.21455525               -7.81322425               18.00464544                1.90527223
              22.49317420                8.20270904               65.67796065                0.51453853                2.30097423                0.13556961               -0.20931136               -5.01497236                9.13973681                0.03044866
              23.49338815                7.67683931               65.30705985                1.00000000                0.02139500               -0.05109016                0.02078339               -0.04133120               -0.00035556                0.05901343
              13.39909737               14.06430339               67.96442362                0.90876229                0.14812410                0.01265365               -0.17855605                0.06029637                0.37620514                0.30338072
              14.40057861               13.63054796               67.52831697                0.83577985                0.17524805                0.24187499               -0.88738053                0.04298174                0.70825716                0.08266192
              15.40260233               13.19537382               67.09874917                0.61805043               -0.01511403                0.29034830               -0.94668445               -0.06375395                1.66475768               -0.00206197
              16.40027633               12.75866024               66.68129029                0.36551874                7.57182783                0.05660113                3.43146958               -7.46543187               19.29844927               -4.28508476
              17.55403888               12.17508341               66.51577722                0.36077795               14.44194363               -4.01693133               -3.78943851               -5.30073749               25.38340439               -0.95574778
              18.68911520               11.63284301               66.31986534                0.36418635               13.29284234               -1.92174956               -7.51550498               -2.11684961               20.69548165               -0.31110409
              19.81989573               11.05961032               66.11144165                0.37552934               12.59963757               -1.03836728              -10.11322114               -2.78051807               17.27756482                0.39091943
              20.94110795               10.45830961               65.89279200                0.39524055               10.14721826               -0.21671838              -11.05410743               -3.64911251               14.81389834                0.93946579
              22.02284009                9.83213810               65.67476785                0.42361913                3.92335028                0.42858819               -8.29336506               -5.18873513               14.49994252                1.23453154
              23.01957496                9.20359205               65.45903693                0.75990176               -0.14272193                0.08830055               -0.25711685               -5.13321386                7.74810229                0.02509295
              24.01998566                8.67667231               65.08830705                1.00000000                0.04107007               -0.01669991               -0.09001894               -0.03222360               -0.00482463                0.04233565
               9.38083565                4.21525188               70.23927627                1.00000000               -0.37003620               -0.44540035                1.56162310               -0.13332953               -0.41953990                0.53884609
              10.37713529                3.76089518               69.83116397                1.00000000               -0.27501616               -0.23746645                0.88538542               -0.10256857               -0.50717983                0.06662064
              11.37533533                3.30603616               69.42062975                1.00000000               -0.08538617               -0.03588605                0.21938822               -0.10208946               -0.51750092               -0.06981089
              12.37542757                2.85030139               69.01222790                0.60400974                0.05480836                0.18124089               -0.46093509               -0.17734645               -0.42732298               -0.43910705
              13.37643150                2.39237637               68.60395714                0.46942945                0.18870688                0.43455046               -1.18415379               -0.22605108               -0.26884486               -0.28657324
              14.37920170                1.93212435               68.19952584                0.23911088               -0.15735627                0.65898751               -1.95262943               -0.87132568                0.49482060               -0.59292719
              15.37328437                1.45738598               67.80795639                0.00010000              -10.88852110                1.40593008               -2.60127928              -20.06399025               13.31883457               -1.67930295
              16.16143128                0.59128963               67.66724284                0.00010000              -11.56311456                4.25348066               -4.19354073              -20.19029745               23.13638039                3.14135268
              17.14202208               -0.27096753               67.43848935                0.00010000                7.06943335                2.01243830               -3.91755938              -16.83668704               15.82220284                7.33588529
              18.30281995               -1.12933705               67.13067066                1.00000000                8.31577071                0.78565115               -1.65905395              -16.46996040                5.67765082                0.02809530
              19.30833749               -1.66664570               66.70884740                1.00000000                0.55175445                0.96486154               -2.20261580                0.23795905               -0.09366391               -0.09237078
               9.83385906                5.21079788               70.11148834                1.00000000               -0.31415978               -0.41234885                1.38571881               -0.02748225                0.03211858                0.76015122
              10.83071746                4.75852051               69.70317594                1.00000000               -0.21238664               -0.21339435                0.70956531                0.00039256                0.10684840                0.09640703
              11.82961133                4.30567730               69.29576961                1.00000000               -0.01167334               -0.01277556                0.03793529                0.00248907                0.13819579               -0.26491957
              12.83048400                3.85211380               68.88811005                0.60859385                0.18240875                0.19851397               -0.63666255               -0.04735367                0.35392748               -0.43326070
              13.83325950                3.39672188               68.48562381                0.55216629                0.37498245                0.42708901               -1.40290400               -0.07612448                0.50801099               -0.29167595
              14.83798365                2.93871423               68.08219518                0.34050863                0.49011635                0.65478623               -2.16629479               -0.45122616                0.73106335               -0.51969409
              15.84306183                2.47144528               67.68612358                0.00010000               -0.71392931                1.07873464               -2.95372084              -18.54676784               15.39100613               -0.93874820
              16.82370506                1.63382443               67.57934460                0.00010000               -0.45466425                1.61183945               -5.23910608              -27.76093477               25.06378433                6.56308595
              17.83396855                0.74915686               67.37044563                0.00010000                0.61271859                4.74450469               -9.23153243              -28.55318702               10.36655919               13.90266821
              18.83595943               -0.12148053               66.95962917                0.07498524                0.70285954               12.62956870               -3.65927229              -18.73517401                0.57711547               18.28408631
              19.84802574               -0.65699708               66.53779442                1.00000000                1.20663051               12.13445684               -4.19833664               -0.99402545                0.09732961               20.65885223
              10.28484074                6.20700490               69.98722181                1.00000000               -0.25770218               -0.33791311                1.19721203               -0.02909321                0.18631064                0.89024337
              11.28226372                5.75662729               69.57544783                1.00000000               -0.15244564               -0.16724466                0.52936239               -0.00213195                0.38955464                0.01316752
              12.28179182                5.30578065               69.16722238                0.00010000                0.05861003                0.04142202               -0.14279841               -0.00729020                0.86267863               -0.72890185
              13.28343592                4.85427167               68.76500835                0.00010000                0.32583758               -0.52140052               -0.80328927               -0.84064823                1.43852248                0.90570803
              14.28830858                4.40091815               68.36886544                0.00010000                0.60089322               -0.96347401               -1.58903258               -1.47786866                1.46925511                3.41852796
              15.29545378                3.94522008               67.96879460                0.00010000                0.94651151               -2.22602242               -2.34939029               -1.82996492                1.67678377                7.13065778
              16.30723881                3.47896067               67.57905438                0.00010000                1.65236133               -6.66472245               -3.12068099              -19.74677899               21.30326949               14.23066217
              17.32850101                2.62352642               67.57416148                0.00010000                0.95122500                0.24644175               -7.03453710              -33.63409269               33.91028782               12.10111009
              18.32626331                1.82392257               67.45463991                0.00010000                0.28847004                8.37871429              -12.22034942              -25.89699725               20.35477836               20.13090528
              19.33427041                1.12325433               67.15336894                0.00010000                1.66133871               23.97570437              -39.92954950              -14.42077036                9.70736769               62.68478386
              20.35949008                0.57604344               66.78153612                0.06877977                2.52196724               25.66388775              -46.78990892               -6.95426211                3.15585510               68.86505466
              10.73403243                7.20403961               69.86136246                1.00000000               -0.21333492               -0.25621219                1.01026251               -0.02271135                0.29801348                0.72277902
              11.73189908                6.75517562               69.44555954                0.50187088               -0.11056398               -0.12966935                0.35409593                0.03552415                0.50203028               -0.36557406
              12.73182115                6.30650574               69.03335481                0.00010000               -0.66827738                0.08226065               -0.31415848               -0.73050405                3.05444687               -1.21620895
              13.71853353                5.84168579               68.66873673                0.00010000               -0.95337123               -0.70143397                0.17948477               -2.08952262                6.35017254                1.33962149
              14.71275372                5.37745240               68.32637601                0.00010000                0.24041508               -2.04965206               -2.12920972               -3.25207004                8.42955538                6.35607921
              15.72334183                4.89419378               68.00680855                0.00010000                2.85330945               -4.90734931               -3.34498785               -7.18485889               12.73596880               12.31549368
              16.76981991                4.33815083               67.76299043                0.00010000                4.13597387              -10.09979377               -5.17995270              -16.76228822               19.44059196               20.49948449
              17.80606131                3.63875327               67.59856223                0.00010000                2.32403889                0.89295032               -8.24989450              -24.37755814               27.46964174               13.22375781
              18.81630069                2.91673114               67.54336951                0.00010000               -0.53190774                8.52038367              -15.91667829              -15.78678663               54.11464611               18.40739889
              19.79542315                2.35803355               67.96344672                0.20698976               -0.64692078               12.29452583              -12.27429835               -4.61273526               39.42782549               44.14715865
              20.80336227                1.85628067               67.58901591                0.79677853                0.79391196               14.36202338               -7.32637570               -2.96716400                2.47202006               46.33348382
              11.18211450                8.20188066               69.73339275                0.90706554               -0.16064319               -0.17597906                0.83377677               -0.00050791                0.05185360                0.58742212
              12.18050807                7.75403390               69.31008191                0.34610705               -0.07214637               -0.10245479                0.18708741                0.11308570                0.50388737               -0.54581160
              13.18067158                7.30742586               68.89548321                0.00010000               -0.49046318                0.05655921               -0.45209034               -0.79766083                5.48248035               -1.66644415
              14.17069881                6.84024299               68.57237390                0.00010000               -0.49561962               -0.01471259               -1.52294208               -1.94428202               10.57707846                1.16453468
              15.17075918                6.35992511               68.26685083                0.00010000                1.01796821               -1.45700101               -2.60451346               -3.53598461               12.50440908                4.07259514
              16.19105817                5.84707309               67.99351268                0.00010000                2.83371842               -3.66600759               -4.13592493               -7.40524135               15.63157916                7.45001526
              17.22743355                5.27696479               67.76639090                0.00010000                3.56556794               -4.32250079               -5.98899819              -14.11587090               19.92976190                9.16187159
              18.26236953                4.64138542               67.60554708                0.00010000                3.19068687                0.32742982               -8.76589424              -17.90562999               28.27598143               10.08669938
              19.29124729                3.99433024               67.58569042                0.00010000                2.00483214                5.19120134              -12.75228252              -15.77136643               43.55213746               10.82739794
              20.30246617                3.36914484               67.77149716                0.17229541                0.62026364                1.12901915               -4.37232754               -5.95901687               26.96458347               -1.99297149
              21.30365256                2.86328391               67.39274822                0.79473086                0.11863884                0.84180953               -1.81179351               -0.33553602               -0.39466967               -1.55030135
              11.62971578                9.20052003               69.60475006                0.89607028               -0.11001968               -0.12681850                0.66242895               -0.01200014                0.01462836                0.55912294
              12.62861559                8.75312652               69.17631094                0.33173926               -0.00284695               -0.05517942                0.02979171                0.13501637                0.24381532               -0.39856711
              13.62965884                8.30763693               68.75218164                0.00010000               -0.07334731                0.05451854               -0.54074890               -0.74096758                6.90033529               -1.69536585
              14.62714864                7.84139153               68.45760831                0.00010000                0.27725419                0.23988979               -1.83459830               -2.35286627               13.68999787               -0.41954539
              15.63520393                7.34831238               68.17803201                0.00010000                1.55243408               -0.75216524               -3.16527908               -4.70346927               15.04884851                1.43519496
              16.65819732                6.82087363               67.92442496                0.00010000                2.89931162               -1.89109443               -4.65106974               -8.09717637               17.10021080                3.34679206
              17.69319016                6.25170081               67.70709193                0.00010000                3.61929703               -1.77452268               -6.40695890              -11.87078659               20.02562049                4.77606903
              18.73058326                5.64530186               67.54291275                0.00010000                3.99618888                0.27445253               -8.47591184              -14.12629179               24.99296331                5.32243368
              19.77311394                5.02055517               67.46603980                0.00010000                3.83529443                1.95930230              -10.78420036              -14.84984517               35.54665596                2.71046490
              20.80728915                4.38061394               67.55360619                0.11437751                1.76297457                1.54471699               -7.64592535               -7.10230494               21.98152151               -0.75636294
              21.80837343                3.87311686               67.18243141                0.72290142                0.10842783                1.34558075               -3.53698741               -0.41765990                1.48713763               -0.98595242
              12.07666152               10.19934429               69.47649272                0.90649937               -0.05700164               -0.11776459                0.49886004               -0.02115994               -0.00505831                0.56992599
              13.07609151                9.75293031               69.04344279                0.35155113                0.04628452                0.02191783               -0.13767595                0.13269509                0.11327371               -0.31344632
              14.07758721                9.30851623               68.61255091                0.00010000                0.34372625                0.15218150               -0.65070806               -0.67993177                7.47168969               -1.33164154
              15.08296603                8.84504078               68.32699444                0.00010000                0.98102468                0.59964646               -1.91165203               -2.70270173               15.26888268               -2.18606174
              16.09720771                8.34488181               68.06098535                0.00010000                2.13800893               -0.14357200               -3.35162395               -5.67861944               16.74414725               -0.98707491
              17.12572621                7.80925120               67.81927967                0.00010000                3.41909377               -0.81570993               -4.98542003               -8.31782053               18.09445231                0.78561427
              18.16558958                7.24147434               67.60466972                0.00010000                4.26315647               -0.75619459               -6.67028422              -10.47587861               19.52725282                2.14487915
              19.21098934                6.64687447               67.42668299                0.00010000                4.66743664                0.10602839               -8.29662319              -11.78732884               21.92936802                2.59539352
              20.25893831                6.03351629               67.30411619                0.00010000                4.84345215                1.03832775               -9.78743656              -12.77426501               29.39663446                1.72061653
              21.30785838                5.40003918               67.32399361                0.11596979                2.56775981                1.70450796              -10.32627682               -6.68010304               18.23157969                0.00444952
              22.31029351                4.89019552               66.96176541                0.72234272                0.24351289                1.19009557               -6.33091861               -0.40298188                3.58710351               -0.29758470
              12.52212054               11.19816474               69.34846501                0.91191622               -0.00229937               -0.11265507                0.34680074               -0.03394577               -0.01214786                0.58001938
              13.52209754               10.75356488               68.91121042                0.38469543                0.09146011                0.09978387               -0.31976503                0.10724634                0.10722900               -0.25450204
              14.52394974               10.31068056               68.47618969                0.00010000                0.73157448                0.26548689               -0.78986694               -0.49315965                7.12840211               -1.01786293
              15.53672903                9.85338446               68.17934218                0.00010000                1.67356914                0.43882026               -1.19117315               -2.82855451               15.82917944               -4.25006208
              16.55742112                9.34544094               67.92180496                0.00010000                2.92596728               -0.08327707               -2.96658655               -6.43906191               18.43354408               -2.87260775
              17.59524838                8.80455943               67.68957464                0.00010000                4.43140973               -0.47979264               -5.18385932               -8.05771990               19.07842475               -0.69450702
              18.64604932                8.23657692               67.47562221                0.00010000                5.37731810               -0.42394852               -6.95250320               -9.18811110               19.11858709                0.86814476
              19.70279474                7.64742243               67.28456869                0.00010000                5.92073049               -0.04650753               -8.33278929               -9.88102263               20.02834006                1.81623208
              20.76446393                7.04132172               67.13693163                0.00010000                5.71065580                0.41519369               -9.42852718              -10.30639343               25.61180345                2.63518145
              21.81700786                6.41470410               67.10654729                0.15569502                2.77685958                1.01950253               -6.60895275               -5.73947314               15.26658249                0.38133306
              22.82000112                5.89691877               66.74292949                0.76314707                0.29932616                0.33203668               -3.13613079               -0.35894581                1.68931424               -0.09466920
              12.96518233               12.19709119               69.22074809                0.91736850                0.05382862               -0.08648097                0.20396867               -0.05605387               -0.00445376                0.57594114
              13.96572062               11.75492599               68.77955224                0.44432010                0.13610518                0.17300699               -0.53033679                0.05006768                0.23401296               -0.19123914
              14.96790444               11.31382597               68.34303879                0.00010000                1.29569706                0.35276876               -0.97821637               -0.84156276                6.17109081               -0.60232810
              15.99163456               10.85381719               68.02042051                0.00010000                2.46735344               -0.59451371                3.01294866               -2.88894962               16.45822382               -5.12710006
              17.01725150               10.34321627               67.76824412                0.00010000                4.09006344               -0.78008036               -2.55279987               -5.81295795               20.36788241               -3.34559732
              18.07343583                9.79965535               67.54689648                0.00010000                6.08564256               -0.69672596               -5.31228187               -6.73494412               20.08970605               -1.21332978
              19.13896435                9.23299537               67.33205998                0.00010000                6.75941275               -0.39795822               -7.27792576               -7.32655097               18.73835556                0.44947058
              20.20862408                8.64594432               67.13082959                0.00010000                7.32822140               -0.11774166               -8.53094482               -7.96761343               18.88739204                1.81454350
              21.28552878                8.04182016               66.96968085                0.00010000                6.44238933               -0.21472012               -9.07589691               -8.77555218               22.96359471                3.21091527
              22.33747187                7.42042923               66.89235266                0.22794236                2.65782267                0.39314629               -2.39971842               -4.97363711               13.46886084                0.47069461
              23.33868524                6.89683625               66.52558373                0.83710959                0.12133672               -0.03548098               -0.53729002               -0.20922931               -0.00957845                0.00115605
              13.40532985               13.19643512               69.09278299                0.84233596                0.10342581               -0.04075300                0.06883997               -0.07198706                0.10288836                0.48690457
              14.40636411               12.75702502               68.64863747                0.44480650                0.14487159                0.25970277               -0.80901385               -0.01453655                0.62297831               -0.12497574
              15.40822728               12.31773593               68.21471995                0.00010000                2.15978171                0.41446591               -1.15234172               -1.84888937                5.69360627               -0.21777422
              16.44955975               11.84149419               67.87193091                0.00010000                4.35482587               -2.75577405                4.11107376               -2.14658703               16.86552515               -3.45583574
              17.49532380               11.32983933               67.61935930                0.00010000                6.06053227               -1.72159997               -2.21140305               -3.44247768               21.32670305               -2.50168793
              18.57077039               10.79062491               67.39963894                0.00010000                7.89527601               -1.27551209               -5.44892973               -3.86576520               20.01449611               -0.83661835
              19.65322932               10.22861776               67.18057096                0.00010000                8.19236451               -0.57523752               -7.61602501               -4.25843944               17.71076744                0.26137088
              20.73461768                9.64506760               66.96889555                0.00010000                8.06193234               -0.07220006               -8.80936606               -5.15285738               17.33223778                1.43566304
              21.81446797                9.03702732               66.79324597                0.00010000                6.39506691                0.05073383               -8.72317517               -6.36163703               20.37621696                2.66135927
              22.86251902                8.42256702               66.67565075                0.30221872                2.42672610                0.16768357               -0.79761374               -4.43811389               12.04400673                0.43824803
              23.86300249                7.89620915               66.30727004                0.90660528                0.04834720               -0.03501571               -0.05122220               -0.06263245               -0.25142298                0.02366671
              13.84256280               14.19627613               68.96339235                0.90990885                0.15662808               -0.01589939               -0.06738460                0.10768618                0.35786348                0.40021154
              14.84412908               13.76012005               68.51798964                0.73789076                0.19473404                0.30950275               -1.10048252                0.06845478                1.11068179               -0.07598984
              15.84645748               13.32211529               68.08748557                0.51931912                4.62351708                0.43793597               -1.28130391               -4.24789768                6.47771475               -0.01385821
              16.93659942               12.79870171               67.75058063                0.36528015                7.64068768               -4.27924816                3.62988916               -1.96258382               18.63963876               -3.22826657
              17.99927123               12.30878427               67.48133323                0.36082826                8.03713391               -2.10550633               -2.32185204               -0.83308718               19.71215776               -0.79715386
              19.09734210               11.77414511               67.25431815                0.36398319               10.00408223               -1.64798021               -5.64837021               -1.70751168               17.98051225               -0.23564434
              20.19935288               11.22149062               67.02174761                0.37457226                9.99076363               -0.71271366               -7.85959712               -1.86988394               14.70337522                0.34749855
              21.29715737               10.64450032               66.79162079                0.39315733                9.07218725               -0.05672784               -9.11913370               -2.67882025               13.68201566                1.09484184
              22.38079662               10.04283484               66.59509968                0.42043756                4.61851946                0.58075150               -9.19923786               -4.40300556               17.17587623                2.18135224
              23.38952776                9.42378291               66.45639739                0.66194800                0.46758498                0.12158852               -0.76921415               -4.63407084               11.36394282                0.54703996
              24.39014832                8.89613594               66.08757498                0.96019569                0.06205612               -0.00732141               -0.20858440               -0.05011365                0.02533229                0.03701840
               9.78821325                4.34922202               71.25408242                1.00000000               -0.33667797               -0.40045145                1.40069393               -0.11399141               -0.40573893                0.52356713
              10.78484647                3.89040833               70.83969968                1.00000000               -0.25627681               -0.22099934                0.82231875               -0.08551522               -0.48910638                0.06305535
              11.78308771                3.43112432               70.42298623                1.00000000               -0.09496184               -0.04690900                0.25163492               -0.08588034               -0.50104575               -0.06697851
              12.78294723                2.97101713               70.00827801                0.60857705                0.02296211                0.13760459               -0.33016134               -0.15672893               -0.43446681               -0.41813142
              13.78354696                2.50889303               69.59335516                0.46684345                0.13367960                0.35201083               -0.94068144               -0.20478869               -0.31537295               -0.29464396
              14.78562083                2.04464314               69.18183210                0.22184239               -0.37919865                0.53639756               -1.59285638               -0.98581838                0.49294306               -0.58315562
              15.77596298                1.56352039               68.78442170                0.00010000              -10.20381395                1.41898495               -2.10401943              -18.94618243               12.94308868               -1.81397693
              16.58154455                0.71400658               68.62940415                0.00010000              -10.00196260                3.60073213               -3.34782264              -18.65327949               23.51632096                2.93461205
              17.57592373               -0.12185835               68.40231189                0.00010000                7.28673391                0.12970984               -3.30964683              -16.34863732               17.93383477                4.07283825
              18.72727923               -0.94815743               68.11490197                1.00000000                7.80005366                0.81586063               -1.50427019              -14.89809560                6.93294644                0.04334713
              19.73192480               -1.48658542               67.68775022                1.00000000                0.46455795                0.99084115               -1.99801899                0.32303671               -0.05135765               -0.05501269
              10.24588702                5.34521750               71.12461825                1.00000000               -0.28468496               -0.37317337                1.24105160               -0.02242042                0.03396162                0.73865002
              11.24304017                4.88819834               70.71003680                1.00000000               -0.19812533               -0.19954885                0.66280406                0.00367430                0.11033177                0.09036654
              12.24192451                4.43065523               70.29639622                1.00000000               -0.02722909               -0.02529620                0.08757716                0.00299842                0.14369271               -0.26144565
              13.24249559                3.97239318               69.88249552                0.63478880                0.13807761                0.15126677               -0.48715397               -0.04513942                0.31886652               -0.40657448
              14.24468606                3.51241314               69.47295485                0.56855443                0.29766882                0.34472699               -1.13399152               -0.07531005                0.43248795               -0.28207012
              15.24844896                3.05000712               69.06248400                0.33894821                0.35666887                0.53536298               -1.78146141               -0.49301792                0.64356336               -0.49512624
              16.25181944                2.57771024               68.65904179                0.00010000               -0.53739197                1.02506461               -2.46724808              -17.74946663               14.48898653               -0.95998133
              17.23770112                1.75001390               68.52875656                0.00010000               -0.41500400                0.92612423               -4.78739351              -27.23366782               23.00299787                5.79723266
              18.24351936                0.87943874               68.28385880                0.00010000                1.14803395                3.69274125               -7.20188493              -26.22442683               11.65395431               11.40762348
              19.26066180                0.06000118               67.92202787                0.23221157                1.50319030                2.36814848               -3.80591034              -15.48706341                3.33011410               -0.22623847
              20.27358317               -0.47667701               67.49491726                1.00000000                1.29213645                1.62038739               -4.33232993                0.13241470                0.05125702               -2.61294245
              10.70180316                6.34175855               70.99856180                1.00000000               -0.23209313               -0.31247951                1.07154626               -0.02499842                0.18321214                0.86448083
              11.69948223                5.88641736               70.58059582                1.00000000               -0.14251593               -0.15716676                0.50030880               -0.00053817                0.38394860                0.00615592
              12.69895285                5.43061839               70.16614179                0.00010000                0.04021496                0.02509671               -0.07439135               -0.01722520                0.86034247               -0.71674570
              13.70028653                4.97404247               69.75780745                0.00010000                0.27369846               -0.46482949               -0.63582750               -0.87906073                1.38383772                1.11713146
              14.70442681                4.51578757               69.35443047                0.00010000                0.50884185               -1.04486428               -1.30072562               -1.53219065                1.37059663                3.34623676
              15.71046337                4.05535040               68.94730612                0.00010000                0.82700275               -2.21096164               -1.95133010               -2.15143091                1.58020630                6.78171651
              16.72096687                3.58402168               68.55031084                0.00010000                1.23396583               -6.43632307               -2.63768801              -20.03326488               19.37273190               13.36023666
              17.73514269                2.73252906               68.50141403                0.00010000                1.02405235                0.17307912               -6.57546661              -33.77267293               31.05745100               11.09212121
              18.74144792                1.95199647               68.34159927                0.00010000                1.92555129                7.19060235              -12.90157016              -35.66068140                4.30899870               16.67822355
              19.77365371                1.09920554               67.72528496                0.00010000                3.32407814               18.34209206              -26.15417768              -25.52389899               -9.45891404               47.86403037
              20.80792948                0.54582233               67.25285372                0.12673889                3.42757681               22.27431411              -29.42455927               -8.35203183               -3.45860480               55.49102924
              11.15606943                7.33896791               70.87093587                1.00000000               -0.18998708               -0.24533568                0.90446329               -0.02511545                0.29217604                0.70578018
              12.15416956                6.88505501               70.44902617                0.47687582               -0.10572679               -0.11831001                0.34027598                0.01959979                0.49566323               -0.36838173
              13.15395490                6.43115716               70.03074025                0.00010000               -0.72121845                0.08128830               -0.21944513               -0.66748888                3.21823675               -1.19068778
              14.13974519                5.96309659               69.66350860                0.00010000               -1.06102911               -0.71058370               -0.63154945               -2.25968145                6.30002510                2.16391933
              15.13273432                5.49151585               69.30821252                0.00010000               -0.12794792               -2.01181545               -1.69507766               -3.56904987                7.95714301                5.94589914
              16.13718623                5.00578789               68.97578244                0.00010000                2.06205839               -4.65261767               -2.87070563               -7.51112257               12.25744961               11.60850646
              17.17397548                4.44898378               68.71380562                0.00010000                2.85433206               -9.44156078               -4.64576445              -17.35873990               18.49476397               19.08068282
              18.19427288                3.75347548               68.51831038                0.00010000               -0.51731141                1.68684109               -7.91961260              -26.08411558               23.42737188               12.42702346
              19.16362925                3.02325079               68.36976301                0.00010000               -1.89574544                9.03852058              -14.90283133              -22.05569519               49.02354864               15.52696353
              20.15635797                2.42684302               68.74129932                0.05981702                2.48398553               21.76978886              -47.80012210               -8.66648353               44.82104088               52.44394448
              21.21330897                1.96880927               68.45720731                0.65106449                5.69509980               24.26046412              -50.05109628               -2.55906796               22.67387031               56.67530339
              11.60912667                8.33685184               70.74131531                0.91112064               -0.14416865               -0.17912515                0.74980074               -0.01155219                0.04170287                0.58466699
              12.60768498                7.88405116               70.31191915                0.32235913               -0.07825907               -0.08815808                0.18046155                0.08496535                0.50155606               -0.54458821
              13.60756148                7.43224416               69.89139310                0.00010000               -0.64753853                0.08371855               -0.37043010               -0.84902220                5.31863698               -1.63462962
              14.59473421                6.95983079               69.55879738                0.00010000               -0.86034829               -0.15444402               -1.21281423               -2.08856195               10.32439562                0.89620042
              15.59035452                6.47555126               69.24250405                0.00010000                0.40193927               -1.31222894               -2.27003378               -3.69098864               12.26151537                3.65640834
              16.60277299                5.96229805               68.95486316                0.00010000                1.78749779               -3.27191246               -3.65635960               -7.40316013               15.20428262                6.76670066
              17.62610447                5.39519047               68.70848731                0.00010000                1.82101828               -3.54762837               -5.54282128              -14.04746748               19.28263763                8.28880586
              18.63919336                4.76626589               68.51977694                0.00010000                0.04310003                1.54296802               -8.62696880              -17.63769803               25.60357244                9.25920483
              19.62696648                4.13276688               68.42738333                0.00010000                0.77860997                7.99895172              -15.49910944              -14.06270725               46.07181334               11.16214671
              20.65476556                3.53460132               68.69302386                0.01830577                2.29245716                8.82317880              -29.36389032               -5.16833095               36.22138813               -0.85470214
              21.67281562                3.03103161               68.36146629                0.62436970                1.80500589                5.21837355              -26.17209323               -0.89821720               13.90994628               -1.49831868
              12.06143975                9.33538541               70.61111176                0.90360711               -0.09631987               -0.13798239                0.60404380               -0.02318430                0.00776868                0.57478698
              13.06047655                8.88329184               70.17657830                0.30392292               -0.01224643               -0.04521433                0.02603652                0.10712568                0.26850114               -0.40569852
              14.06119482                8.43283153               69.74699570                0.00010000               -0.29048483                0.07475634               -0.50007679               -0.85637377                6.66854872               -1.70107513
              15.05466685                7.96000771               69.44101544                0.00010000               -0.23737653                0.11610278               -1.51111780               -2.37160657               13.22537869               -0.52644404
              16.05644729                7.46527128               69.14897929                0.00010000                0.74084894               -0.66992777               -2.69409142               -4.38638255               14.63072248                1.10674749
              17.06948383                6.94034964               68.88082306                0.00010000                1.63055056               -1.46898297               -4.13748634               -7.56065532               16.69573802                2.75701197
              18.08905830                6.37803121               68.64534933                0.00010000                1.72293353               -0.95925527               -5.97761593              -11.05470093               19.57731238                4.02146312
              19.10394250                5.78433484               68.45751173                0.00010000                1.24906890                1.60089417               -8.68904191              -12.56263149               24.07822594                4.51403128
              20.11403968                5.18322983               68.34217555                0.00010000                2.53920613                3.91373623              -12.92020913              -10.43940578               35.03448615                3.80179416
              21.15472662                4.60330660               68.41540590                0.00010000                4.42221849                4.83867939              -24.45277601               -5.93805481               26.86290582               -7.83950774
              22.20248405                4.07317674               68.11892933                0.57542975                4.77574232                3.78636119              -22.15755792                0.01313084               14.82701500               -5.72307722
              12.51285011               10.33409219               70.48137467                0.91552035               -0.04687382               -0.12559397                0.46559650               -0.03287313               -0.00940198                0.61253022
              13.51238137                9.88314687               70.04199924                0.31676712                0.04340182                0.02235363               -0.14431552                0.09450985                0.16723914               -0.34354506
              14.51371815                9.43373928               69.60596977                0.00010000                0.12404817                0.14514096               -0.66410437               -0.88195329                7.31674253               -1.39957436
              15.51486233                8.96215285               69.30990226                0.00010000                0.42833968                0.24651987               -1.56069699               -2.59053099               14.78101832               -1.79032099
              16.52228494                8.46215271               69.03074918                0.00010000                1.19688098               -0.12680182               -2.80962214               -4.84532430               16.11432295               -0.97390760
              17.53879995                7.93291839               68.77298272                0.00010000                1.93701554               -0.41481563               -4.36707675               -7.16469916               17.49964456                0.30545529
              18.56102525                7.37600536               68.54111056                0.00010000                2.19710807                0.05126340               -6.15519958               -9.07298030               19.10654090                1.35209628
              19.58274211                6.79828377               68.34338067                0.00010000                1.90906786                1.27426734               -8.32692140               -9.79724038               21.78702962                1.76340914
              20.59920661                6.21104161               68.20077890                0.00010000                3.16577152                2.44267705              -11.50452422               -9.04633772               26.76860981                1.40265849
              21.64605755                5.63137491               68.13711583                0.00010000                6.70656684                1.58932846              -22.01532063               -5.49425540               19.52292953               -0.19248211
              22.73333794                5.10675883               67.84336621                0.57212811                8.72803981                1.96614704              -20.42727201               -2.05449248               13.01108699               -0.33664162
              12.96267292               11.33287353               70.35196436                0.92222668                0.00467300               -0.11119771                0.33307832               -0.04496125               -0.01068357                0.65441135
              13.96271965               10.88373892               69.90784941                0.33663133                0.09384279                0.09521473               -0.33545293                0.06389398                0.19598079               -0.31891226
              14.96454977               10.43573435               69.46775500                0.00010000                0.58615809                0.26282239               -0.87941929               -0.97580102                7.49214330               -1.15610154
              15.97444281                9.96493811               69.16966533                0.00010000                1.21127432                0.18739861               -1.10237994               -2.66497749               15.41318082               -2.72273770
              16.98877526                9.46273524               68.89502072                0.00010000                1.89471919               -0.04773319               -2.53957064               -4.75932510               17.10200816               -2.25608867
              18.01233719                8.93205333               68.64264733                0.00010000                2.67290270               -0.06594760               -4.38541676               -6.40805506               18.00023563               -1.08426573
              19.04223331                8.37905648               68.41033604                0.00010000                3.03121269                0.34942722               -6.21928086               -7.39279095               18.50893900                0.04688111
              20.07296145                7.80982019               68.20297082                0.00010000                2.88942349                1.05395751               -8.12213068               -7.64099771               19.59080178                0.86600413
              21.10002178                7.23208337               68.03435768                0.00010000                3.80814213                1.73893785              -10.67883152               -7.74239894               25.23622002                1.16037897
              22.14912429                6.63509317               67.98543996                0.00010000                5.53022827                0.49080910              -18.96709826               -4.16526972               18.73006661                7.54551027
              23.21062635                6.11249968               67.68339316                0.58977383                6.15020595                0.33089265              -17.27893599               -3.80529121               11.30463570                5.84251430
              13.41022011               12.33186823               70.22292541                0.92773301                0.05783206               -0.08014209                0.20194465               -0.06096392               -0.00076059                0.67917839
              14.41079843               11.88505117               69.77390251                0.37059075                0.13914138                0.17266875               -0.56021291                0.03072302                0.36025325               -0.31713996
              15.41300294               11.43899573               69.33205894                0.00010000                1.18817335                0.39668578               -1.17794073               -1.29127123                7.50552831               -0.77855130
              16.43456190               10.96590082               69.02590315                0.00010000                2.34901408               -0.30603514               -0.18793546               -2.73919492               15.46079384               -2.57388013
              17.45998322               10.46119804               68.75036165                0.00010000                2.98778587               -0.53026921               -1.90798616               -4.00564816               17.85297469               -2.50158648
              18.49431761                9.93159944               68.49951770                0.00010000                3.77096735               -0.20734337               -4.31281465               -4.94579623               18.20067841               -1.46776858
              19.53540256                9.38299390               68.26505346                0.00010000                4.12888294                0.32386468               -6.25471816               -5.45384427               17.82953002               -0.32805203
              20.57689527                8.81936292               68.04934623                0.00010000                4.18415439                0.92893309               -8.04096420               -5.61511390               17.89919592                0.84592637
              21.61908565                8.24582036               67.86459708                0.00010000                5.27202804                1.17886047              -10.21627699               -6.50279004               24.93347814                2.18803729
              22.68233583                7.64119109               67.84889403                0.02876105                4.16667160                0.61680528              -15.87661537               -3.07688497               17.65973732                7.14471275
              23.70241908                7.11337669               67.51490216                0.62560561                2.00832514                0.14108503              -13.80281419               -2.05670274                7.37797578                4.90959819
              13.85508777               13.33127069               70.09369828                0.84820755                0.11188336               -0.03896600                0.07348435               -0.06584278                0.07057317                0.61411433
              14.85620661               12.88719229               69.63998918                0.33068867                0.13934585                0.26363246               -0.83855728                0.01489835                0.83609033               -0.31399715
              15.85787469               12.44366807               69.20154333                0.00010000                2.06249958                0.52848371               -1.42973500               -2.09060929                7.79410629               -0.37707848
              16.89745660               11.95881740               68.88699866                0.00010000                4.25444935               -1.45526673                0.30130264               -2.34393296               15.20641553               -1.48814120
              17.94296368               11.45212985               68.60613071                0.00010000                4.70844032               -1.30027868               -1.52821451               -2.31748255               17.72098144               -1.61437844
              18.99162541               10.92790646               68.35246133                0.00010000                5.12146342               -0.64138766               -4.18537598               -2.63013196               17.64077399               -1.04808252
              20.04539295               10.38553377               68.11218540                0.00010000                5.31036515                0.06065380               -6.21216285               -2.91247878               16.50642437               -0.26665280
              21.09783271                9.82839885               67.88659923                0.00010000                5.13724324                0.76965256               -7.91727088               -3.26861355               16.08950752                0.68934929
              22.14813781                9.25566058               67.69129622                0.00010000                6.10987793                1.31186829               -9.87444742               -4.92371038               23.05916140                2.36775234
              23.22003027                8.64742927               67.66200837                0.07050379                3.84916462                0.59242371              -13.15020647               -3.41482591               15.24735549                4.93681724
              24.22512110                8.11532138               67.30603540                0.66608469                0.50908361                0.17130482              -10.39191333               -0.42488759                3.95661780                4.11423851
              14.29706004               14.33108891               69.96307593                0.91164018                0.16389735               -0.01817740               -0.05153369                0.12071706                0.33177127                0.55330518
              15.29869902               13.89032381               69.50630732                0.66509329                0.12527978                0.31315227               -1.11378052                0.17306559                1.51143757               -0.32448136
              16.29956564               13.44956541               69.07312309                0.44511722                4.02612157                0.58973404               -1.57540247               -3.50732157                8.29777060               -0.17651808
              17.37922145               12.93679549               68.75388807                0.36498061                7.24894365               -2.20219158               -0.32787633               -2.54216194               14.58407786                0.16902217
              18.44454451               12.43519247               68.46934018                0.36082025                6.45448046               -1.69373851               -1.45236264               -0.74310667               16.78359057               -0.63558607
              19.50831106               11.91877169               68.20689794                0.36369514                6.60580408               -0.91347717               -4.00854836               -0.88070924               15.70523646               -0.30081532
              20.57666059               11.38420698               67.95424971                0.37377828                6.65425698               -0.13267905               -5.83887460               -1.07402102               13.55730781                0.09922405
              21.64139620               10.83475597               67.71040932                0.39114271                6.24602160                0.63571183               -7.35640865               -1.25111373               12.00124424                0.84226635
              22.70158103               10.27205773               67.49078310                0.41688365                5.64911546                1.63971540               -9.23794333               -3.74149889               18.73261448                2.04352699
              23.75437851                9.65303956               67.44365265                0.54510582                2.82780414                0.56102924              -12.63970450               -4.32792352               13.73047906                6.40263696
              24.75813711                9.11680278               67.08413536                0.84135589                0.37586022                0.14813973              -10.09510701               -0.32207781                2.53141843                6.41217772
              10.20148635                4.48465156               72.26729014                1.00000000               -0.30369913               -0.35600677                1.24247395               -0.09546609               -0.39631378                0.51209650
              11.19844935                4.02148205               71.84761035                1.00000000               -0.23751322               -0.20503547                0.76033866               -0.06907110               -0.47700481                0.06022667
              12.19673608                3.55787660               71.42566245                1.00000000               -0.10400275               -0.05837778                0.28319742               -0.06987686               -0.49009086               -0.06477351
              13.19636930                3.09350376               71.00562467                0.61434816               -0.00830664                0.09491145               -0.20213788               -0.13628448               -0.43883020               -0.39930629
              14.19656995                2.62728411               70.58514351                0.46530029                0.08123603                0.27210478               -0.70549529               -0.18223390               -0.34949065               -0.29889678
              15.19799402                2.15915743               70.16766871                0.20524896               -0.59979251                0.41802489               -1.24675751               -1.09349818                0.52219131               -0.57231529
              16.18457410                1.67186626               69.76587600                0.00010000               -9.20632561                1.44902575               -1.61820598              -17.19452981               12.75838573               -1.95938671
              17.01386751                0.85127703               69.60028638                0.00010000               -8.46865760                2.64821692               -2.68679621              -16.71549188               23.96292996                2.67885654
              18.01520095                0.04739542               69.37229642                0.00010000                7.10865219               -0.93734753               -2.86852228              -13.84240848               19.33210724                3.12864385
              19.15604055               -0.74272190               69.10058525                1.00000000                7.32064526                0.63336066               -1.71721379              -12.92750336                7.90168483               -0.27717804
              20.16161385               -1.28208004               68.66888702                1.00000000                0.55732997                0.77206081               -2.12108948                0.23000913                0.04049345               -0.42266121
              10.66370120                5.48109150               72.13630937                1.00000000               -0.25550705               -0.33373343                1.09833511               -0.01845061                0.03408471                0.72255442
              11.66114613                5.01943170               71.71643202                1.00000000               -0.18373665               -0.18605129                0.61633518                0.00573344                0.11130030                0.08606759
              12.66002646                4.55729282               71.29752115                1.00000000               -0.04217126               -0.03874465                0.13663204                0.00360682                0.14748315               -0.25853824
              13.66030270                4.09445287               70.87836697                0.66281594                0.09471548                0.10487266               -0.34014660               -0.04164877                0.29315824               -0.38235423
              14.66192077                3.63000516               70.46294398                0.58587783                0.22326336                0.26505521               -0.87281475               -0.07316514                0.37584637               -0.27196717
              15.66476797                3.16333768               70.04656595                0.33711727                0.23241143                0.41992716               -1.41017687               -0.52325642                0.56926696               -0.47247164
              16.66656900                2.68635651               69.63677862                0.00010000               -0.29099802                0.97676585               -1.99836889              -16.47835222               13.58389626               -0.99961875
              17.65894801                1.87775920               69.48359673                0.00010000                0.36036623                0.22689988               -4.19259454              -25.19202413               21.93378022                5.59503001
              18.67377633                1.03802195               69.22640793                0.00010000                1.62776221                1.20937032               -4.87734525              -22.03880416               13.29152022                8.26797818
              19.69150325                0.26361171               68.88351096                0.74763117                1.47478821                0.19926888               -3.24664160              -11.72921267                4.66991965               -2.11959246
              20.70327209               -0.27435944               68.45114783                1.00000000                1.17688391                0.28270088               -3.69250179               -0.11878402               -0.17930505               -2.52012249
              11.12443693                6.47797690               72.00865273                1.00000000               -0.20742324               -0.28448966                0.94728796               -0.02187962                0.17981548                0.84696024
              12.12236270                6.01776103               71.58545400                1.00000000               -0.13249404               -0.14735219                0.47060444               -0.00066745                0.37819327                0.00160152
              13.12178705                5.55710171               71.16573456                0.00010000                0.02306462                0.00739239               -0.00873930               -0.02414150                0.86186709               -0.70561811
              14.12282399                5.09560121               70.75229180                0.00010000                0.22173943               -0.52393122               -0.46940694               -0.88787167                1.34627534                1.12233372
              15.12622184                4.63258522               70.34285093                0.00010000                0.41767753               -1.08541812               -1.02034310               -1.51716299                1.29048114                3.24169139
              16.13117754                4.16755597               69.92976800                0.00010000                0.71818490               -2.22654036               -1.56383916               -2.15269463                1.48303584                6.45395271
              17.14058553                3.69140157               69.52630062                0.00010000                1.35920267               -6.23842476               -2.17290950              -19.05613485               17.85125268               12.51614033
              18.15836159                2.85581503               69.44265215                0.00010000                2.39934094               -0.44141863               -5.78598278              -33.00576981               26.87427862               10.89368375
              19.18857235                2.07158283               69.19660851                0.00010000                3.77380435                5.17322061              -12.80863667              -34.72725801                4.25937551               15.20473119
              20.23383768                1.26126348               68.63028538                0.07061944                2.33040542                8.77809164               -4.62789548              -21.75562164               -5.29019045               25.90408961
              21.23518046                0.72357397               68.19304494                0.64707535                0.13427820                7.77668019               -2.89356946                2.31862999               -0.58983395               27.27482316
              11.58369534                7.47540170               71.87945173                1.00000000               -0.16873753               -0.22893944                0.79863290               -0.02650717                0.28838084                0.70097034
              12.58200796                7.01648466               71.45236506                0.45133170               -0.09959430               -0.10855079                0.32614758                0.00688365                0.49363539               -0.37472050
              13.58170345                6.55744067               71.02896591                0.00010000               -0.74731020                0.06880526               -0.13974365               -0.70656841                3.19660352               -1.18144577
              14.56706176                6.08397425               70.65610574                0.00010000               -1.10403527               -0.74705244               -0.70584452               -2.29460471                6.19679775                1.97206469
              15.55962275                5.60829680               70.29247446                0.00010000               -0.20820203               -2.01493526               -1.49531238               -3.57327492                7.73076711                5.68982212
              16.56289772                5.11880687               69.94939444                0.00010000                1.87822514               -4.50947497               -2.53594192               -7.43628735               12.01174597               10.94020148
              17.59718725                4.56158802               69.67007514                0.00010000                2.78768184               -9.01021838               -4.30584275              -17.11445307               17.84427599               17.85739496
              18.61865136                3.86893083               69.44016998                0.00010000               -1.17022686                1.57765672               -7.82627641              -26.14591475               22.88971796               11.57408186
              19.57378271                3.14148636               69.24531288                0.00010000               -0.71258422                8.67889061              -12.85358924              -28.94464990               25.52462079               17.14377843
              20.60439967                2.43917354               69.00744428                0.00010000               12.56204952               20.83403706              -65.97976188              -20.06694483               19.81632933               31.10510959
              21.82502370                1.88117417               68.58799399                0.58243249               22.06240321               22.40107694              -73.70626874               -5.31062942                7.86308049               33.17245086
              12.04174088                8.47339811               71.74838877                0.91710903               -0.12794806               -0.17226462                0.66240445               -0.01867228                0.03075500                0.59879094
              13.04046140                8.01559001               71.31369114                0.29995807               -0.07873958               -0.07760981                0.17557457                0.05867046                0.50060780               -0.55412438
              14.04016609                7.55847781               70.88807461                0.00010000               -0.71928159                0.07990430               -0.29342521               -0.90203137                5.22588247               -1.65362421
              15.02607577                7.08066016               70.54811762                0.00010000               -1.01211894               -0.21082397               -1.01695177               -2.17902161               10.13196980                0.69543368
              16.01992371                6.59228651               70.22145015                0.00010000                0.15424016               -1.30473000               -2.02277019               -3.74528408               12.04613081                3.31353101
              17.02916057                6.07736647               69.92038549                0.00010000                1.41244037               -3.04562835               -3.37280252               -7.41224934               15.08426472                6.15631652
              18.04817252                5.51119720               69.65553448                0.00010000                1.31921925               -3.10405985               -5.36996586              -13.95689113               19.06921496                7.50191793
              19.05554496                4.88736816               69.43300771                0.00010000               -0.43679395                2.15239692               -8.73453580              -18.46831790               25.01791920                8.45946449
              20.03943664                4.24516064               69.27570823                0.00010000                1.86330076                9.08545609              -17.38164228              -13.36485824               33.83810907                9.05778376
              21.09281097                3.67794422               69.18421935                0.00010000               10.27649910               17.02791317              -43.79313766               -5.50856570               26.38191144               12.29200718
              22.24496662                3.17159551               68.86930636                0.51222358               15.21556490               19.77906182              -46.67138865               -6.99271240               17.22853044               16.37295535
              12.49893808                9.47195641               71.61683093                0.91257521               -0.08364167               -0.13279080                0.53341816               -0.02822222                0.00253364                0.60963859
              13.49810167                9.01493246               71.17683167                0.28020323               -0.01727021               -0.04008578                0.02887145                0.07310691                0.28194216               -0.42662367
              14.49859268                8.55903876               70.74218010                0.00010000               -0.42145176                0.06438182               -0.45714843               -0.96608704                6.52364496               -1.77538868
              15.48967263                8.07975777               70.42738595                0.00010000               -0.52909638               -0.00378425               -1.28153705               -2.45526743               12.94926276               -0.58573590
              16.48801075                7.58220220               70.12415018                0.00010000                0.30347040               -0.64621423               -2.39081017               -4.26867297               14.38362135                0.88786861
              17.49574204                7.05789431               69.84167523                0.00010000                1.00184943               -1.19152175               -3.85281741               -7.32491130               16.59239606                2.29078172
              18.50804774                6.49950682               69.58753961                0.00010000                0.97897620               -0.38338253               -5.86750526              -10.83828049               19.58542859                3.28488389
              19.51532156                5.91197877               69.36913191                0.00010000                0.39308745                2.46577008               -9.15977720              -12.23973536               24.32651091                3.66384091
              20.51590949                5.32319548               69.20763562                0.00010000                2.62359605                6.21133447              -15.19767242               -8.55541275               28.70396736                2.64367725
              21.56779348                4.77973181               69.06455067                0.00010000                9.09786924                7.41056329              -32.21496712               -4.17606897               20.84266358               -1.39326088
              22.69786687                4.27675541               68.73928025                0.48763984               13.00733897                7.37016760              -35.50060608               -4.64524580               12.60938682               -0.68187674
              12.95522434               10.47074229               71.48580465                0.92683084               -0.03831484               -0.11270885                0.40886907               -0.03546528               -0.01180659                0.66800577
              13.95484119               10.01478830               71.04055648                0.28952511                0.03973508                0.01754522               -0.13438714                0.05740072                0.19392949               -0.38819115
              14.95601904                9.55976545               70.59926883                0.00010000               -0.05171057                0.12152982               -0.65671480               -1.04099048                7.26561383               -1.54567414
              15.95380698                9.08058448               70.29578050                0.00010000                0.01973348                0.15855303               -1.37116153               -2.61744610               14.51678701               -1.57535241
              16.95641371                8.57936223               70.00479291                0.00010000                0.57753711               -0.07477519               -2.51508637               -4.42899532               15.71362881               -0.91812966
              17.96535772                8.05353604               69.73193814                0.00010000                1.04543683               -0.07775901               -4.03673038               -6.58184736               17.26566441               -0.04024837
              18.97732245                7.50352955               69.48156573                0.00010000                1.08519336                0.70324118               -6.00169954               -8.44978056               19.28593945                0.63707900
              19.98706159                6.93668356               69.26014456                0.00010000                1.16264474                2.33990952               -8.75611314               -8.94373229               22.08109704                0.87427340
              21.00057534                6.36938733               69.07402571                0.00010000                3.43340386                3.87578212              -13.83445949               -6.98591866               23.98228590                0.32236708
              22.05572967                5.82615549               68.88368719                0.00010000                7.87195820                3.70521505              -24.31610256               -3.78041193               16.80211095               -0.26185073
              23.15801451                5.31899887               68.55321997                0.48486162               10.22848397                3.27388501              -28.00032737               -3.09963410                9.02325278                0.84725436
              13.41013677               11.46970223               71.35512657                0.93467642                0.00897553               -0.09007268                0.28344721               -0.04245881               -0.00959700                0.72501178
              14.41022652               11.01528336               70.90450136                0.30253025                0.09199627                0.08275649               -0.31471843                0.03590385                0.22970662               -0.39373462
              15.41197669               10.56146935               70.45860130                0.00010000                0.37502060                0.23505823               -0.90897480               -1.11796062                7.68341876               -1.39545351
              16.41772693               10.08292883               70.15729458                0.00010000                0.72512944                0.22108890               -1.29695553               -2.60109609               15.27598779               -2.05727998
              17.42647928                9.58070669               69.87101355                0.00010000                1.11054155                0.13561605               -2.39079655               -4.11534869               16.41316798               -1.90915094
              18.43993776                9.05633913               69.60186631                0.00010000                1.47126620                0.34749710               -3.99063607               -5.48675916               17.45715491               -1.30091200
              19.45590460                8.51357164               69.35123660                0.00010000                1.53256890                1.05277093               -5.90167794               -6.45790927               18.53000877               -0.68156928
              20.47058914                7.95877696               69.12212608                0.00010000                1.54072940                2.12754369               -8.34627436               -6.64288671               20.25461482               -0.30728631
              21.48671919                7.40071112               68.92335500                0.00010000                3.59922834                2.96275151              -12.43420935               -6.04328240               21.76151831                0.43589787
              22.54257371                6.85383611               68.72720532                0.00010000                8.17341225                3.02997931              -24.02180002               -3.69230734               15.22421266                3.84174684
              23.65018744                6.34223311               68.39735077                0.49045564               10.76137279                2.66935535              -27.19857884               -1.34960127                9.05365179                5.22385209
              13.86321291               12.46894084               71.22478698                0.93928784                0.05792436               -0.05676759                0.15354047               -0.04860312               -0.00178746                0.75935398
              14.86379215               12.01644343               70.76834799                0.32264842                0.14007308                0.15284546               -0.51811718                0.02700622                0.37475964               -0.43438366
              15.86601437               11.56446662               70.31947998                0.00010000                0.93777852                0.38304289               -1.25266668               -1.31569678                8.05168842               -1.07621601
              16.88254772               11.08500625               70.01666180                0.00010000                1.73410360                0.04088062               -1.13887707               -2.55091591               15.61980477               -1.95872494
              17.90069644               10.58207455               69.73008439                0.00010000                2.01049349               -0.10667296               -2.12138887               -3.33593933               16.61888128               -2.02084600
              18.92275759               10.06048598               69.46064018                0.00010000                2.25149967                0.29719501               -3.78467738               -3.99480814               17.25779359               -1.61940999
              19.94572643                9.52458497               69.20696562                0.00010000                2.21533941                1.02584025               -5.69985738               -4.39681228               17.56635778               -1.07031784
              20.96706438                8.97923444               68.97001030                0.00010000                1.94620556                1.95072670               -7.95493601               -4.46173731               18.69950871               -0.43188120
              21.98465054                8.42864236               68.76535531                0.00010000                3.66485800                2.87426167              -11.44949317               -3.94782486               20.16252942                0.85615660
              23.04036154                7.88675507               68.57482035                0.00010000                8.47889710                3.63543187              -24.74010480               -2.30515724               13.45217891                5.68021077
              24.15422849                7.37238597               68.24952745                0.50273186               11.38669481                3.35138101              -26.06114657               -1.24224245                9.17335109                7.83974308
              14.31415952               13.46856688               71.09425268                0.85493595                0.10813428               -0.01769526                0.02105929               -0.04653352                0.05191959                0.70637708
              15.31524087               13.01834027               70.63186633                0.25899917                0.14702023                0.22753589               -0.74371465                0.05409259                0.87690847               -0.46543573
              16.31709993               12.56913021               70.18612525                0.00010000                1.69299074                0.54794012               -1.54059547               -1.78880347                8.62284794               -0.67484082
              17.34910068               12.08374644               69.87795697                0.00010000                3.35904176               -0.83514635               -1.13817596               -2.05204077               15.62314724               -1.21918199
              18.38428076               11.57857323               69.58879501                0.00010000                3.42152468               -0.62104767               -1.87945145               -2.01133376               16.35438837               -1.29934407
              19.41753118               11.06228303               69.31593142                0.00010000                3.24695685               -0.06152011               -3.49706543               -2.03525397               16.50358235               -1.14434489
              20.44921990               10.53408845               69.05632770                0.00010000                2.98829164                0.73807527               -5.33324683               -2.16151612               16.15755594               -0.81787309
              21.47729701                9.99779149               68.81055014                0.00010000                2.55110784                1.72455178               -7.42213124               -2.11538006               16.67033820               -0.30501685
              22.50024206                9.45819636               68.59575702                0.00010000                3.77149710                2.80446355              -10.68437095               -1.68458534               18.50768990                0.92144916
              23.55272695                8.92654474               68.41264662                0.00010000                7.69193666                5.08960099              -23.39419449               -0.92560460               12.29765145                5.12368432
              24.65408079                8.40926073               68.09943177                0.51827667               10.13538407                4.78968025              -23.30150532               -1.44926290                8.81188068                7.30807329
              14.76273545               14.46858693               70.96236168                0.91367383                0.15752173                0.00200497               -0.10777313                0.09831425                0.33492100                0.66073461
              15.76431067               14.02099414               70.49571403                0.62073401                0.10483387                0.26538715               -0.95864995                0.24890474                1.66887498               -0.50179685
              16.76483213               13.57542542               70.05597752                0.39845244                3.38766052                0.62952054               -1.78816616               -2.86132061                9.50209928               -0.57941474
              17.83206388               13.06830333               69.74402310                0.36481966                5.85505229               -1.54431132               -1.11407018               -1.99227114               15.41784592               -0.33444064
              18.88193318               12.56965359               69.45228597                0.36088726                4.72367067               -0.89196403               -1.72535044               -0.68714596               15.67382493               -0.38969490
              19.92653730               12.05925558               69.17414719                0.36355382                4.25272344               -0.30274463               -3.04299571               -0.61474380               15.10936410               -0.41739896
              20.96698765               11.53934648               68.90497012                0.37294560                3.70557872                0.52580289               -4.53127638               -0.49973074               13.79775264               -0.24661784
              22.00064887               11.01372547               68.64449262                0.38922332                2.76089680                1.59339840               -6.11788130               -0.39555622               13.21824596                0.08799220
              23.02220558               10.48473163               68.41034081                0.41323823                3.50681031                2.65352744               -8.67480514                0.93743348               13.89880047                1.01638735
              24.07078508                9.98854709               68.20360330                0.47090803                6.88028420                6.20023494              -20.87134577                0.97820994                8.95627349                4.90951881
              25.15981127                9.46817958               67.88567284                0.76367055                8.90261902                5.89188518              -20.69855646               -1.46370414                5.85125387                7.07589147
              10.61964657                4.62142549               73.27893190                1.00000000               -0.27124973               -0.31194922                1.08780893               -0.07791246               -0.39084910                0.50429256
              11.61693407                4.15396952               72.85490645                1.00000000               -0.21874950               -0.18934839                0.69929153               -0.05366933               -0.47026579                0.05818826
              12.61527158                3.68611145               72.42865017                1.00000000               -0.11222491               -0.06990956                0.31357584               -0.05439022               -0.48436297               -0.06280679
              13.61468957                3.21754641               72.00423526                0.62067655               -0.03792377                0.05325497               -0.07807630               -0.11522963               -0.44188156               -0.38194229
              14.61451310                2.74731416               71.57924525                0.46467973                0.03212981                0.19522194               -0.47993172               -0.15811120               -0.37519792               -0.30132983
              15.61533217                2.27540237               71.15689695                0.18983005               -0.80000358                0.30560371               -0.91590110               -1.17258772                0.57380439               -0.56413906
              16.59851303                1.78252741               70.75205758                0.00010000               -8.04747186                1.47658294               -1.15732298              -14.92661150               12.56222958               -2.11616475
              17.45438273                1.00096302               70.57566822                0.00010000               -6.81230109                1.85857143               -2.41650180              -14.26532668               23.86649984                2.14715387
              18.46226701                0.23249149               70.34494145                0.00010000                6.71697949               -1.20052787               -2.71889045              -11.30891907               20.05122217                2.81219560
              19.58872232               -0.51955241               70.08055770                1.00000000                6.69320692                0.74616075               -2.29694998              -10.54278948                8.46806899               -0.26113070
              20.59613115               -1.05956026               69.64532843                1.00000000                0.74088266                0.83228808               -2.59209497               -0.14156525                0.05768483               -0.38650979
              11.08632341                5.61830600               73.14658495                1.00000000               -0.22690145               -0.29350475                0.95824678               -0.01547773                0.03310270                0.71155498
              12.08405440                5.15207604               72.72236350                1.00000000               -0.16920913               -0.17265870                0.56993342                0.00682791                0.11068410                0.08318961
              13.08293923                4.68541235               72.29912886                1.00000000               -0.05592382               -0.05250893                0.18346850                0.00418674                0.15076337               -0.25616652
              14.08293592                4.21807896               71.87569258                0.69172382                0.05323908                0.06019770               -0.19780500               -0.03699415                0.27576912               -0.35920217
              15.08400401                3.74926638               71.45549855                0.60394622                0.15318713                0.18883820               -0.62332919               -0.06867062                0.33315947               -0.26247474
              16.08599966                3.27845841               71.03428047                0.33563327                0.12312886                0.30993011               -1.05622620               -0.53154550                0.50069444               -0.45434748
              17.08646659                2.79729324               70.61907441                0.00010000                0.03738784                0.92602776               -1.55340085              -14.61574650               12.73171843               -1.06402288
              18.08674742                2.01954874               70.44490467                0.00010000                1.14844717               -0.35667675               -3.49772569              -21.44346895               21.28808675                5.04685662
              19.10943553                1.22048622               70.18631190                0.00010000                2.12864403                0.23473248               -3.66034748              -17.74521754               14.11948125                5.57007021
              20.12932030                0.48790920               69.85709504                1.00000000                1.26439070                0.64532135               -2.06668720               -9.45162195                5.51613814               -0.32469806
              21.13472334               -0.05123738               69.42106723                1.00000000                0.54030444                0.70164436               -2.33866137               -0.19053032               -0.20059470               -0.53960690
              11.55179693                6.61555540               73.01750756                1.00000000               -0.18326615               -0.25273596                0.82417235               -0.01955639                0.17628945                0.83619280
              12.54996427                6.15051635               72.59000791                1.00000000               -0.12222737               -0.13762900                0.43949457               -0.00102177                0.37301835               -0.00136797
              13.54935239                5.68506127               72.16596700                0.00010000                0.00656959               -0.01120821                0.05333167               -0.02794634                0.86732099               -0.69710103
              14.55009566                5.21875037               71.74841931                0.00010000                0.17039285               -0.56834478               -0.30904027               -0.83668371                1.32034952                1.07052391
              15.55276024                4.75109092               71.33402361                0.00010000                0.32893645               -1.12766498               -0.75321226               -1.35462205                1.22560706                3.06619709
              16.55667439                4.28160097               70.91602934                0.00010000                0.61737623               -2.22419933               -1.19268679               -1.81110753                1.38486305                6.02393795
              17.56510777                3.80104796               70.50685265                0.00010000                2.28229895               -6.01977088               -1.72509376              -16.70763072               16.12846727               11.49871134
              18.60232037                2.99382949               70.38569438                0.00010000                3.69472116               -1.24735853               -5.50838837              -28.68898705               23.32653510                9.99947072
              19.63900219                2.23718614               70.08542654                0.00010000                3.45465499                3.32702127               -8.77399262              -25.15318129                7.28700131               13.69757355
              20.67141347                1.49335402               69.63272705                1.00000000                1.58057520                0.35510231                0.04246177              -10.10151839               -0.79476330                0.51189698
              21.67061370                0.95447263               69.19498233                1.00000000               -0.07997771                0.36171228               -0.00878050               -0.15074828               -0.06114546                0.29687425
              12.01601038                7.61325128               72.88690853                1.00000000               -0.14822933               -0.20534761                0.69214501               -0.02577764                0.28507378                0.70244428
              13.01452809                7.14932346               72.45554913                0.43036223               -0.09320488               -0.10071442                0.30992361               -0.00080364                0.49273093               -0.38136642
              14.01414628                6.68518819               72.02794537                0.00010000               -0.71777459                0.04481042               -0.06694779               -0.71555624                3.12559633               -1.18126792
              15.00017260                6.20671207               71.64939171                0.00010000               -1.00426597               -0.81455552               -0.63248461               -2.22863561                6.06445319                1.85607761
              15.99406096                5.72671308               71.27830627                0.00010000               -0.01760639               -2.04723822               -1.36856968               -3.32443156                7.51999639                5.33375754
              16.99982047                5.23397442               70.92506360                0.00010000                2.30122462               -4.42286919               -2.39586485               -6.80578443               11.54227694               10.19171337
              18.04008546                4.67689782               70.62768877                0.00010000                3.85045153               -8.66418016               -4.30800232              -15.48070307               16.57501118               16.40703994
              19.07682950                3.99460157               70.36178485                0.00010000                3.33809574                0.63318818               -7.62634839              -23.64067790               20.56461580               11.00582172
              20.10684737                3.28702664               70.11269123                0.00010000                6.65869742                5.72068384              -14.49799076              -29.30377502                4.71219253               14.53946477
              21.21000345                2.49501125               69.42170409                0.00010000                5.13118952               11.49905283              -29.21629579              -20.68187949               -4.26590150               22.57898531
              22.20947116                1.95599687               68.98308194                0.53375448               -0.05322855               12.63659121              -30.17351209               -5.07151213               -2.71648409               25.94892284
              12.47913703                8.61144845               72.75456340                0.92547396               -0.11257348               -0.15444911                0.57049322               -0.02071022                0.02064475                0.61698085
              13.47801129                8.14850206               72.31543064                0.28261780               -0.07421862               -0.07147165                0.17367640                0.03735834                0.49702757               -0.56663285
              14.47765265                7.68595748               71.88552460                0.00010000               -0.70066131                0.04706770               -0.21623892               -0.95378297                5.09887176               -1.70024605
              15.46399807                7.20245926               71.53845834                0.00010000               -0.93216973               -0.30409797               -0.94211695               -2.21509493                9.88515938                0.55509504
              16.45900926                6.71014616               71.20204865                0.00010000                0.31879476               -1.35135928               -1.92666945               -3.67730978               11.71819834                3.00717074
              17.47037396                6.19314359               70.88740711                0.00010000                1.79286504               -2.96808960               -3.33952059               -7.21299687               14.57306779                5.59446373
              18.49486656                5.62776436               70.60108799                0.00010000                2.45020171               -2.96000905               -5.52990444              -13.67128015               18.21158588                6.80101082
              19.51937800                5.00649325               70.34508623                0.00010000                2.88252247                1.79366202               -9.28354003              -19.13086663               21.06933404                7.74674914
              20.55251701                4.35159982               70.07975048                0.00010000                3.47138303                7.53796249              -17.62256964              -19.86526423               23.82545803                8.05890475
              21.58880566                3.72333508               69.81716111                0.00010000                4.73476006               19.04811452              -31.75166172              -15.72317774               16.40151444               25.01419393
              22.64721221                3.20720445               69.42803852                0.46001878                5.84065556               20.98143654              -37.06337412               -6.82598963                2.85461413               27.98243689
              12.94148895                9.61016230               72.62178013                0.92366412               -0.07227262               -0.11458922                0.45189564               -0.02816324               -0.00125015                0.64264338
              13.94076622                9.14789403               72.17715573                0.26595388               -0.01877592               -0.03943530                0.03969713                0.03758678                0.27568704               -0.44994672
              14.94111343                8.68612954               71.73785274                0.00010000               -0.45421001                0.02235594               -0.39711948               -1.05550849                6.37285133               -1.88273074
              15.93168202                8.20063011               71.41538470                0.00010000               -0.56414956               -0.08610415               -1.18134959               -2.53838635               12.65151084               -0.64340812
              16.92983044                7.69968589               71.10116308                0.00010000                0.31301527               -0.66097019               -2.29853289               -4.23134310               14.00346179                0.72700023
              17.93794233                7.17461263               70.80376672                0.00010000                1.17398763               -1.06106199               -3.84993416               -7.25108951               16.13634444                1.94627880
              18.95331019                6.61769764               70.52799923                0.00010000                1.62171904               -0.13572044               -6.12556929              -11.02333844               18.83886014                2.80511207
              19.97037671                6.03047481               70.27431619                0.00010000                1.96950354                2.81409090               -9.81024240              -13.36928353               21.91393627                3.07096789
              20.99270026                5.43778589               70.03822210                0.00010000                3.47792767                7.50848717              -16.72905975              -12.58542938               22.82050974                3.68376761
              22.03993526                4.87597354               69.77110656                0.00010000                5.62561781               12.00740824              -26.11793909               -7.40302230               15.51912811                1.71153839
              23.10521262                4.37562560               69.40891721                0.45218219                6.52773568               12.92144719              -29.75810410               -3.65853204                6.07711230                2.60790993
              13.40311031               10.60915666               72.48955205                0.93993847               -0.03145255               -0.08854330                0.33446345               -0.03220796               -0.01268460                0.70960153
              14.40279578               10.14771336               72.03931150                0.27519044                0.03480473                0.00893474               -0.10719180                0.01603815                0.18175791               -0.42870174
              15.40380640                9.68640460               71.59283547                0.00010000               -0.15608957                0.07422925               -0.60081075               -1.13323430                7.15665844               -1.71523207
              16.39967399                9.20073717               71.28247903                0.00010000               -0.17032628                0.11405478               -1.32095108               -2.68047727               14.25863806               -1.50279495
              17.40039988                8.69692675               70.98044746                0.00010000                0.38332151               -0.02125793               -2.44998221               -4.30891844               15.30095355               -0.90315025
              18.40734042                8.17192235               70.69224811                0.00010000                0.90688677                0.13602055               -4.03125077               -6.42809439               16.83779758               -0.24555668
              19.41853761                7.62504995               70.42107657                0.00010000                1.22818261                1.11637819               -6.22889351               -8.49418766               18.77839003                0.23443195
              20.43190407                7.06277507               70.16825840                0.00010000                1.83860392                3.16669584               -9.56676018               -9.38608803               20.67945470                0.42212084
              21.45530969                6.50176956               69.92408971                0.00010000                3.55007137                5.58429135              -15.00711002               -8.09095927               20.34036704                0.04112554
              22.50290550                5.96348324               69.65079378                0.00010000                5.97138782                7.24107065              -21.91792167               -4.82293291               13.28371803               -0.44763610
              23.57473745                5.46563340               69.28335966                0.45132853                7.18319465                7.25218256              -25.20851899               -2.47519148                5.86083051               -0.09535779
              13.86373140               11.60839143               72.35763331                0.94796906                0.01076456               -0.06137280                0.21257490               -0.03426940               -0.00720000                0.76734390
              14.86383905               11.14807272               71.90155505                0.28637435                0.08467615                0.06425855               -0.26351589                0.00137681                0.19868089               -0.45162916
              15.86542493               10.68761413               71.44957551                0.00010000                0.18556371                0.17714330               -0.84301350               -1.16225178                7.68638254               -1.65342512
              16.86755032               10.20291120               71.14372622                0.00010000                0.35209850                0.26633822               -1.37236446               -2.58369078               15.15477461               -1.91086074
              17.87246690                9.69926073               70.84720479                0.00010000                0.68534586                0.30364553               -2.42213658               -3.87977901               15.96339309               -1.76404972
              18.88125724                9.17733304               70.56283461                0.00010000                1.00534108                0.66118899               -3.96381361               -5.19918434               16.99999519               -1.42932639
              19.89257372                8.64002520               70.29230248                0.00010000                1.23390480                1.57232447               -6.04186346               -6.23511648               18.23234514               -1.12429256
              20.90593534                8.09380872               70.03604534                0.00010000                1.87995935                2.97630838               -8.99346772               -6.49809068               19.37841074               -0.90123944
              21.93017290                7.54947172               69.78567349                0.00010000                3.68387173                4.43859554              -13.88598928               -5.53986343               18.66319246               -0.48080710
              22.97961277                7.02079495               69.50500396                0.00010000                6.06177872                5.29353850              -20.56531910               -3.22503454               12.07175551                0.29892236
              24.05140848                6.52066925               69.13942158                0.45312471                7.17957080                5.12285766              -23.86555009               -1.92584698                5.09271396                1.48543121
              14.32306235               12.60792921               72.22599622                0.95245149                0.05382780               -0.02839504                0.08517236               -0.03469444               -0.00215743                0.79816917
              15.32360062               12.14899853               71.76354017                0.30255844                0.13302699                0.12224038               -0.43012823                0.00257081                0.28885182               -0.50976138
              16.32572289               11.68994746               71.30700561                0.00010000                0.63764743                0.30297860               -1.15006597               -1.20592528                8.19359689               -1.38319256
              17.33635357               11.20606394               71.00312561                0.00010000                1.13297882                0.20806316               -1.38472536               -2.36241671               15.72413785               -1.85311478
              18.34838246               10.70299966               70.70793388                0.00010000                1.31193457                0.23403304               -2.28349644               -3.06538548               16.20581050               -1.88414921
              19.36259226               10.18514613               70.42382416                0.00010000                1.44885684                0.70897593               -3.73310675               -3.67980531               16.76475691               -1.73431401
              20.37735960                9.65649644               70.15105631                0.00010000                1.49517415                1.55733002               -5.67543163               -4.07466310               17.42830828               -1.54663228
              21.39249575                9.12230124               69.89024751                0.00010000                2.00832984                2.70037380               -8.33344888               -4.00400757               18.11702694               -1.28129622
              22.41752620                8.59054147               69.63560722                0.00010000                3.73557657                3.98161717              -13.06447806               -3.34625000               17.49631828               -0.49250723
              23.46720728                8.06935401               69.35409193                0.00010000                5.94728567                5.01625295              -20.10605095               -1.98775732               11.38706512                0.84738191
              24.53647191                7.56809055               68.99367923                0.45716415                6.92646310                5.23341013              -23.57588810               -1.30734977                4.44552622                2.42808988
              14.78089887               13.60782353               72.09411947                0.86332421                0.09733322                0.00782043               -0.04710015               -0.03103052                0.04692538                0.74504497
              15.78187221               13.15051753               71.62511489                0.23276474                0.16710674                0.17969675               -0.59862398                0.03551051                0.76632568               -0.54636595
              16.78424101               12.69367370               71.17073142                0.00010000                1.26887920                0.41625499               -1.41562132               -1.39346952                8.92894969               -1.04073552
              17.80724979               12.20707247               70.86423514                0.00010000                2.39179938               -0.40447644               -1.39484033               -1.74079818               16.01499869               -1.27527560
              18.83207700               11.70394139               70.56854168                0.00010000                2.34572827               -0.12915146               -2.09146953               -1.80227236               16.12856591               -1.24207194
              19.85416436               11.19151256               70.28252002                0.00010000                2.09241750                0.44230207               -3.37504433               -1.87738307               16.19101068               -1.23080137
              20.87392535               10.67117180               70.00552046                0.00010000                1.88228981                1.27466734               -5.11224028               -1.93928731               16.30093667               -1.17094067
              21.89181015               10.14781620               69.73815661                0.00010000                2.11348915                2.31648051               -7.48455123               -1.70865331               16.57992296               -0.99815341
              22.91619513                9.62910406               69.47760880                0.00010000                3.52491987                3.63382133              -11.87256140               -1.18880144               15.86075921               -0.45408447
              23.96230855                9.12112001               69.19412448                0.00010000                5.57966386                4.99812836              -19.38210883               -0.64009719               10.40287312                0.53373408
              25.02778841                8.62533745               68.84000529                0.46232441                6.54798574                5.88739584              -23.43819456               -0.85069656                4.33374736                2.10088942
              15.23705375               14.60808561               71.96092047                0.91669541                0.14069215                0.02620816               -0.17473783                0.06617183                0.33929490                0.70085934
              16.23846067               14.15259246               71.48713432                0.60429703                0.21224066                0.20749325               -0.75827140                0.16819360                1.52194970               -0.57945404
              17.24129856               13.69827256               71.03735977                0.37866966                2.64046253                0.45988632               -1.73700495               -2.02514759               10.11381925               -1.09161747
              18.29126992               13.19797441               70.73160667                0.36450472                4.32991831               -0.90980574               -1.26915334               -1.49078376               16.14614846               -0.41851634
              19.32789692               12.70041663               70.43483317                0.36096312                3.32721378               -0.35247595               -1.80902157               -0.61711911               15.82904608               -0.48641676
              20.35781419               12.19399217               70.14603802                0.36338626                2.71866435                0.24796117               -2.84718466               -0.55635851               15.39491936               -0.51536128
              21.38227021               11.68198979               69.86362418                0.37209436                2.12881160                1.08179844               -4.19204330               -0.43357953               14.90970410               -0.53422974
              22.40039042               11.16863085               69.58805170                0.38732478                1.90880731                2.08146475               -5.96967931               -0.08056701               14.59358819               -0.50414203
              23.42044636               10.66321790               69.31728699                0.40968879                2.88907594                3.41138404               -9.51609094                0.45940949               13.72727252               -0.17869189
              24.45817194               10.16931658               69.02622573                0.44061032                4.52883673                4.81965694              -15.87737440                0.71736777                8.53261523               -0.73995872
              25.51102309                9.68583847               68.67016423                0.73303316                5.28511488                6.05010142              -19.70104077               -0.02434256                2.97686071                0.95436492
              11.04172025                4.75943131               74.28904632                1.00000000               -0.23944862               -0.26843751                0.93730502               -0.06136805               -0.38835729                0.49914284
              12.03932576                4.28773173               73.86159618                1.00000000               -0.20001136               -0.17376966                0.63897561               -0.03939771               -0.46754916                0.05674181
              13.03772002                3.81566309               73.43193397                1.00000000               -0.11945849               -0.08104276                0.34193579               -0.03981131               -0.48261803               -0.06084499
              14.03693659                3.34295025               73.00406314                0.62771988               -0.06578628                0.01345163                0.04046181               -0.09442909               -0.44474837               -0.36517362
              15.03640430                2.86875091               72.57554488                0.46462896               -0.01394075                0.12263939               -0.26607233               -0.13295372               -0.39551234               -0.30234380
              16.03665778                2.39310762               72.14935069                0.17551399               -0.96784382                0.20107252               -0.60314966               -1.20725935                0.64398649               -0.55949794
              17.01704742                1.89550929               71.74272954                0.00010000               -6.91720695                1.47716939               -0.72421465              -12.51484626               12.16688784               -2.30583574
              17.89831364                1.15574720               71.55195635                0.00010000               -5.28557526                1.29229729               -2.29251041              -11.81468091               23.20277969                1.58244953
              18.91133591                0.42089843               71.31791861                0.00010000                6.33506561               -1.19601768               -2.69779335               -9.57435259               20.00925723                2.11273894
              20.02501495               -0.30101919               71.05464625                1.00000000                6.09450867                0.59675881               -2.56874892               -8.90374042                8.70522475               -0.05478902
              21.03322609               -0.84128784               70.61704512                1.00000000                0.82111368                0.64823609               -2.75157328               -0.21789169                0.00902931               -0.08576933
              11.51280615                5.75674694               74.15547431                1.00000000               -0.19902541               -0.25270695                0.82147024               -0.01320239                0.03138634                0.70389978
              12.51081590                5.28599403               73.72783069                1.00000000               -0.15467516               -0.15918439                0.52348210                0.00717910                0.10900042                0.08122781
              13.50971265                4.81485266               73.30119052                1.00000000               -0.06837518               -0.06599585                0.22696169                0.00463924                0.15372106               -0.25386500
              14.50944839                4.34308477               72.87441087                0.72065600                0.01417157                0.01811516               -0.06258641               -0.03187890                0.26401711               -0.33615635
              15.50999608                3.86997731               72.45047740                0.62180919                0.08788009                0.11752632               -0.38906819               -0.06233878                0.30085288               -0.25371144
              16.51120599                3.39511834               72.02544143                0.33499412                0.02915427                0.20719929               -0.72332964               -0.51541678                0.43545548               -0.44066495
              17.51057916                2.91028099               71.60571060                0.00010000                0.31331328                0.86260761               -1.12873499              -12.50028711               11.98483498               -1.16326231
              18.51747226                2.16867018               71.41364222                0.00010000                1.66982115               -0.84114680               -2.79465867              -17.66689825               20.50492571                3.89892658
              19.54397559                1.40893826               71.15320098                0.00010000                2.47992117               -0.08717334               -2.98432629              -14.38889941               14.94157183                3.71683446
              20.56707068                0.70494840               70.84217722                1.00000000                1.36701155                0.39557817               -1.43605581               -8.01860316                6.36599007               -0.07808254
              21.57131582                0.16519452               70.40437460                1.00000000                0.42451346                0.43922938               -1.57882594               -0.16434230               -0.01955993               -0.15077282
              11.98296201                6.75437717               74.02513618                1.00000000               -0.15983895               -0.21760955                0.70253707               -0.01743952                0.17260747                0.82888702
              12.98136362                6.28454804               73.59424389                1.00000000               -0.11199687               -0.12797185                0.40723097               -0.00120791                0.36809366               -0.00304619
              13.98072207                5.81434317               73.16680119                0.00010000               -0.00946219               -0.02974731                0.11128262               -0.02876691                0.87550423               -0.69089613
              14.98117437                5.34331256               72.74611100                0.00010000                0.12009403               -0.60140018               -0.15768976               -0.73501009                1.30270939                0.97121904
              15.98312395                4.87110144               72.32778669                0.00010000                0.24356939               -1.15151992               -0.50388802               -1.08531223                1.17407203                2.79808654
              16.98604576                4.39725160               71.90591426                0.00010000                0.51829462               -2.19274845               -0.84271856               -1.25926128                1.28805389                5.43582159
              17.99348984                3.91276145               71.49179875                0.00010000                3.01363212               -5.73937554               -1.28964165              -13.84701370               14.30937903               10.16978427
              19.04631840                3.13892427               71.33248438                0.00010000                4.68949321               -1.95073827               -4.76598530              -23.30687629               20.56196914                8.24037456
              20.08727971                2.41915497               71.02112866                0.00010000                3.10341091                1.45067266               -5.11831763              -18.39500789                9.23940811                8.07873611
              21.10838662                1.70689237               70.63113462                1.00000000                1.10836411                0.06853981               -0.25619601               -8.50189842                2.35650576               -0.01074139
              22.10944699                1.16749675               70.19286933                1.00000000                0.10603670                0.09509575               -0.31597218               -0.10843706                0.05767456               -0.09106613
              12.45211562                7.75239475               73.89329463                1.00000000               -0.12898840               -0.17555227                0.58523403               -0.02315057                0.28181529                0.70472788
              13.45082574                7.28343460               73.45856353                0.41685645               -0.08714133               -0.09486446                0.29243761               -0.00299454                0.49024867               -0.38591797
              14.45037279                6.81425772               73.02762695                0.00010000               -0.64179045                0.01111787                0.00092440               -0.69920359                3.01147401               -1.18631619
              15.43798993                6.33105677               72.64345605                0.00010000               -0.80110020               -0.87717414               -0.56108900               -2.06151392                5.81989543                1.66741905
              16.43435079                5.84694691               72.26510307                0.00010000                0.31854173               -2.07641624               -1.27681412               -2.87892158                7.10096647                4.86349562
              17.44436076                5.35126337               71.90147714                0.00010000                2.88077173               -4.33494857               -2.31536922               -5.79583014               10.53242277                9.20787479
              18.49196622                4.79549348               71.58391510                0.00010000                5.02902252               -8.29272407               -4.22710984              -13.01863438               14.44897620               14.67701961
              19.54494121                4.12965541               71.28764301                0.00010000                5.80705505               -0.45762314               -7.10818966              -20.27955126               14.73590550                9.44333717
              20.60810732                3.43795171               70.95535307                0.00010000                5.18748600                3.08264478              -11.61953266              -23.33725021                3.86139824               10.92420171
              21.64869093                2.70631919               70.42311836                0.00010000                1.99154979                6.09666271                0.28560902              -15.33443345               -4.64782994               16.74737237
              22.64793832                2.16709644               69.98452374                0.47816345               -0.07526112                6.89561143                0.26620382               -5.37942103               -0.01146190               17.57827953
              12.92041929                8.75086613               73.75979863                0.93606730               -0.09785383               -0.12870600                0.47596047               -0.01922468                0.01202219                0.62997029
              13.91944075                8.28265075               73.31716467                0.27461785               -0.06517329               -0.06909648                0.17386502                0.02082324                0.48754140               -0.57651303
              14.91911583                7.81456553               72.88374983                0.00010000               -0.60929243               -0.00922241               -0.13889225               -0.97168680                4.90702203               -1.76252828
              15.90725491                7.32576908               72.52927528                0.00010000               -0.68884568               -0.40939279               -0.90557636               -2.17949230                9.46375929                0.42587691
              16.90533891                6.82957311               72.18291676                0.00010000                0.71638421               -1.43017556               -1.91527197               -3.49346327               11.04615566                2.68726554
              17.92158259                6.31055263               71.85359508                0.00010000                2.46931015               -2.96422470               -3.38202539               -6.76970622               13.39506071                5.01497307
              18.95472512                5.74690696               71.54493639                0.00010000                3.83432773               -2.99364977               -5.59710639              -12.92357895               15.70142951                6.13608619
              19.99826914                5.12977181               71.24733690                0.00010000                4.45729025                1.02852670               -9.17504436              -18.38314497               16.13220284                7.03207220
              21.04387092                4.48080786               70.92325683                0.00010000                3.71420404                5.72899465              -13.59026928              -21.67620969               12.95988509                9.63443399
              22.07255322                3.82882563               70.54918612                0.00010000                1.82165784               13.70053521              -20.11137081              -15.83044402                7.25279811               20.02557416
              23.08030408                3.30540898               70.12803888                0.44490871                0.77508527               15.32480134              -22.02653904               -7.54918969                1.56537634               21.95893875
              13.38816187                9.74982063               73.62586885                0.93720397               -0.06190782               -0.08924945                0.36450250               -0.02517262               -0.00322441                0.66178792
              14.38754280                9.28205267               73.17762561                0.26190336               -0.01705693               -0.04179042                0.05618479                0.00024113                0.24960895               -0.46733609
              15.38782074                8.81407327               72.73423771                0.00010000               -0.40751481               -0.04137461               -0.31578193               -1.11574518                6.13566645               -1.99560597
              16.37939250                8.32286891               72.40375896                0.00010000               -0.40613838               -0.17910091               -1.15750560               -2.58085106               12.15793943               -0.68941321
              17.37969797                7.81834340               72.07817953                0.00010000                0.61201434               -0.71577967               -2.32150404               -4.17826192               13.26165834                0.59603372
              18.39163279                7.29197888               71.76467655                0.00010000                1.72887513               -1.04978094               -3.94832887               -7.14104717               14.95625943                1.71208801
              19.41427547                6.73562048               71.46502822                0.00010000                2.58723135               -0.14960148               -6.30458619              -10.97990475               16.66573076                2.54212350
              20.44337741                6.15022595               71.17292706                0.00010000                3.06269198                2.68125139               -9.83094182              -14.18602391               17.53586715                3.31169903
              21.47552931                5.55253160               70.87305442                0.00010000                3.20517612                7.09752938              -15.00555037              -14.44598317               16.10378673                4.80557730
              22.50748094                4.98032990               70.54219189                0.00010000                3.41292562               12.72398720              -20.27465379               -9.46791407               10.02940337                6.66365915
              23.54378782                4.47359246               70.14411817                0.44362906                3.63068867               14.05891814              -23.03936747               -4.18397872                4.36331518                7.61893602
              13.85545176               10.74908114               73.49249392                0.95501996               -0.02588238               -0.06078373                0.25305618               -0.02724843               -0.01228012                0.72915225
              14.85519293               10.28181495               73.03841265                0.27770945                0.02664612               -0.00152778               -0.06955922               -0.03139764                0.13902103               -0.45532968
              15.85598468                9.81373804               72.58725261                0.00010000               -0.19125871                0.00787247               -0.48672770               -1.19577264                6.92276681               -1.84229068
              16.85136776                9.32218706               72.26936148                0.00010000               -0.16604856                0.05980642               -1.31073657               -2.73399374               13.79591509               -1.47342560
              17.85266371                8.81525752               71.95579326                0.00010000                0.50584016               -0.02020585               -2.50340074               -4.28446324               14.58666519               -0.88083337
              18.86148456                8.28955701               71.65131312                0.00010000                1.21081233                0.20988357               -4.15471679               -6.40677014               15.79209447               -0.29533341
              19.87687995                7.74391493               71.35698786                0.00010000                1.80764909                1.27427848               -6.46614603               -8.65474346               17.03015336                0.18370031
              20.89763754                7.18339683               71.06880936                0.00010000                2.39836759                3.42685600               -9.79998756               -9.98737725               17.57596738                0.58013115
              21.92484731                6.62275845               70.77388351                0.00010000                3.22482694                6.35229345              -14.26582725               -9.22981767               15.76084092                0.84998532
              22.96213408                6.08330537               70.44532876                0.00010000                4.26260308                8.80932544              -18.81782429               -5.66956575                9.77372019                0.88040912
              24.01009937                5.58658734               70.04904959                0.44376011                4.79652854                9.40148468              -21.20976787               -2.70087028                4.38262375                1.03863505
              14.32214929               11.74860495               73.35937807                0.96336968                0.01086493               -0.03315386                0.13751145               -0.02677923               -0.00491034                0.78083868
              15.32225794               11.28202211               72.89923104                0.29381381                0.06919392                0.04367071               -0.19790605               -0.05036840                0.12769546               -0.48381959
              16.32353317               10.81423072               72.44174103                0.00010000                0.04676017                0.09544033               -0.66423271               -1.18204402                7.50056809               -1.80484927
              17.32319314               10.32406504               72.12984729                0.00010000                0.15527885                0.26239879               -1.38601811               -2.57784966               14.81874290               -1.84181121
              18.32663875                9.81793928               71.82257081                0.00010000                0.58234122                0.38985761               -2.51439832               -3.82190497               15.34844636               -1.66637829
              19.33483997                9.29617655               71.52259003                0.00010000                1.03510164                0.82786407               -4.10106771               -5.16937487               16.13808984               -1.40399162
              20.34734078                8.76110605               71.23039933                0.00010000                1.49731913                1.82597066               -6.28073589               -6.32120948               16.91841199               -1.16881185
              21.36478635                8.21876307               70.94225672                0.00010000                2.18418195                3.40502036               -9.34391212               -6.71560554               17.03915262               -0.98832675
              22.39102442                7.67957747               70.64563522                0.00010000                3.27371890                5.20492245              -13.42423496               -5.81807407               15.03019317               -0.85079099
              23.43026073                7.15651641               70.31589894                0.00010000                4.60910274                6.56384081              -17.57950974               -3.50292824                9.20100360               -0.63183306
              24.48320647                6.66162216               69.92003977                0.44470113                5.29457444                6.68883560              -20.08811975               -1.79617230                4.24560614               -0.24378783
              14.78808185               12.74841806               73.22649043                0.96763475                0.04779463               -0.00307113                0.01729993               -0.02507492               -0.00190968                0.80272574
              15.78855980               12.28268836               72.75974542                0.31418324                0.11095100                0.08983477               -0.32756366               -0.05368652                0.16568193               -0.54272759
              16.79030087               11.81564685               72.29647866                0.00010000                0.37712045                0.18653115               -0.86333461               -1.11139147                8.07564791               -1.53690381
              17.79610221               11.32743503               71.98896730                0.00010000                0.69066141                0.28474116               -1.41081196               -2.20974584               15.59804927               -1.80774608
              18.80411410               10.82305467               71.68441447                0.00010000                0.94140436                0.44466106               -2.41255634               -2.96961405               15.75266464               -1.78605037
              19.81493029               10.30611429               71.38597805                0.00010000                1.18775755                0.96382912               -3.87212141               -3.65438457               16.14422422               -1.70774256
              20.82786925                9.78043435               71.09345698                0.00010000                1.49618589                1.84978568               -5.87200268               -4.11778955               16.51179636               -1.64593399
              21.84485401                9.25149724               70.80334133                0.00010000                2.14316175                3.06305834               -8.69878202               -4.07783357               16.34268996               -1.57207096
              22.87073248                8.72685690               70.50406575                0.00010000                3.25884103                4.39287101              -12.59430461               -3.32250523               14.28004949               -1.42423428
              23.91003083                8.21458219               70.17269933                0.00010000                4.66159659                5.42846094              -16.74975417               -1.91828267                8.69030387               -1.08341879
              24.96396442                7.72036405               69.77800968                0.44639989                5.39335849                5.65856769              -19.58071542               -1.13243120                4.12932627               -0.61824022
              15.25310720               13.74854353               73.09331068                0.87292774                0.08482278                0.02920279               -0.10768891               -0.02188169                0.04819593                0.74556011
              16.25395543               13.28381881               72.61989385                0.24231358                0.17257347                0.13389212               -0.45200183               -0.04158063                0.60245444               -0.57307785
              17.25655867               12.81796134               72.15781282                0.00010000                0.88174882                0.23447690               -1.06129615               -1.08618245                8.86543229               -1.22536901
              18.27159040               12.32975986               71.85006016                0.00010000                1.60042691               -0.11225449               -1.40578983               -1.48588018               16.11898956               -1.23245665
              19.28856721               11.82683250               71.54696561                0.00010000                1.63911002                0.21437975               -2.23215300               -1.71690415               15.94673964               -1.19678175
              20.30437260               11.31545313               71.24843053                0.00010000                1.55174185                0.78990254               -3.51959317               -1.90081786               15.92775275               -1.21582635
              21.31960204               10.79810176               70.95408290                0.00010000                1.62172626                1.60100472               -5.28931790               -2.00650470               15.92810063               -1.24792960
              22.33680713               10.28002423               70.66085911                0.00010000                2.09436629                2.61776106               -7.81295079               -1.83315283               15.51419548               -1.26180514
              23.36148937                9.76743489               70.35830580                0.00010000                3.07903974                3.74722569              -11.45268644               -1.35470484               13.48690117               -1.23893462
              24.39838792                9.26508562               70.02500444                0.00010000                4.37523737                4.74816166              -15.55110276               -0.70560336                8.21397669               -1.10010489
              25.44899412                8.77479351               69.63066788                0.44889856                5.06061935                5.32924751              -18.80062295               -0.65385770                3.92406062               -0.89671447
              15.71709366               14.74900212               72.95886692                0.92052280                0.12167114                0.04585885               -0.22650349                0.03505454                0.33509746                0.69929286
              16.71831037               14.28536620               72.48054861                0.60406845                0.27712531                0.15473944               -0.57360319                0.00220781                1.26696184               -0.59681446
              17.72263617               13.82033638               72.02123743                0.37396106                1.96015369                0.23750422               -1.33276494               -1.40106317               10.08322986               -1.29323028
              18.75751344               13.32518994               71.71864003                0.36427680                3.07232905               -0.45699203               -1.32255220               -1.05740168               16.64127262               -0.48147980
              19.78408275               12.82734227               71.41610554                0.36096008                2.40656137                0.05097671               -1.99429131               -0.61232589               16.00544355               -0.52737236
              20.80564467               12.32191234               71.11720349                0.36321871                1.95426548                0.64592120               -3.07075211               -0.61718439               15.70668488               -0.57356273
              21.82316806               11.81245444               70.82112925                0.37134454                1.66065769                1.43526776               -4.53192117               -0.54639287               15.41747779               -0.65140520
              22.83885783               11.30385246               70.52509903                0.38545984                1.77044698                2.38282292               -6.61794945               -0.32758166               14.86015890               -0.73068846
              23.85857700               10.80180141               70.22001899                0.40623885                2.48511594                3.43665209               -9.69753204               -0.00658944               12.94672292               -0.91054922
              24.88856014               10.30954542               69.88605581                0.43139089                3.64472457                4.44597949              -13.31698301                0.27460166                7.97395499               -1.06399965
              25.93147149                9.82694900               69.49165203                0.72518649                4.29113424                5.21554913              -16.46667833               -0.01190454                4.15246068               -1.30665580
              11.46677971                4.89855238               75.29767800                1.00000000               -0.20842659               -0.22582438                0.79157275               -0.04583789               -0.38771746                0.49543845
              12.46469544                4.42263534               74.86768597                1.00000000               -0.18137280               -0.15824578                0.57928471               -0.02627155               -0.46740310                0.05569386
              13.46315225                3.94638145               74.43548889                1.00000000               -0.12558731               -0.09136169                0.36738158               -0.02627010               -0.48350824               -0.05874463
              14.46218369                3.46954749               74.00504449                0.63531307               -0.09184722               -0.02395108                0.15186544               -0.07439130               -0.44732106               -0.34831147
              15.46131531                2.99140224               73.57392380                0.46510200               -0.05782295                0.05480976               -0.06494865               -0.10830699               -0.41227139               -0.30296200
              16.46102723                2.51203094               73.14483396                0.16229544               -1.10350878                0.10505954               -0.30999975               -1.20285074                0.72754265               -0.55804016
              17.43924513                2.01044856               72.73757329                0.00010000               -5.88889900                1.45102192               -0.32811610              -10.26779659               11.61321166               -2.52912693
              18.34324925                1.30924028               72.52981801                0.00010000               -3.97414423                0.77589547               -2.06820062               -9.70272160               22.16125496                1.06103726
              19.35976225                0.60418153               72.29098558                0.00010000                6.02255230               -1.25686700               -2.60500424               -8.25054820               19.78556360                1.49320258
              20.46370030               -0.09571012               72.02918272                1.00000000                5.58758785                0.55693029               -2.49985355               -7.82918810                8.87885249               -0.07113273
              21.47151400               -0.63593460               71.59029696                1.00000000                0.78137016                0.58575605               -2.59547828               -0.18010952               -0.00797725               -0.05756658
              11.94223837                5.89629414               75.16301435                1.00000000               -0.17201787               -0.21197821                0.68881162               -0.01142827                0.02922406                0.69777224
              12.94051819                5.42105288               74.73283314                1.00000000               -0.14024497               -0.14563781                0.47705095                0.00696934                0.10656664                0.07980389
              13.93943347                4.94546783               74.30366810                1.00000000               -0.07944039               -0.07872659                0.26632337                0.00491101                0.15638323               -0.25121281
              14.93892938                4.46930798               73.87444086                0.74933181               -0.02214807               -0.02089649                0.06377155               -0.02684145                0.25556386               -0.31283745
              15.93899051                3.99195034               73.44771719                0.63943296                0.02730907                0.05123714               -0.17119799               -0.05516633                0.27486618               -0.24625393
              16.93947557                3.51308154               73.01981387                0.33497226               -0.05140066                0.11253723               -0.41337292               -0.47976900                0.37565856               -0.43074675
              17.93796250                3.02495878               72.59649971                0.00010000                0.49399959                0.78952961               -0.72585942              -10.53011051               11.31743321               -1.29023649
              18.94935556                2.31699923               72.38901150                0.00010000                2.08847326               -1.23020496               -2.18157413              -14.61826665               19.74717223                2.68459103
              19.97973196                1.59161286               72.12662537                0.00010000                2.80554631               -0.37863725               -2.41715728              -12.08810892               15.56962208                2.45739853
              21.00546648                0.90985918               71.82837392                1.00000000                1.51027145                0.39540834               -1.40278351               -6.92936409                7.02963326               -0.08498244
              22.00993739                0.36992296               71.38949071                1.00000000                0.44709074                0.42183807               -1.48551857               -0.15443406                0.00608642               -0.09352531
              12.41703366                6.89431282               75.03155830                1.00000000               -0.13725212               -0.18053769                0.58356340               -0.01549839                0.16872757                0.82231650
              13.41566114                6.41972258               74.59815253                1.00000000               -0.10191440               -0.11842774                0.37423826               -0.00116797                0.36317915               -0.00365922
              14.41499537                5.94480692               74.16819266                0.00010000               -0.02483887               -0.04773038                0.16457518               -0.02716227                0.88489763               -0.68610668
              15.41516436                5.46912956               73.74526552                0.00010000                0.07215267               -0.62059087               -0.01732408               -0.61074630                1.28910569                0.82396896
              16.41643842                4.99242698               73.32394585                0.00010000                0.16295263               -1.15487125               -0.27340489               -0.78895896                1.13178657                2.44311530
              17.41842341                4.51428169               72.89917497                0.00010000                0.41434021               -2.13152231               -0.51736289               -0.70032511                1.20174523                4.70941720
              18.42472523                4.02623916               72.48105982                0.00010000                3.29032192               -5.38291056               -0.86765582              -11.23544502               12.78651647                8.75131324
              19.48422985                3.28463618               72.29037467                0.00010000                5.02074451               -2.41917233               -3.63079902              -18.94381452               18.73812999                6.02856355
              20.52514012                2.59660878               71.98306019                0.00010000                3.12865339                0.58848201               -3.19854279              -15.17850538               10.55842238                5.06504315
              21.54680292                1.91219805               71.62760313                1.00000000                1.15788286                0.10240066               -0.40079537               -7.08484680                4.16206380               -0.02078091
              22.54829777                1.37250216               71.18866289                1.00000000                0.14948572                0.12349753               -0.45766796               -0.14490032                0.01267961               -0.04420327
              12.89110887                7.89268339               74.89861321                1.00000000               -0.11081391               -0.14195938                0.47965386               -0.01931849                0.27811040                0.70425384
              13.89000074                7.41868433               74.46139788                0.41597514               -0.08128150               -0.09064309                0.27392978               -0.00101889                0.48495592               -0.38675006
              14.88948325                6.94451322               74.02796386                0.00010000               -0.54531723               -0.03553810                0.06395662               -0.65505233                2.84996963               -1.19338481
              15.87909439                6.45689617               73.63816993                0.00010000               -0.57120195               -0.92278408               -0.49126864               -1.83591723                5.44454852                1.40427536
              16.87805921                5.96885291               73.25276999                0.00010000                0.62812501               -2.08059889               -1.17218770               -2.36354610                6.46219235                4.25275630
              17.89165689                5.47045109               72.87875621                0.00010000                3.24199501               -4.20190238               -2.14760443               -4.68601021                9.22086340                8.02814490
              18.94289911                4.91730057               72.54314657                0.00010000                5.42263753               -7.84330973               -3.80776990              -10.57036031               11.88986490               12.69617129
              20.00010964                4.26861579               72.21962106                0.00010000                5.28504399               -1.13927653               -5.81586219              -16.72231583               11.71419958                7.54891173
              21.04859999                3.60338250               71.88030057                0.00010000                4.38832636                1.49891813               -6.14335033              -18.59916031                4.39156134                7.71728816
              22.08787617                2.91190720               71.42741627                0.00010000                1.89155887                4.62874947                0.46100205              -12.43564639               -0.66916593                9.41689264
              23.08643116                2.37239291               70.98840601                0.44397326               -0.14450059                5.71433227                0.42010566               -5.32560664               -0.01061423                9.97257355
              13.36464540                8.89147363               74.76408261                0.94922129               -0.08344846               -0.09903064                0.38161919               -0.01628829                0.00502473                0.63341601
              14.36381092                8.41790972               74.31890794                0.28213139               -0.04814607               -0.06925015                0.17452397                0.00056606                0.46997749               -0.58022747
              15.36368248                7.94409615               73.88274675                0.00010000               -0.48522982               -0.08992878               -0.05917403               -0.95128387                4.62612153               -1.81042669
              16.35410632                7.45067388               73.52034681                0.00010000               -0.40349557               -0.50702615               -0.87034560               -2.07382728                8.82267276                0.27271620
              17.35561257                6.95081501               73.16374321                0.00010000                1.10746122               -1.50614242               -1.88308415               -3.21717127               10.04861742                2.31267052
              18.37625555                6.43024364               72.81976660                0.00010000                2.97703777               -2.96573738               -3.29280775               -6.14400580               11.68330213                4.38462593
              19.41515333                5.86937296               72.48914586                0.00010000                4.37230298               -3.04059639               -5.27379961              -11.64589032               12.83757956                5.35403459
              20.46370161                5.26185065               72.16158534                0.00010000                4.73560864                0.33102731               -7.73805318              -16.49138051               11.87897610                6.33557549
              21.50986550                4.62658714               71.80794510                0.00010000                3.26889840                3.99441341               -9.74389681              -18.00832143                8.41340590                7.91512411
              22.52907958                4.00477304               71.41493369                0.00010000                0.54743595               10.05984394              -10.82647627              -12.91074626                4.08036722               14.41525825
              23.52081422                3.48678880               70.98750774                0.44095944               -0.82653569               11.73003488              -11.03768458               -6.68866362                1.41838964               16.02937944
              13.83791093                9.89070277               74.62907018                0.95243255               -0.05213949               -0.06215753                0.27710932               -0.02125268               -0.00341937                0.66446434
              14.83738953                9.41729932               74.17827942                0.27574682               -0.01087617               -0.04541961                0.07456854               -0.04907668                0.20859667               -0.47537188
              15.83769341                8.94271465               73.73153710                0.00010000               -0.32452703               -0.10203458               -0.20497553               -1.14566283                5.77617894               -2.03000541
              16.83089899                8.44675564               73.39223459                0.00010000               -0.17736923               -0.27467761               -1.13767426               -2.55196326               11.40383431               -0.73206481
              17.83414602                7.93873006               73.05473300                0.00010000                0.96599129               -0.79481037               -2.33169636               -4.05251642               12.14364448                0.46928541
              18.85021882                7.41113635               72.72480014                0.00010000                2.21141355               -1.10707248               -3.92445464               -6.82546253               13.20918036                1.50771962
              19.87837429                6.85648864               72.40190750                0.00010000                3.14245149               -0.30100537               -6.07509928              -10.47044481               13.87278967                2.38629674
              20.91306785                6.27523633               72.07769735                0.00010000                3.35684382                2.15986899               -8.83380331              -13.51958580               13.33748415                3.32950470
              21.94551117                5.68327076               71.73811109                0.00010000                2.81958664                5.98006664              -12.01633870              -13.89953247               10.83316712                5.11436391
              22.96945958                5.11310408               71.36561349                0.00010000                2.15575945               10.13056667              -15.00732727               -9.10714552                6.25311638                7.16522947
              23.98862636                4.60699361               70.94812986                0.44148893                1.91667751               11.18478447              -16.34021789               -3.90434468                2.68390496                7.93232613
              14.31102725               10.89023048               74.49461318                0.97158326               -0.02097379               -0.03455375                0.17316167               -0.02209901               -0.01085845                0.72924527
              15.31081751               10.41700133               74.03792032                0.29513283                0.01428291               -0.01178846               -0.02922200               -0.07672796                0.08768179               -0.46623766
              16.31131291                9.94205546               73.58310092                0.00010000               -0.18829350               -0.02117754               -0.31697085               -1.23471844                6.54980044               -1.83620633
              17.30705164                9.44518033               73.25626430                0.00010000               -0.05656840               -0.01432406               -1.29689381               -2.74701293               13.04503527               -1.42772845
              18.31018154                8.93491880               72.93037944                0.00010000                0.74680385               -0.07090503               -2.54625783               -4.22655388               13.50517176               -0.83233186
              19.32198772                8.40810219               72.60915377                0.00010000                1.57314524                0.17259663               -4.18843574               -6.27971208               14.18995968               -0.24547124
              20.34164444                7.86335285               72.29175365                0.00010000                2.22700264                1.18455985               -6.36180095               -8.50765944               14.59759926                0.30553302
              21.36652777                7.30504803               71.97225865                0.00010000                2.61813316                3.21369433               -9.16207611               -9.93748649               14.05237015                0.92113131
              22.39400711                6.74618848               71.63877317                0.00010000                2.83430258                5.95014440              -12.41988949               -9.30201385               11.73264126                1.61191714
              23.42321382                6.20738437               71.27443730                0.00010000                3.04705792                8.38418224              -15.36513287               -5.79676390                6.93940893                2.24103768
              24.45494827                5.71048449               70.85916430                0.44248610                3.17344429                8.99198964              -16.81809826               -2.71935890                3.09614508                2.30112160
              14.78392725               11.89001170               74.36038354                0.98038779                0.01027412               -0.00896831                0.06769570               -0.02046860               -0.00261717                0.77388712
              15.78402999               11.41706356               73.89759692                0.31398180                0.04463916                0.02399204               -0.13067379               -0.08060401                0.07078283               -0.49277810
              16.78482004               10.94229110               73.43629085                0.00010000               -0.04672972                0.05410676               -0.41783196               -1.19466657                7.15053993               -1.77530253
              17.78309540               10.44646916               73.11600585                0.00010000                0.09365231                0.22579087               -1.36734215               -2.58260123               14.15605769               -1.74661998
              18.78669308                9.93731196               72.79691682                0.00010000                0.65475616                0.39825285               -2.58743557               -3.78187094               14.40040376               -1.52519985
              19.79619052                9.41458828               72.48081326                0.00010000                1.22910923                0.85242933               -4.18678024               -5.13428051               14.78066964               -1.24099529
              20.81127527                8.88017984               72.16668777                0.00010000                1.76459873                1.82706691               -6.28363555               -6.32451272               14.92287022               -0.96172442
              21.83148250                8.33951022               71.84916709                0.00010000                2.29296413                3.36046994               -8.95865095               -6.78465917               14.21551866               -0.70159759
              22.85713455                7.80227365               71.51718879                0.00010000                2.88728945                5.15988671              -12.03415921               -5.94802113               11.79832712               -0.47810455
              23.88922829                7.28078772               71.15341376                0.00010000                3.54521925                6.55978819              -14.86613748               -3.57923256                6.97337234               -0.37722428
              24.92803894                6.78683340               70.73765918                0.44296476                3.88106479                6.73065717              -16.43218886               -1.72095929                3.19018024               -0.48522359
              15.25651416               12.89005112               74.22634221                0.98422123                0.04118684                0.01732726               -0.04055372               -0.01853452               -0.00034087                0.78658460
              16.25692603               12.41748117               73.75698890                0.33675971                0.07499024                0.05946158               -0.22881307               -0.07621828                0.09821247               -0.54607124
              17.25801397               11.94313760               73.28973891                0.00010000                0.17263585                0.10582276               -0.51521147               -1.06108594                7.76623121               -1.50492428
              18.26037875               11.44969615               72.97490937                0.00010000                0.42055170                0.31407172               -1.38478792               -2.14361759               15.07868998               -1.69680808
              19.26642500               10.94288386               72.65968275                0.00010000                0.80277412                0.55013587               -2.51407591               -2.92985164               15.00569532               -1.62540863
              20.27643423               10.42515078               72.34638173                0.00010000                1.19036229                1.06911533               -4.00884035               -3.67890297               15.09202061               -1.52691950
              21.29023225                9.89989419               72.03361626                0.00010000                1.61532722                1.91805497               -5.96628273               -4.20549206               14.97652205               -1.45046403
              22.30874078                9.37225743               71.71627187                0.00010000                2.17684673                3.06560840               -8.46682218               -4.20596589               14.09631924               -1.40586843
              23.33376918                8.84938621               71.38372113                0.00010000                2.91643241                4.30492379              -11.37268634               -3.45120093               11.62875655               -1.39403276
              24.36706943                8.33858013               71.01909685                0.00010000                3.73342705                5.24868547              -14.14647142               -1.96454310                6.86484812               -1.44739239
              25.40843773                7.84509764               70.60206492                0.44392738                4.13683000                5.34637097              -15.89630301               -1.00305970                3.19582273               -1.69196193
              15.72869645               13.89035824               74.09196569                0.88440545                0.07226937                0.04539369               -0.15255009               -0.01663800                0.05118946                0.72526255
              16.72941915               13.41825279               73.61607485                0.26181564                0.13434435                0.09327412               -0.32260531               -0.07236642                0.50508519               -0.56975063
              17.73138334               12.94440755               73.14950550                0.00010000                0.55288222                0.12105797               -0.65077741               -0.93222158                8.56642830               -1.20778796
              18.74047679               12.45275060               72.83611934                0.00010000                1.06290398                0.07444598               -1.37680134               -1.36221840               15.77255703               -1.13401567
              19.75264142               11.94831468               72.52389862                0.00010000                1.25626684                0.43527379               -2.37891642               -1.68813386               15.46023755               -1.08742901
              20.76560213               11.43597059               72.21212815                0.00010000                1.37086790                0.99121054               -3.73521889               -1.96418978               15.24868832               -1.08611818
              21.78005878               10.91854094               71.89973411                0.00010000                1.61345171                1.74873889               -5.51058495               -2.13281106               14.91215868               -1.10836674
              22.79787116               10.40082239               71.58189759                0.00010000                2.08645235                2.66399020               -7.79588641               -2.01028625               13.91723482               -1.16052044
              23.82178782                9.88837213               71.24855508                0.00010000                2.81774181                3.60971561              -10.49978772               -1.52030501               11.46350942               -1.23714956
              24.85422600                9.38576143               70.88310243                0.00010000                3.65774564                4.36768554              -13.18401173               -0.78313631                6.77851776               -1.32815126
              25.89494274                8.89376082               70.46399284                0.44542723                4.07167389                4.63197084              -15.09660807               -0.47795411                3.26219233               -1.71889234
              16.20039232               14.89095899               73.95639040                0.92474481                0.10370771                0.06007452               -0.26005147                0.00835301                0.32365953                0.67711832
              17.20142940               14.41934665               73.47566225                0.60921888                0.22397047                0.10938661               -0.41893399               -0.06898662                1.09531378               -0.58610486
              18.20487173               13.94555876               73.01070447                0.37304005                1.38989284                0.11512047               -0.83517614               -1.05924036                9.76054168               -1.23518247
              19.22922725               13.45118507               72.70515562                0.36398672                2.22853041               -0.15655282               -1.36510400               -0.82342511               16.58814599               -0.48922864
              20.24944234               12.95158933               72.39494735                0.36085617                1.88484629                0.32746493               -2.24790786               -0.63041218               15.81904613               -0.51838104
              21.26692418               12.44497499               72.08462298                0.36310705                1.66409447                0.90044037               -3.46191682               -0.70381300               15.44712001               -0.55080805
              22.28272423               11.93486897               71.77298576                0.37064287                1.58898429                1.63280295               -5.04845033               -0.70534303               15.00190358               -0.61998352
              23.29870386               11.42553723               71.45569271                0.38360367                1.78499077                2.47148437               -7.09255493               -0.58115214               14.01475659               -0.73411298
              24.31842404               10.92158052               71.12333635                0.40288414                2.36570720                3.32083947               -9.55377820               -0.31654761               11.71598177               -0.90779431
              25.34601801               10.42593385               70.75988607                0.42733428                3.22279132                4.01724152              -12.06615246               -0.01297243                7.17032949               -1.11503996
              26.38287987                9.93773705               70.34083066                0.72315003                3.68618595                4.39762355              -13.97571109               -0.02596617                3.86616260               -1.72165775
              11.89394996                5.03866737               76.30487778                1.00000000               -0.17831521               -0.18452873                0.65117887               -0.03130135               -0.38797253                0.49227630
              12.89216681                4.55855126               75.87318187                1.00000000               -0.16293145               -0.14277122                0.52021552               -0.01421109               -0.46858429                0.05494101
              13.89069133                4.07812979               75.43928160                1.00000000               -0.13057752               -0.10051469                0.38915669               -0.01387143               -0.48584291               -0.05644460
              14.88955526                3.59719130               75.00710045                0.64383530               -0.11609646               -0.05843015                0.25479504               -0.05571251               -0.44932918               -0.33112025
              15.88836940                3.11510490               74.57424590                0.46668097               -0.09980560               -0.00747212                0.12173488               -0.08511803               -0.42563904               -0.30290722
              16.88755915                2.63198698               74.14315070                0.15051941               -1.20209029                0.01754166               -0.03598313               -1.16380085                0.81663813               -0.55756792
              17.86432760                2.12707390               73.73616722                0.00010000               -4.97163504                1.39158281                0.00535101               -8.33003970               11.01221020               -2.75390678
              18.78812645                1.45858098               73.51059234                0.00010000               -2.83225581                0.32243643               -1.75578205               -7.96318966               20.94625702                0.65384327
              19.80768248                0.77948290               73.26581852                0.00010000                5.75770863               -1.34712836               -2.40070816               -7.13794880               19.45298945                1.03769686
              20.90328062                0.09917575               73.00464918                1.00000000                5.15777878                0.56525887               -2.45296268               -6.86373912                8.93871579               -0.04705808
              21.91083806               -0.44082666               72.56513555                1.00000000                0.75574380                0.57847530               -2.48758977               -0.16364947                0.00266024               -0.01827472
              12.37375306                6.03682208               76.16925054                1.00000000               -0.14595687               -0.17213600                0.56103090               -0.00994689                0.02686211                0.69195452
              13.37229349                5.55712355               75.73737171                1.00000000               -0.12602294               -0.13205686                0.43077245                0.00642976                0.10364755                0.07874145
              14.37123260                5.07712464               75.30651699                1.00000000               -0.08914556               -0.09022577                0.30105058                0.00495785                0.15866562               -0.24786151
              15.37051058                4.59660700               74.87568630                0.77664143               -0.05561076               -0.05642195                0.17996318               -0.02232123                0.24906254               -0.28940247
              16.37012038                4.11503018               74.44705344                0.65641073               -0.02869688               -0.00969797                0.03000388               -0.04818874                0.25338842               -0.23967341
              17.36993664                3.63216240               74.01717397                0.33640997               -0.11950902                0.02553138               -0.12528455               -0.43164498                0.32186595               -0.42285816
              18.36773020                3.14098973               73.59119342                0.00010000                0.61767044                0.70334762               -0.34426635               -8.83320921               10.69587634               -1.42733625
              19.38229005                2.46180534               73.37001073                0.00010000                2.41377022               -1.48474958               -1.67812099              -12.20119612               19.02297813                1.75531781
              20.41600561                1.76601162               73.10485783                0.00010000                3.12539812               -0.63511389               -2.01432712              -10.17198939               15.85465413                1.61548649
              21.44479801                1.10482834               72.81412155                1.00000000                1.65991829                0.41293299               -1.43393092               -5.91544753                7.43985922               -0.05469015
              22.44920397                0.56495809               72.37466423                1.00000000                0.44059622                0.42620206               -1.46786171               -0.14987424                0.00032431               -0.04178409
              12.85314809                7.03522465               76.03680745                1.00000000               -0.11552479               -0.14332849                0.46856106               -0.01368096                0.16478211                0.81495590
              13.85199284                6.55591012               75.60172866                1.00000000               -0.09205264               -0.10896810                0.34091264               -0.00093311                0.35825822               -0.00335467
              14.85130704                6.07632527               75.17009269                0.00010000               -0.03947743               -0.06443590                0.21279103               -0.02398637                0.89398646               -0.68188377
              15.85120329                5.59606286               74.74576452                0.00010000                0.02715958               -0.62730106                0.11081840               -0.49250678                1.27704139                0.63993916
              16.85185023                5.11491094               74.32231859                0.00010000                0.08817024               -1.14127552               -0.06086024               -0.53386404                1.09626988                2.02960856
              17.85296670                4.63249761               73.89556700                0.00010000                0.30851197               -2.04638781               -0.21585150               -0.26526407                1.12960580                3.94024583
              18.85802047                4.14114085               73.47444563                0.00010000                3.30569664               -4.98294363               -0.46488393               -9.12215723               11.61019373                7.37699953
              19.91908063                3.42888598               73.25986840                0.00010000                5.15996133               -2.61911813               -2.66713995              -15.72895375               17.56962576                4.34435163
              20.96121970                2.76678063               72.95715780                0.00010000                3.34722825                0.07004715               -2.30896323              -12.46569213               11.76270236                3.05723062
              21.98602520                2.10743441               72.62311871                1.00000000                1.31806843                0.12490741               -0.45072405               -5.83395413                5.27433325               -0.05669624
              22.98758106                1.56769738               72.18371597                1.00000000                0.15558672                0.13724839               -0.48188176               -0.14657439               -0.00277283               -0.05656980
              13.33210849                8.03395551               75.90288770                1.00000000               -0.09342894               -0.10735833                0.37726268               -0.01508109                0.27379852                0.69952734
              14.33117420                7.55494418               75.46404213                0.42793125               -0.07541790               -0.08727316                0.25452994                0.00318651                0.47634583               -0.38334558
              15.33060013                7.07583592               75.02890608                0.00010000               -0.45497146               -0.07707548                0.12226096               -0.59954298                2.64940116               -1.19598715
              16.32207477                6.58406098               74.63363068                0.00010000               -0.37958885               -0.94520572               -0.40647375               -1.60613216                4.97108608                1.07793398
              17.32300835                6.09220467               74.24165931                0.00010000                0.81633381               -2.05237168               -1.01993239               -1.88925445                5.73105033                3.54056972
              18.33840145                5.59123464               73.85852505                0.00010000                3.29451629               -4.01481914               -1.85313749               -3.69972656                7.88539600                6.74906877
              19.38889868                5.04133086               73.50775970                0.00010000                5.18348762               -7.29570640               -3.15432298               -8.50870825               10.00397298               10.71119353
              20.44207120                4.40942298               73.17132577                0.00010000                4.96223294               -1.52394829               -4.29008496              -13.79747474               10.16375474                5.68689911
              21.48814334                3.76741256               72.83248606                0.00010000                4.25654873                0.72596006               -4.19310648              -15.22627494                6.85823050                4.74644920
              22.52720217                3.10732649               72.43233841                0.00010000                1.88016018                3.57495822                0.45108109              -10.55683863                1.95317973                4.51597298
              23.52574654                2.56770306               71.99292586                0.43446373               -0.14556312                4.92876706                0.42392063               -5.16520720                0.01984776                5.20715381
              13.81086912                9.03307748               75.76743102                0.96506726               -0.06929609               -0.06880830                0.29014579               -0.01295729               -0.00042048                0.62707696
              14.81017616                8.55416466               75.32065515                0.29741192               -0.03348674               -0.07056639                0.17369389               -0.01100556                0.44794478               -0.57663524
              15.81019939                8.07478376               74.88256635                0.00010000               -0.37321282               -0.13584632                0.02096948               -0.91084458                4.25584494               -1.80435980
              16.80271190                7.57715875               74.51186837                0.00010000               -0.16539546               -0.58754244               -0.80548882               -1.93608725                8.01528632                0.08454783
              17.80689148                7.07386351               74.14525508                0.00010000                1.35670393               -1.55558988               -1.76786633               -2.89802862                8.88106839                1.87844768
              18.82984598                6.55220122               73.78773893                0.00010000                3.13832447               -2.92442717               -3.01761225               -5.41981679                9.91694476                3.67388119
              19.86965797                5.99522673               73.43946040                0.00010000                4.36017238               -3.02961146               -4.57484808              -10.19294177               10.38675181                4.47834060
              20.91704943                5.39840702               73.09257584                0.00010000                4.45663611               -0.16401259               -6.16906393              -14.10372960                9.33603042                5.00523208
              21.95879069                4.78129983               72.72837890                0.00010000                2.87742493                2.82891245               -6.96392665              -15.16701330                6.45444489                5.49824582
              22.97459793                4.17893357               72.33265659                0.00010000                0.23665424                7.84021967               -7.05917331              -10.98523929                3.19882172                7.71632071
              23.96352377                3.66627272               71.90728519                0.43576160               -1.10741552                9.64396832               -6.70207024               -5.93175380                1.65323148                8.96855708
              14.28967499               10.03257934               75.63141103                0.97036906               -0.04271827               -0.03623999                0.19377567               -0.01708931               -0.00251469                0.65338868
              15.28924781                9.55353286               75.17911698                0.29450741               -0.01429185               -0.04959835                0.09170452               -0.05888401                0.17289258               -0.47406589
              16.28938915                9.07311900               74.73013820                0.00010000               -0.24872634               -0.12618020               -0.07517193               -1.13927066                5.31435285               -1.97525392
              17.28427328                8.57231013               74.38100548                0.00010000                0.03080756               -0.36487633               -1.08337069               -2.48740436               10.43236352               -0.78690255
              18.29000530                8.06109287               74.03154560                0.00010000                1.21843077               -0.87182214               -2.25071340               -3.82889184               10.81122622                0.31312866
              19.30864190                7.53274610               73.68618745                0.00010000                2.44143737               -1.17833769               -3.69836793               -6.31453407               11.30853853                1.26715567
              20.33883405                6.98073863               73.34352624                0.00010000                3.26408050               -0.49906978               -5.46975264               -9.52671388               11.27527700                2.08455093
              21.37392351                6.40614273               72.99625099                0.00010000                3.27212337                1.59713496               -7.43537580              -12.10659075               10.13203067                2.92682244
              22.40427652                5.82399081               72.63272765                0.00010000                2.43004948                4.73096343               -9.34090881              -12.17405239                7.68503247                4.15709415
              23.42252449                5.26413088               72.24204534                0.00010000                1.40783266                8.06961369              -10.73101400               -7.87375943                4.15129120                5.57682489
              24.43243317                4.76058243               71.81731381                0.43702497                0.99086766                8.84038651              -11.18845620               -3.40262092                1.79347627                5.79241903
              14.76862031               11.03235268               75.49595715                0.99059749               -0.01614831               -0.01128438                0.09887693               -0.01823970               -0.00888262                0.71465824
              15.76845883               10.55317269               75.03782821                0.31653394                0.00081956               -0.02174436                0.00895170               -0.07870222                0.05687265               -0.46362002
              16.76863670               10.07226016               74.58091319                0.00010000               -0.17344437               -0.05161616               -0.13473055               -1.22827926                6.06016975               -1.75501162
              17.76498994                9.56986122               74.24342360                0.00010000                0.06204848               -0.09112755               -1.24434817               -2.72090210               12.03005318               -1.36926296
              18.76987767                9.05642707               73.90486811                0.00010000                0.94598036               -0.14804500               -2.50224465               -4.06963155               12.17223080               -0.78314055
              19.78390955                8.52863447               73.56754441                0.00010000                1.79246941                0.06912965               -4.03539681               -5.95706087               12.35988223               -0.19460464
              20.80572706                7.98524533               73.22975184                0.00010000                2.38779411                0.96351628               -5.89943229               -7.98372286               12.12784711                0.39352989
              21.83166543                7.43034972               72.88556784                0.00010000                2.57972139                2.72875879               -8.05357320               -9.23270187               11.01061905                1.05963510
              22.85732149                6.87591910               72.52548572                0.00010000                2.44328486                5.05383042              -10.27127382               -8.57780481                8.62311747                1.83070729
              23.88053113                6.34032585               72.13802610                0.00010000                2.26233875                7.00907450              -12.08850255               -5.30526785                4.84518075                2.42382179
              24.90256826                5.84308045               71.71268762                0.43817934                2.20371355                7.42173207              -12.81698413               -2.42023628                2.18098164                2.23626050
              15.24767018               12.03235366               75.36073199                0.99939485                0.00961087                0.01074598                0.00701348               -0.01750084               -0.00060645                0.75266383
              16.24776628               11.55309797               74.89661757                0.33708158                0.02324318                0.00581593               -0.06916501               -0.07992320                0.04315989               -0.48424260
              17.24813504               11.07208667               74.43338439                0.00010000               -0.10389767                0.00367762               -0.19001536               -1.17710349                6.66787318               -1.69691536
              18.24568833               10.57048758               74.10250045                0.00010000                0.08521909                0.17620811               -1.31250463               -2.56062365               13.18450585               -1.61734915
              19.24983942               10.05813197               73.77082210                0.00010000                0.74970420                0.35688175               -2.58371340               -3.67404584               13.16857313               -1.35719620
              20.26068241                9.53412869               73.43885443                0.00010000                1.38024629                0.78132673               -4.11795059               -4.95976861               13.13863241               -1.02932007
              21.27744435                9.00000895               73.10472662                0.00010000                1.89566434                1.65666988               -5.97531176               -6.08141473               12.75459703               -0.68458138
              22.29859570                8.46071790               72.76308370                0.00010000                2.26499730                3.01498269               -8.12466883               -6.49657172               11.57643236               -0.32765494
              23.32274429                7.92506742               72.40495203                0.00010000                2.53310408                4.58454316              -10.35855557               -5.66221934                9.15963756               -0.01416264
              24.34925778                7.40431237               72.01857619                0.00010000                2.78874725                5.78099130              -12.21699901               -3.37987403                5.21688473                0.08929760
              25.37851924                6.90901707               71.59139599                0.43936867                2.92614548                5.85553557              -13.07748436               -1.56070707                2.38778474               -0.31634554
              15.72678167               13.03256760               75.22567935                1.00000000                0.03456781                0.03234685               -0.08536075               -0.01573438                0.00152453                0.75873846
              16.72712735               12.55328901               74.75516916                0.36171181                0.04616780                0.03262344               -0.14261948               -0.07414269                0.07148378               -0.53109619
              17.72770502               12.07233371               74.28617443                0.00010000                0.03024105                0.03766780               -0.24247488               -1.00979649                7.30821508               -1.44708812
              18.72773217               11.57338538               73.96127154                0.00010000                0.25253086                0.31728571               -1.33034801               -2.09044574               14.19994932               -1.54594904
              19.73275564               11.06356470               73.63413295                0.00010000                0.75525141                0.58436751               -2.55768879               -2.86003254               13.93687430               -1.42060893
              20.74283720               10.54426101               73.30580124                0.00010000                1.23769555                1.06804139               -4.03537241               -3.61787546               13.70664381               -1.26732251
              21.75750955               10.01837873               72.97413133                0.00010000                1.69191656                1.82779873               -5.81714064               -4.14901019               13.16886118               -1.12139491
              22.77667553                9.49064937               72.63400488                0.00010000                2.14865399                2.83375406               -7.87647499               -4.15168073               11.90226088               -1.00147750
              23.80048263                8.96760996               72.27661203                0.00010000                2.61542364                3.90046276              -10.02955423               -3.39466344                9.42284015               -0.95492183
              24.82898400                8.45594567               71.88976990                0.00010000                3.07310465                4.67105026              -11.86941620               -1.90780313                5.37915721               -1.10043728
              25.86194473                7.96019116               71.46008362                0.44038217                3.29607257                4.63164278              -12.82579186               -0.87855555                2.51710901               -1.65240709
              16.20591267               14.03300059               75.09025968                0.89695269                0.06046496                0.05637315               -0.18112634               -0.01294185                0.05218705                0.69520518
              17.20651732               13.55375044               74.61344174                0.28381280                0.09650341                0.05901432               -0.21595868               -0.06926660                0.45003258               -0.55134714
              18.20784274               13.07284003               74.14479728                0.00010000                0.30655533                0.04505455               -0.34263045               -0.81342727                8.12120079               -1.16831574
              19.21264843               12.57683329               73.82252413                0.00010000                0.69602042                0.19737138               -1.33726365               -1.28596953               15.02375189               -1.01670113
              20.22176315               12.06981932               73.49938729                0.00010000                1.04312271                0.56562425               -2.49209207               -1.65515513               14.58891185               -0.94039284
              21.23351088               11.55548952               73.17372615                0.00010000                1.31563152                1.08227634               -3.88539479               -1.97714675               14.14747475               -0.89350970
              22.24807578               11.03656493               72.84387120                0.00010000                1.64099874                1.75863666               -5.56044295               -2.17348435               13.48440490               -0.86215321
              23.26633085               10.51739298               72.50494138                0.00010000                2.07394728                2.54653025               -7.49732493               -2.06807066               12.16236136               -0.85871717
              24.28955472               10.00307668               72.14831004                0.00010000                2.60948311                3.32365063               -9.54180343               -1.57194887                9.66847203               -0.90545793
              25.31852052                9.49773337               71.76132421                0.00010000                3.14512127                3.88658287              -11.33706344               -0.79691653                5.54633057               -1.06700604
              26.35245715                9.00164992               71.32873572                0.44152596                3.39366307                3.93245149              -12.34173977               -0.36030361                2.67040503               -1.64212124
              16.68502314               15.03369506               74.95366589                0.93066521                0.08794358                0.06944699               -0.27990900               -0.01152941                0.30983582                0.64656465
              17.68590258               14.55446930               74.47216993                0.61540497                0.16652417                0.07188581               -0.29282072               -0.08448709                0.98786802               -0.56375736
              18.68835363               14.07323480               74.00453390                0.37200412                0.95654523                0.03947729               -0.46443282               -0.80573551                9.31471510               -1.17986357
              19.70503348               13.57733281               73.69133795                0.36381856                1.63213433                0.04995180               -1.38156826               -0.67937505               16.00717388               -0.46190184
              20.72099631               13.07487719               73.37114739                0.36102709                1.57575868                0.50578632               -2.47285943               -0.64799717               15.13392145               -0.47121099
              21.73654866               12.56590653               73.04796516                0.36302994                1.55700437                1.04170148               -3.79632600               -0.76250861               14.58771949               -0.47673966
              22.75213640               12.05355146               72.72016025                0.36968249                1.61268541                1.69865331               -5.38651661               -0.81026540               13.88108936               -0.51367271
              23.76880237               11.54157998               72.38324794                0.38191354                1.82834315                2.41869937               -7.23071915               -0.72627340               12.60208230               -0.58689652
              24.78870326               11.03408297               72.02894343                0.39957311                2.28350287                3.10062959               -9.19686645               -0.48027819               10.22751915               -0.71075778
              25.81447242               10.53367733               71.64473276                0.42340227                2.91011469                3.59439558              -10.95966511               -0.16694842                6.12521039               -0.90437696
              26.84690556               10.03884019               71.21213781                0.72116575                3.24331346                3.71902697              -11.97128752               -0.03887287                3.29063184               -1.53451922
              12.32241206                5.17965239               77.31070158                1.00000000               -0.14921306               -0.14488280                0.51651538               -0.01766887               -0.38848289                0.48916226
              13.32091993                4.69535449               76.87809028                1.00000000               -0.14476256               -0.12735641                0.46180340               -0.00305404               -0.47025929                0.05446230
              14.31951681                4.21078178               76.44327202                1.00000000               -0.13435634               -0.10822764                0.40667250               -0.00251641               -0.48886726               -0.05384869
              15.31823281                3.72575340               76.01014039                0.65215189               -0.13822656               -0.08975260                0.34835773               -0.03849976               -0.45092325               -0.31394867
              16.31675228                3.23972903               75.57635850                0.46924529               -0.13970605               -0.06448442                0.29300592               -0.06418456               -0.43517495               -0.30227970
              17.31543868                2.75283305               75.14411430                0.14195062               -1.23522925               -0.06249747                0.21860856               -1.08712781                0.88307690               -0.55834853
              18.29204770                2.24531803               74.73768031                0.00010000               -4.14577975                1.28156127                0.24498459               -6.76807857               10.41772437               -2.89657064
              19.23252309                1.60348035               74.49470237                0.00010000               -1.86412545               -0.06508274               -1.42863330               -6.56029851               19.66108729                0.36191514
              20.25476519                0.94685684               74.24297142                0.00010000                5.53172472               -1.42735297               -2.17659260               -6.15891416               18.90979031                0.70098423
              21.34315758                0.28440399               73.98012347                1.00000000                4.79146404                0.58918653               -2.45712023               -5.98074480                8.85341922               -0.01631065
              22.35059447               -0.25535744               73.54054517                1.00000000                0.74368830                0.58643045               -2.43233917               -0.14973719                0.00513501                0.00492750
              12.80653327                6.17820356               77.17423497                1.00000000               -0.12085774               -0.13388075                0.43863325               -0.00852274                0.02444245                0.68593030
              13.80532469                5.69408093               76.74144859                1.00000000               -0.11205395               -0.11847094                0.38477367                0.00585329                0.10043463                0.07802111
              14.80429219                5.20969951               76.30968911                1.00000000               -0.09752553               -0.10008194                0.33088500                0.00486879                0.16040890               -0.24365154
              15.80337418                4.72485587               75.87804012                0.80158926               -0.08607916               -0.08847149                0.28538104               -0.01844172                0.24378798               -0.26651165
              16.80257061                4.23908419               75.44831727                0.67276795               -0.08006390               -0.06578746                0.21460420               -0.04193736                0.23645526               -0.23379895
              17.80177291                3.75220807               75.01730818                0.34075383               -0.17636762               -0.05487624                0.14188602               -0.37503723                0.27899123               -0.41671506
              18.79904326                3.25813364               74.58961439                0.00010000                0.71888972                0.59474158                0.02117293               -7.43992721               10.07536305               -1.53576969
              19.81615070                2.60282952               74.35544908                0.00010000                2.68354844               -1.66360882               -1.28477444              -10.25816145               18.24400187                1.04433535
              20.85271423                1.93258331               74.08633883                0.00010000                3.41532874               -0.83658342               -1.74114580               -8.50775027               15.89416379                0.98507789
              21.88445728                1.29029585               73.79969530                1.00000000                1.80721488                0.42216406               -1.47317959               -4.97513080                7.65141037               -0.02898529
              22.88885852                0.75050686               73.36013347                1.00000000                0.44012487                0.42332869               -1.45443541               -0.15623202               -0.00002080               -0.02620687
              13.29048688                7.17697477               77.04092952                1.00000000               -0.09458240               -0.10765983                0.35848943               -0.01183400                0.16084454                0.80650807
              14.28954105                6.69298507               76.60497079                1.00000000               -0.08238178               -0.09949989                0.30756047               -0.00050267                0.35324679               -0.00226288
              15.28883924                6.20878014               76.17244848                0.00010000               -0.05308804               -0.07898419                0.25568574               -0.02052893                0.90155879               -0.67755310
              16.28847929                5.72398397               75.74748188                0.00010000               -0.01389541               -0.62524393                0.22666486               -0.39890811                1.26571341                0.43529257
              17.28856133                5.23841328               75.32272864                0.00010000                0.02045956               -1.11781843                0.13487380               -0.35166079                1.06734770                1.59722636
              18.28888848                4.75173552               74.89485794                0.00010000                0.20331838               -1.94737636                0.06388504                0.01455485                1.07490793                3.18719725
              19.29262770                4.25721286               74.47176214                0.00010000                3.20108564               -4.58119832               -0.07947716               -7.51963801               10.59855868                6.17778670
              20.35291020                3.57020817               74.23703187                0.00010000                5.22580761               -2.65915967               -2.01529480              -13.22900077               16.56619487                2.87787263
              21.39714385                2.93012517               73.93688092                0.00010000                3.64106087               -0.27464631               -1.94590024              -10.26615865               12.55506935                1.51410944
              22.42573141                2.29284727               73.61858865                1.00000000                1.49519772                0.11964631               -0.42385601               -4.74866743                6.08314531               -0.06210100
              23.42704781                1.75310913               73.17902525                1.00000000                0.13163938                0.12299527               -0.42123381               -0.13407924               -0.01030431               -0.06960107
              13.77427600                8.17605036               76.90615846                1.00000000               -0.07667247               -0.07414657                0.27956300               -0.01085049                0.26913000                0.69110210
              14.77350927                7.69209093               76.46648848                0.44269706               -0.06966393               -0.08414542                0.23464125                0.00814426                0.46519260               -0.37643207
              15.77288272                7.20811982               76.03040908                0.00010000               -0.38731930               -0.10016511                0.17631376               -0.54965073                2.42536903               -1.19380780
              16.76576289                6.71235099               75.63004046                0.00010000               -0.25484386               -0.94969644               -0.30100300               -1.40739866                4.46097628                0.71054006
              17.76778584                6.21672782               75.23237134                0.00010000                0.87507686               -1.99578049               -0.82038330               -1.51442003                5.01485872                2.78066226
              18.78326442                5.71326055               74.84169346                0.00010000                3.11960028               -3.78383299               -1.48390699               -2.93587496                6.76580879                5.47340999
              19.83017785                5.16650968               74.48006011                0.00010000                4.76969778               -6.70198124               -2.45847547               -6.90952340                8.57492173                8.83140107
              20.87865838                4.54964633               74.13381936                0.00010000                4.72870574               -1.65890534               -3.28685066              -11.54128877                9.25047950                3.98174322
              21.92475196                3.92709038               73.79643845                0.00010000                4.39207930                0.30926505               -3.66115772              -12.76138788                8.18635191                2.38711148
              22.96649996                3.29268878               73.43643789                0.00010000                2.04506263                2.82726240                0.31152296               -9.28526518                3.97214640                0.92632498
              23.96565321                2.75296677               72.99688443                0.42830063               -0.08467512                4.43314311                0.29881937               -5.09350838                0.01515958                1.88754320
              14.25818874                9.17549184               76.76988553                0.98477063               -0.05542581               -0.04029755                0.20299149               -0.01033085               -0.00477988                0.61245848
              15.25763448                8.69130216               76.32238182                0.31518239               -0.03012884               -0.07229914                0.17052480               -0.00520273                0.42333809               -0.56599533
              16.25758616                8.20677684               75.88316614                0.00010000               -0.29555777               -0.16285465                0.09576392               -0.85514367                3.84358209               -1.77395446
              17.25172332                7.70499004               75.50423704                0.00010000               -0.01113900               -0.64443190               -0.70166234               -1.79515952                7.13851495               -0.13567342
              18.25736338                7.19849767               75.12838588                0.00010000                1.43329004               -1.56741030               -1.56972290               -2.57642233                7.72332925                1.39335318
              19.28038912                6.67605886               74.75941435                0.00010000                3.03440336               -2.82932834               -2.61080880               -4.70899514                8.35636742                2.90792585
              20.31805145                6.12317324               74.39764890                0.00010000                4.05572953               -2.93107268               -3.79206195               -8.76951742                8.53122394                3.46626843
              21.36150372                5.53703007               74.03820406                0.00010000                4.04110996               -0.44327715               -4.89847951              -11.95070471                7.64324051                3.63923378
              22.39887365                4.93631047               73.66866656                0.00010000                2.63230039                2.11077234               -5.34149427              -12.94860212                5.37773109                3.18278399
              23.41414972                4.34939252               73.27375022                0.00010000                0.28740071                6.32911420               -5.58348990               -9.65695978                2.63293872                2.97444071
              24.40462166                3.84177199               72.85346633                0.42967208               -0.95280617                8.22363900               -4.95722321               -5.34676568                1.67286098                4.02445899
              14.74244874               10.17524441               76.63294569                0.99068000               -0.03285195               -0.01445746                0.11650701               -0.01400927               -0.00079510                0.63077302
              15.74212022                9.69064495               76.18011351                0.31446876               -0.01783850               -0.05369097                0.10556589               -0.05086202                0.14639306               -0.46322891
              16.74209197                9.20486273               75.73003366                0.00010000               -0.19906760               -0.15339027                0.04696362               -1.09239218                4.79905038               -1.91692939
              17.73813887                8.69946236               75.37056717                0.00010000                0.15483018               -0.43449706               -0.97991229               -2.37543250                9.34397174               -0.85972721
              18.74518857                8.18537961               75.00971874                0.00010000                1.31350442               -0.92590933               -2.07131902               -3.53232029                9.44449795                0.10794918
              19.76440895                7.65667398               74.65083278                0.00010000                2.43138609               -1.22578694               -3.31952095               -5.67894404                9.54901124                0.93523164
              20.79381629                7.10788822               74.29251245                0.00010000                3.10490486               -0.65750825               -4.71370054               -8.38833411                9.14523584                1.61709124
              21.82650705                6.54078079               73.92898984                0.00010000                2.98005888                1.11889765               -6.10059422              -10.45399186                7.85812740                2.20304100
              22.85341747                5.96930583               73.55129292                0.00010000                2.06960968                3.71338840               -7.28168593              -10.31860914                5.63042314                2.86535671
              23.86789924                5.41927106               73.15099321                0.00010000                1.02707373                6.49687212               -7.96959368               -6.65502364                2.90077413                3.52421234
              24.87395894                4.91743955               72.72436074                0.43075768                0.60597000                6.96777628               -8.08267205               -2.95199173                1.36492071                3.15915046
              15.22710749               11.17520269               76.49659072                1.00000000               -0.01085641                0.00491805                0.03360250               -0.01267370               -0.00515548                0.69210156
              16.22699892               10.69022834               76.03809935                0.33873941               -0.00932900               -0.03035978                0.04214805               -0.06865459                0.03956280               -0.45038893
              17.22692091               10.20370904               75.58040631                0.00010000               -0.16505650               -0.08855868                0.01860690               -1.18627978                5.49074756               -1.68741704
              18.22369779                9.69630010               75.23137734                0.00010000                0.12922227               -0.15940561               -1.14248796               -2.62603042               10.84382561               -1.31778206
              19.22950535                9.17997948               74.88033455                0.00010000                1.03019199               -0.22382060               -2.35879567               -3.81174890               10.74394263               -0.77225293
              20.24430163                8.65154312               74.52844584                0.00010000                1.83363028               -0.04644680               -3.72504271               -5.46533543               10.56968629               -0.21807726
              21.26617796                8.11002307               74.17376500                0.00010000                2.33523201                0.71102500               -5.24918061               -7.19067315                9.96310843                0.33358775
              22.29100627                7.55940802               73.81118719                0.00010000                2.39166160                2.18696436               -6.84595385               -8.15830784                8.62808383                0.92642425
              23.31401119                7.01057824               73.43334769                0.00010000                2.09546290                4.07791313               -8.31633927               -7.43303590                6.44840727                1.54099505
              24.33291553                6.47932996               73.03266725                0.00010000                1.76168337                5.57794070               -9.36866155               -4.51139718                3.48312459                1.91873345
              25.34924486                5.98112752               72.60282462                0.43215601                1.63293260                5.78354706               -9.66700299               -2.01044022                1.59358157                1.46393535
              15.71214396               12.17534277               76.36052381                1.00000000                0.00968214                0.02477509               -0.04366589               -0.00762467                0.00158410                0.73114648
              16.71224078               11.69003775               75.89621362                0.36145556                0.00753275               -0.00966354               -0.01745160               -0.06947537                0.03098287               -0.46626103
              17.71229462               11.20309156               75.43249054                0.00010000               -0.14464868               -0.04630413               -0.00994728               -1.13042599                6.08254536               -1.62763765
              18.70934781               10.69627424               75.08975576                0.00010000                0.07079755                0.12266923               -1.21942570               -2.47334663               11.98591092               -1.49035088
              19.71371057               10.18090320               74.74524255                0.00010000                0.78554245                0.29635043               -2.48887756               -3.47008834               11.77353157               -1.20991805
              20.72505866                9.65574504               74.39845424                0.00010000                1.42136829                0.66947400               -3.90099302               -4.62636903               11.43620083               -0.86017643
              21.74213793                9.12210872               74.04718153                0.00010000                1.88635352                1.41493198               -5.47399216               -5.59985471               10.72215030               -0.48419951
              22.76278573                8.58452007               73.68667372                0.00010000                2.13484408                2.54810882               -7.13885808               -5.89728040                9.35339289               -0.09833564
              23.78483481                8.05086409               73.31001768                0.00010000                2.21681454                3.81757635               -8.71143818               -5.06202091                7.11178070                0.22048867
              24.80712202                7.53082988               72.90907378                0.00010000                2.26601022                4.72467077               -9.88810289               -2.97440807                3.92685381                0.25140146
              25.83015502                7.03311049               72.47610950                0.43334914                2.30329997                4.67911259              -10.30017269               -1.32655869                1.81314065               -0.33197831
              16.19756504               13.17569819               76.22463500                1.00000000                0.02955924                0.04665185               -0.12227395               -0.00470707                0.00259732                0.73482317
              17.19786063               12.69003507               75.75413651                0.38791269                0.02554260                0.00936636               -0.07281436               -0.06369139                0.06087660               -0.50964781
              18.19807589               12.20278295               75.28488942                0.00010000               -0.07207083               -0.02048966               -0.04009661               -0.94256223                6.72387405               -1.39391986
              19.19641922               11.69875348               74.94830241                0.00010000                0.12784466                0.30379570               -1.25246905               -1.99312254               13.03861715               -1.39690276
              20.20063279               11.18590649               74.60852897                0.00010000                0.70747559                0.57945940               -2.52297107               -2.71569042               12.63341999               -1.22369995
              21.21056873               10.66493260               74.26567428                0.00010000                1.23865229                1.00957170               -3.92962608               -3.42878644               12.15759139               -1.02110661
              22.22540583               10.13832171               73.91727345                0.00010000                1.68682841                1.65801165               -5.48967961               -3.90843476               11.34799554               -0.81252644
              23.24430530                9.61037020               73.55874237                0.00010000                2.05275688                2.49424585               -7.14210602               -3.87490649                9.92101475               -0.62490819
              24.26646097                9.08692976               73.18313004                0.00010000                2.34378372                3.35337374               -8.71513524               -3.13035976                7.59872302               -0.53364525
              25.29118097                8.57382337               72.78170852                0.00010000                2.58457445                3.93142868               -9.91489626               -1.73075402                4.22828910               -0.69722591
              26.31815246                8.07470977               72.34554908                0.43476143                2.69714873                3.78768607              -10.37545195               -0.74272075                1.97974440               -1.35564097
              16.68337606               14.17627581               76.08834316                0.91141644                0.05061332                0.06898296               -0.20155924               -0.00427737                0.04801664                0.66432424
              17.68388220               13.69022508               75.61175568                0.30758016                0.06744491                0.02900302               -0.13059561               -0.05679696                0.41333961               -0.52748595
              18.68472496               13.20268176               75.14265289                0.00010000                0.12398113               -0.01473601               -0.11494163               -0.69764044                7.53367382               -1.13088561
              19.68636182               12.70235016               74.80937407                0.00010000                0.42463383                0.27829546               -1.28336854               -1.19256721               13.93273440               -0.90832148
              20.69321764               12.19249239               74.47405678                0.00010000                0.88529460                0.63692101               -2.53187105               -1.57764521               13.39676044               -0.79453118
              21.70406771               11.67593648               74.13442026                0.00010000                1.26570033                1.10147923               -3.90908396               -1.90632271               12.76398693               -0.70313922
              22.71853164               11.15526896               73.78852525                0.00010000                1.63059173                1.68478520               -5.43035165               -2.09370416               11.87734646               -0.61594742
              23.73667955               10.63440499               73.43195110                0.00010000                2.01213992                2.34079996               -7.04103510               -1.98401789               10.41543338               -0.55058626
              24.75877444               10.11793157               73.05771901                0.00010000                2.40236934                2.95844136               -8.58427114               -1.49589557                8.04333139               -0.55202573
              25.78472693                9.60945845               72.65636116                0.00010000                2.73766835                3.36029113               -9.77820128               -0.74602438                4.50651728               -0.71468104
              26.81352781                9.10886421               72.21715804                0.43576187                2.88008776                3.27663613              -10.24034267               -0.27292634                2.15709947               -1.30461119
              17.16958096               15.17707785               75.95079222                0.93645833                0.07377818                0.08020430               -0.29133868               -0.02578229                0.29939844                0.60951570
              18.17031874               14.69061513               75.46980584                0.62364191                0.12085213                0.03900561               -0.18798405               -0.08582640                0.91567362               -0.53523472
              19.17199800               14.20248823               75.00141581                0.37104404                0.62192528               -0.01935292               -0.19688581               -0.58748284                8.69914454               -1.13359539
              20.18275725               13.70431939               74.67752426                0.36364203                1.17477797                0.19692347               -1.36532691               -0.55262309               14.96792575               -0.42478131
              21.19549356               13.19864491               74.34549016                0.36092049                1.34542288                0.61525262               -2.60064514               -0.64026772               14.01491884               -0.41030333
              22.20966571               12.68696219               74.00869646                0.36273937                1.47848356                1.10257119               -3.96386504               -0.77157542               13.29747547               -0.38907885
              23.22506323               12.17201742               73.66525543                0.36901700                1.61483116                1.67484599               -5.47002386               -0.83564069               12.38194076               -0.38929410
              24.24196233               11.65718620               73.31107832                0.38020590                1.82131829                2.27812050               -7.07013357               -0.76766285               10.95720337               -0.41488289
              25.26148960               11.14609859               72.93939902                0.39662120                2.16827547                2.81670262               -8.61622393               -0.53633435                8.66473733               -0.49045707
              26.28532784               10.64102920               72.54069277                0.41875155                2.61964057                3.15707466               -9.83890306               -0.23271429                5.08371185               -0.65665084
              27.31388241               10.14024249               72.10140491                0.71830513                2.85545727                3.13782834              -10.30859615               -0.04321018                2.68787149               -1.20748921
              12.75140290                5.32138382               78.31520809                1.00000000               -0.12117234               -0.10710772                0.38779225               -0.00481692               -0.38899803                0.48594162
              13.75019117                4.83292388               77.88241794                1.00000000               -0.12695132               -0.11204178                0.40409507                0.00742856               -0.47216035                0.05428999
              14.74886387                4.34421865               77.44741505                1.00000000               -0.13704293               -0.11434905                0.41954504                0.00798730               -0.49235133               -0.05089430
              15.74745032                3.85511287               77.01406761                0.66067948               -0.15859351               -0.11776007                0.43194006               -0.02305734               -0.45232846               -0.29741249
              16.74569200                3.36514178               76.58010602                0.47345786               -0.17757194               -0.11577204                0.44781776               -0.04508997               -0.44077174               -0.30125695
              17.74389888                2.87443223               76.14752287                0.13763476               -1.17989973               -0.13477801                0.45190602               -0.96132614                0.88815342               -0.55958896
              18.72209401                2.36527433               75.74106691                0.00010000               -3.39208974                1.09181772                0.39056891               -5.60506254                9.80053146               -2.88008661
              19.67605708                1.74432586               75.48201967                0.00010000               -1.08184065               -0.39633153               -1.11980491               -5.48647200               18.33813827                0.13717903
              20.70045719                1.10676777               75.22228667                0.00010000                5.33590850               -1.49640932               -1.96984206               -5.31245362               18.13861311                0.41920369
              21.78277525                0.45970586               74.95550678                1.00000000                4.48200798                0.60775882               -2.45653245               -5.20799272                8.62548838               -0.04311761
              22.79009735               -0.07990473               74.51648877                1.00000000                0.73221010                0.58585945               -2.36137326               -0.13807262                0.00036552               -0.03906274
              13.23981467                6.32031274               78.17802320                1.00000000               -0.09666230               -0.09762501                0.32185265               -0.00695038                0.02200718                0.67963747
              14.23884805                5.83180346               77.74506718                1.00000000               -0.09827107               -0.10494507                0.33915431                0.00550316                0.09697885                0.07769539
              15.23784925                5.34307516               77.31313469                1.00000000               -0.10449342               -0.10822062                0.35576757                0.00475274                0.16145827               -0.23857205
              16.23675818                4.85393527               76.88139392                0.82382813               -0.11339123               -0.11722503                0.38009360               -0.01520100                0.23951241               -0.24488530
              17.23558142                4.36398406               76.45134552                0.68810380               -0.12694180               -0.11701924                0.38334497               -0.03608465                0.22461286               -0.22849104
              18.23421934                3.87308445               76.02001169                0.34902576               -0.22424283               -0.12879802                0.38927416               -0.31295326                0.25340180               -0.41170925
              19.23109657                3.37619251               75.59161687                0.00010000                0.81131514                0.44882673                0.37039660               -6.34991014                9.42026434               -1.57089831
              20.25044564                2.74036255               75.34431524                0.00010000                2.92730464               -1.81263508               -0.97443232               -8.75800861               17.33522597                0.48006935
              21.28964266                2.09180367               75.07003492                0.00010000                3.67929636               -0.99022836               -1.54735259               -7.21359936               15.67807339                0.37368313
              22.32403157                1.46578345               74.78465796                1.00000000                1.93422775                0.48719714               -1.51058409               -4.15406420                7.68940020               -0.00114463
              23.32832721                0.92595387               74.34557552                1.00000000                0.42956428                0.47295663               -1.42696293               -0.16273724               -0.00042751               -0.03390661
              13.72828245                7.31943132               78.04397724                1.00000000               -0.07436292               -0.07455977                0.25376368               -0.00981446                0.15690378                0.79742948
              14.72753882                6.83082498               77.60787987                1.00000000               -0.07276682               -0.08994771                0.27436249                0.00011520                0.34802649               -0.00035155
              15.72682711                6.34205424               77.17520641                0.00010000               -0.06507135               -0.09165286                0.29338333               -0.01751600                0.90698769               -0.67253777
              16.72623739                5.85276837               76.75029781                0.00010000               -0.05029925               -0.62093246                0.33112955               -0.33394908                1.25541138                0.22621950
              17.72582113                5.36280139               76.32501606                0.00010000               -0.04030150               -1.09116916                0.31586090               -0.24205010                1.04599977                1.17155110
              18.72543136                4.87185627               75.89684470                0.00010000                0.09982894               -1.84690140                0.32508323                0.16294903                1.04288940                2.49028337
              19.72781771                4.37425086               75.47285609                0.00010000                2.99271894               -4.20601954                0.29158523               -6.33042268                9.65241598                5.08908511
              20.78528574                3.70807316               75.21956251                0.00010000                5.14732986               -2.62384473               -1.51226047              -11.35154266               15.44277247                1.69719579
              21.83076431                3.08696320               74.91823979                0.00010000                4.01290145               -0.42172606               -1.84474411               -8.95070864               13.01569742               -0.24990396
              22.86554377                2.46944980               74.61464159                0.00010000                1.78687319                0.24539810               -0.52967907               -3.76206210                6.77889296               -0.22551228
              23.86650177                1.92955441               74.17529129                1.00000000                0.09579968                0.25294872               -0.45624365               -0.14806739                0.02154278               -0.30085039
              14.21683106                8.31882155               77.90847896                1.00000000               -0.06036286               -0.04459470                0.18744846               -0.00677978                0.26415702                0.68007192
              15.21622743                7.83000451               77.46873495                0.45835858               -0.06377647               -0.08026316                0.21454481                0.01220181                0.45237160               -0.36678670
              16.21555553                7.34124210               77.03243236                0.00010000               -0.34476977               -0.11870692                0.22595771               -0.50495933                2.19438620               -1.18789140
              17.20933204                6.84151662               76.62761062                0.00010000               -0.19515048               -0.94249051               -0.17979015               -1.25281788                3.95961630                0.32704174
              18.21165252                6.34216068               76.22525165                0.00010000                0.83484078               -1.92091076               -0.59683734               -1.25052915                4.38289568                2.01852239
              19.22602885                5.83614642               75.82884691                0.00010000                2.83093504               -3.53179235               -1.09926250               -2.39048047                5.84969823                4.24998004
              20.26827122                5.29207212               75.45859019                0.00010000                4.23368015               -6.10755532               -1.85870745               -5.72928709                7.53511455                7.08430902
              21.31070246                4.68788565               75.10558876                0.00010000                4.04903107               -1.60259736               -2.54762323               -9.75460662                8.12343435                2.47753440
              22.34925184                4.08336915               74.75926290                0.00010000                4.77483326                0.15689190               -2.91042392              -10.85797002                8.74233166                0.36331595
              23.40619912                3.47069141               74.43856886                0.00010000                2.79524077                2.72086337               -3.14946643               -8.77215738                2.69510098               -0.99297831
              24.40515666                2.93101284               73.99890225                0.42261163               -0.10424613                4.48655920               -0.77841583               -5.41550665               -2.86614390                1.64503026
              14.70578093                9.31853942               77.77149085                1.00000000               -0.04186294               -0.01659659                0.12115063               -0.00735225               -0.00728436                0.59226664
              15.70536230                8.82921971               77.32406564                0.33450845               -0.02825612               -0.07268790                0.16664543                0.00004689                0.39764168               -0.54951706
              16.70521581                8.33968010               76.88448163                0.00010000               -0.25499210               -0.18509276                0.16472570               -0.79700905                3.42686278               -1.73917120
              17.70026246                7.83391856               76.49783512                0.00010000                0.04824676               -0.67706705               -0.56741750               -1.65806586                6.26687449               -0.37543106
              18.70618075                7.32438318               76.11386062                0.00010000                1.37239269               -1.54287415               -1.32259908               -2.28605032                6.66774570                0.87651462
              19.72771032                6.80122042               75.73552275                0.00010000                2.76559957               -2.68635892               -2.16955473               -4.07419340                7.07908178                2.10036352
              20.76149274                6.25209976               75.36361916                0.00010000                3.55931296               -2.75538839               -3.07159210               -7.49443605                7.12661952                2.43216171
              21.79889657                5.67602121               74.99460625                0.00010000                3.46532050               -0.53326178               -3.87749419              -10.01977954                6.43389351                2.24247421
              22.83079915                5.09010104               74.62154901                0.00010000                2.17801793                1.66238348               -4.37107859              -10.32621882                4.09411910                1.76253522
              23.84245693                4.52386707               74.22098679                0.00010000                0.33748125                5.25033464               -4.30814048               -8.47712048                1.94742352               -0.33883008
              24.83754877                4.01928559               73.80814072                0.42380289               -0.49081610                7.16971540               -4.18754403               -5.06615482                1.89022366                0.28416963
              15.19532344               10.31848961               77.63374117                1.00000000               -0.02357388                0.00385846                0.04847738               -0.00793654                0.00194910                0.60451183
              16.19508770                9.82855075               77.18122830                0.33641768               -0.02034671               -0.05774559                0.11634896               -0.04385905                0.12849200               -0.44536128
              17.19491650                9.33754025               76.73107747                0.00010000               -0.18100297               -0.18125820                0.15258299               -1.03088062                4.25719649               -1.85052114
              18.19146764                8.82797528               76.36140723                0.00010000                0.18565757               -0.48007875               -0.83920594               -2.22806517                8.21978306               -0.95757161
              19.19862965                8.31130319               75.99011922                0.00010000                1.26803843               -0.94624935               -1.82957317               -3.20243791                8.15281144               -0.15422352
              20.21682841                7.78241925               75.61979703                0.00010000                2.24760294               -1.22844816               -2.88189979               -5.00881714                8.03799826                0.51037771
              21.24358171                7.23696435               75.24925223                0.00010000                2.77385893               -0.74258774               -3.96980464               -7.22218451                7.49491255                1.00222668
              22.27230559                6.67722042               74.87423911                0.00010000                2.56499494                0.75865535               -4.97318621               -8.72998410                6.22584211                1.35546122
              23.29488161                6.11661682               74.48709393                0.00010000                1.75832859                2.89565994               -5.72527000               -8.37559430                4.34776797                1.55612656
              24.30747216                5.57569810               74.08265347                0.00010000                0.90574562                4.83764343               -6.11258781               -5.19749566                2.18475383                1.97245005
              25.31299652                5.07440715               73.65566037                0.42494733                0.55243665                5.06624042               -6.03895115               -2.30027642                1.07926216                1.03199447
              15.68549993               11.31861659               77.49662920                1.00000000               -0.00654411                0.02213447               -0.02082219               -0.00523976               -0.00186889                0.67071068
              16.68543449               10.82806480               77.03867117                0.36336098               -0.01631344               -0.04075782                0.06963687               -0.06150767                0.03073570               -0.43134330
              17.68517366               10.33605493               76.58128533                0.00010000               -0.17481406               -0.12447161                0.14576340               -1.12102541                4.87665994               -1.61394752
              18.68193821                9.82431699               76.22057384                0.00010000                0.12571803               -0.21098954               -1.00626462               -2.47049189                9.57528337               -1.29714413
              19.68768803                9.30545819               75.85769219                0.00010000                0.99673035               -0.27820029               -2.14698059               -3.48418050                9.33116499               -0.82610451
              20.70187282                8.77665146               75.49304355                0.00010000                1.72799253               -0.13612638               -3.33852914               -4.87855727                8.95146766               -0.35335640
              21.72224788                8.23724800               75.12476823                0.00010000                2.13858008                0.49260863               -4.56698020               -6.26854865                8.18102867                0.10150840
              22.74464442                7.69119432               74.74864876                0.00010000                2.12808499                1.69877975               -5.74489318               -6.93559703                6.85321812                0.54032548
              23.76480958                7.14801423               74.35915893                0.00010000                1.80361355                3.15390105               -6.72370059               -6.14380760                4.95326370                0.94488223
              24.78071669                6.62061994               73.95065287                0.00010000                1.46577871                4.23005086               -7.33105336               -3.65864761                2.61270188                1.00981424
              25.79412515                6.12061040               73.51934756                0.42614198                1.34084593                4.26229424               -7.42235272               -1.61524904                1.25165904                0.37653142
              16.17632222               12.31893230               77.35985867                1.00000000                0.00969809                0.04140572               -0.08662372               -0.00313778                0.00193901                0.71164385
              17.17641920               11.82773559               76.89626853                0.38736098               -0.00392075               -0.02554000                0.02497034               -0.06127606                0.02740214               -0.44412131
              18.17624381               11.33505081               76.43318545                0.00010000               -0.18823314               -0.08809829                0.13377688               -1.05685794                5.43194955               -1.55222259
              19.17265454               10.82375549               76.07811194                0.00010000                0.01838806                0.07560144               -1.09858800               -2.31924427               10.65272741               -1.39391614
              20.17661157               10.30573919               75.72104455                0.00010000                0.74064548                0.24091431               -2.32537932               -3.18473161               10.32278371               -1.12378494
              21.18746745                9.77969672               75.36083457                0.00010000                1.35281550                0.56106986               -3.59769343               -4.17754667                9.80543721               -0.79231634
              22.20366788                9.24681652               74.99524677                0.00010000                1.76799803                1.17682403               -4.91007490               -4.96736018                8.93969328               -0.44214353
              23.22282741                8.71119601               74.62030654                0.00010000                1.94559808                2.08397540               -6.18791103               -5.12634360                7.56317920               -0.10095494
              24.24257984                8.17969484               74.23072327                0.00010000                1.94378147                3.06107454               -7.28825923               -4.31077665                5.58742881                0.13534575
              25.26170304                7.66029912               73.82081413                0.00010000                1.90653912                3.70469194               -8.01558385               -2.48138780                3.01823212                0.06640973
              26.28071062                7.15965304               73.38539254                0.42737179                1.90075824                3.57097000               -8.16588772               -1.07794127                1.41266494               -0.61516800
              16.66783060               13.31944471               77.22323387                1.00000000                0.02598620                0.05987772               -0.15544174               -0.00278279                0.00417481                0.71365027
              17.66809046               12.82755400               76.75371287                0.41572833                0.00930032               -0.01021025               -0.01544968               -0.05482809                0.05969075               -0.48425256
              18.66801661               12.33429297               76.28537250                0.00010000               -0.16127551               -0.06774447                0.12051906               -0.85354883                6.05119499               -1.33451731
              19.66486495               11.82582902               75.93622216                0.00010000                0.00177803                0.28447577               -1.15346842               -1.83859008               11.68639971               -1.27442192
              20.66805217               11.31027648               75.58367353                0.00010000                0.61897999                0.56141648               -2.41944837               -2.49577800               11.19693047               -1.07682984
              21.67724455               10.78787286               75.22720872                0.00010000                1.16746055                0.93539175               -3.72883955               -3.13186500               10.57372241               -0.85454533
              22.69140138               10.26078448               74.86433774                0.00010000                1.59973370                1.47237383               -5.07639983               -3.52875201                9.63376284               -0.62443754
              23.70923923                9.73287383               74.49116276                0.00010000                1.90447783                2.14246437               -6.39429012               -3.44652032                8.20101033               -0.42027832
              24.72949093                9.20923573               74.10230932                0.00010000                2.09457577                2.80361692               -7.54188795               -2.73643033                6.12275161               -0.32823256
              25.75113074                8.69471378               73.69147198                0.00010000                2.21837801                3.20781932               -8.31370051               -1.48485697                3.34158191               -0.51185648
              26.77385849                8.19202980               73.25257458                0.42826960                2.27277539                3.00244169               -8.48132994               -0.60366035                1.57340088               -1.18109964
              17.16004798               14.32012986               77.08622849                0.92869870                0.04264047                0.07712785               -0.22061360               -0.00218334                0.04088422                0.63498811
              18.16047438               13.82753139               76.61082983                0.33248175                0.04249198                0.00551366               -0.05773239               -0.04659681                0.38661010               -0.49726385
              19.16089782               13.33369592               76.14249844                0.00010000               -0.02875770               -0.06279550                0.06580376               -0.57424455                6.83585105               -1.08537840
              20.15989923               12.82944501               75.79685676                0.00010000                0.18771747                0.33538946               -1.20784044               -1.06378545               12.58891499               -0.82008036
              21.16465217               12.31696752               75.44874987                0.00010000                0.72114590                0.67639382               -2.49316409               -1.44850661               11.98912873               -0.67910875
              22.17432215               11.79840455               75.09554447                0.00010000                1.17198507                1.08498467               -3.81659099               -1.76075879               11.23719500               -0.56106194
              23.18809187               11.27626400               74.73526417                0.00010000                1.55618077                1.57603658               -5.17561416               -1.91836397               10.23856774               -0.44280763
              24.20544576               10.75404530               74.36412068                0.00010000                1.89597085                2.10770165               -6.50654910               -1.79666021                8.76962583               -0.34515816
              25.22601129               10.23576718               73.97662462                0.00010000                2.18830332                2.58390351               -7.67296931               -1.33485825                6.61806285               -0.32313253
              26.24921183                9.72445551               73.56576018                0.00010000                2.39970446                2.85836560               -8.46212536               -0.65276411                3.64058329               -0.47638701
              27.27400538                9.21970187               73.12392887                0.42953819                2.47935464                2.70834316               -8.61330562               -0.20635340                1.73460962               -1.01925906
              17.65298387               15.32098727               76.94783912                0.94473098                0.06085864                0.08574069               -0.29756317               -0.03870936                0.29133630                0.57067226
              18.65359246               14.82766428               76.46841025                0.63298737                0.08171107                0.01328881               -0.09739495               -0.08570264                0.86005853               -0.49811421
              19.65461810               14.33303706               76.00059619                0.37026971                0.33625946               -0.06588660                0.01038167               -0.38434574                7.94656396               -1.08154312
              20.66031765               13.83253681               75.66403142                0.36348937                0.77521968                0.30917983               -1.31452619               -0.41979307               13.59500474               -0.38680976
              21.67012249               13.32380436               75.31913448                0.36084486                1.12076228                0.68368385               -2.61875718               -0.60118051               12.60039579               -0.35380546
              22.68273290               12.80957255               74.96868786                0.36270289                1.36354313                1.11679991               -3.96203913               -0.73388219               11.76948954               -0.31467497
              23.69739335               12.29230521               74.61075977                0.36831692                1.55349710                1.60412178               -5.34254799               -0.79708620               10.73941013               -0.29021046
              24.71380284               11.77502786               74.24184526                0.37846372                1.74951051                2.09825625               -6.70080387               -0.73386342                9.29317629               -0.28509866
              25.73238356               11.26091380               73.85661895                0.39342522                2.01689661                2.51466156               -7.90356254               -0.52011099                7.19120760               -0.32857131
              26.75414077               10.75188109               73.44795470                0.41394913                2.34275701                2.74255830               -8.73960407               -0.24296261                4.14675761               -0.46759724
              27.77923870               10.24619666               73.00596588                0.71521380                2.50979325                2.64947927               -8.89722736               -0.04511010                2.15888331               -0.92484990
              13.18021239                5.46374098               79.31845742                1.00000000               -0.09426281               -0.07138259                0.26519094                0.00738936               -0.38968079                0.48271714
              14.17926976                4.97114181               78.88617218                1.00000000               -0.10961353               -0.09689015                0.34721226                0.01748468               -0.47461932                0.05447768
              15.17802012                4.47832462               78.45166292                1.00000000               -0.13872488               -0.11879177                0.42755167                0.01798607               -0.49685617               -0.04755383
              16.17649526                3.98515253               78.01877919                0.66870664               -0.17692669               -0.14245633                0.50511403               -0.00915311               -0.45498056               -0.28198228
              17.17448158                3.49122489               77.58531486                0.47883542               -0.21271984               -0.16205702                0.58574807               -0.02809324               -0.44363706               -0.29862558
              18.17224087                2.99666363               77.15315242                0.13881901               -1.04600306               -0.20115771                0.66398864               -0.79755408                0.80320686               -0.56006622
              19.15356152                2.48661637               76.74549169                0.00010000               -2.70873868                0.83101302                0.48351958               -4.79319586                9.12087928               -2.66752998
              20.11806609                1.88163278               76.47230627                0.00010000               -0.47555922               -0.67447095               -0.83415251               -4.70648940               16.98699189               -0.05225568
              21.14405034                1.25974441               76.20357458                0.00010000                5.16995786               -1.56405682               -1.77763529               -4.63141132               17.15242886                0.18079583
              22.22146525                0.62523928               75.93099282                1.00000000                4.22937277                0.58988697               -2.43370432               -4.57888739                8.27421871               -0.04894729
              23.22863779                0.08568781               75.49331770                1.00000000                0.71725441                0.53384018               -2.24842406               -0.11744100               -0.01009443               -0.06836427
              13.67288546                6.46302716               79.18067203                1.00000000               -0.07326694               -0.06366905                0.21080111               -0.00506015                0.01948483                0.67320708
              14.67215279                5.97017291               78.74823168                1.00000000               -0.08454186               -0.09157695                0.29401343                0.00560970                0.09317895                0.07784399
              15.67119462                5.47713671               78.31680446                1.00000000               -0.10995956               -0.11464537                0.37571684                0.00479932                0.16156734               -0.23257747
              16.66995360                4.98372796               77.88564199                0.84284196               -0.13747608               -0.14304326                0.46450148               -0.01248910                0.23631979               -0.22499401
              17.66844510                4.48960432               77.45598416                0.70282699               -0.16920041               -0.16433571                0.53746402               -0.03115276                0.21912368               -0.22283582
              18.66656959                3.99465205               77.02509367                0.36247397               -0.26500556               -0.19788320                0.61828799               -0.25062233                0.24970512               -0.40692756
              19.66314499                3.49492650               76.59702232                0.00010000                0.89337931                0.27024406                0.69913852               -5.51836433                8.71337604               -1.50265240
              20.68443718                2.87488807               76.33596043                0.00010000                3.13939958               -1.93771033               -0.71387795               -7.62534029               16.27175187                0.06170346
              21.72593298                2.24410384               76.05539178                0.00010000                3.91337520               -1.19226547               -1.42240742               -6.27107769               15.22512354               -0.23056284
              22.76270468                1.63113815               75.76948362                1.00000000                2.05409370                0.45934200               -1.54001161               -3.51425557                7.58857235               -0.04394874
              23.76701485                1.09102621               75.33159422                1.00000000                0.43101744                0.40387948               -1.37334979               -0.13412024                0.00523522               -0.09911712
              14.16581969                7.46246760               79.04600479                1.00000000               -0.05472795               -0.04444836                0.15452239               -0.00764840                0.15297804                0.78822901
              15.16527241                6.96931027               78.61045803                1.00000000               -0.06293190               -0.08017435                0.24138684                0.00073148                0.34269199                0.00236284
              16.16456105                6.47603172               78.17831614                0.00010000               -0.07472723               -0.10249665                0.32603444               -0.01592276                0.91028465               -0.66657308
              17.16377786                5.98229166               77.75410448                0.00010000               -0.08133063               -0.61867206                0.42556335               -0.29556048                1.24792341                0.02285921
              18.16293444                5.48793818               77.32904586                0.00010000               -0.09358087               -1.06753071                0.48440572               -0.19116657                1.03566956                0.76605139
              19.16190625                4.99270597               76.90135960                0.00010000                0.00118893               -1.75349773                0.57081842                0.22166602                1.04027279                1.84345374
              20.16295822                4.49202125               76.47759384                0.00010000                2.72378459               -3.87468548                0.64739142               -5.44170439                8.75473055                4.09264133
              21.21638194                3.84287858               76.20678666                0.00010000                4.97102489               -2.53674006               -1.10688563              -10.00524837               14.23614125                0.72005482
              22.26237871                3.23589910               75.89998604                0.00010000                4.39379183               -0.65281813               -1.77528102               -8.38834777               13.21489284               -1.15731018
              23.30425778                2.63442612               75.60799507                0.00010000                2.19002751                1.76729327               -0.73744397               -6.20378721                7.29501371               -3.67212414
              24.30617926                2.09376540               75.16990038                0.95436674                0.19214893                3.09958674               -0.58153639               -3.03363602                0.06955540               -1.45677317
              14.65904716                8.46213819               78.90990743                1.00000000               -0.04438502               -0.01963193                0.10090867               -0.00318850                0.25796146                0.66776879
              15.65860331                7.96856942               78.47077937                0.47503665               -0.05761907               -0.07458976                0.19418041                0.01363498                0.43772102               -0.35405546
              16.65789478                7.47508677               78.03492824                0.00010000               -0.32336909               -0.13417060                0.27048701               -0.47110061                1.96686186               -1.17771052
              17.65213593                6.97135452               77.62644465                0.00010000               -0.18436572               -0.93034277               -0.05425899               -1.14645521                3.48945302               -0.05183570
              18.65420746                6.46825371               77.22043459                0.00010000                0.73919582               -1.83888946               -0.37391688               -1.08380973                3.83818575                1.27613250
              19.66691984                5.95958210               76.81970821                0.00010000                2.49654145               -3.27949786               -0.74650941               -2.02574730                5.12318492                3.08950059
              20.70413829                5.41743279               76.44288596                0.00010000                3.67672550               -5.54334055               -1.35642196               -4.84433529                6.68165766                5.44749189
              21.74045435                4.82415327               76.08286689                0.00010000                3.12400977               -1.48246886               -1.97417662               -8.52577559                7.73418561                1.17711964
              22.76661849                4.23104748               75.73822997                0.00010000                2.01541454                0.39155222               -2.10315458               -8.28362451                6.80384794               -1.28766784
              23.78076264                3.66648401               75.37344856                0.00010000                1.05225437                3.20525977               -4.74123000               -5.78904143                2.23296110               -3.68539832
              24.78766357                3.15301794               74.98131611                0.41718676                0.69009307                4.84659330               -2.81528992               -3.24965603                0.85649248               -1.18885665
              15.15289346                9.46207497               78.77230854                1.00000000               -0.02969322                0.00290516                0.04625474               -0.00233360               -0.00696076                0.57363941
              16.15259653                8.96781848               78.32571473                0.35539366               -0.02697612               -0.07186135                0.16402658                0.00118939                0.37174243               -0.53004815
              17.15235394                8.47334830               77.88646066                0.00010000               -0.24573519               -0.20190828                0.22784832               -0.74857407                3.01418585               -1.69235618
              18.14768182                7.96368481               77.49288869                0.00010000                0.03383635               -0.68911604               -0.42171808               -1.54155295                5.43313243               -0.62551624
              19.15303067                7.45116039               77.10193390                0.00010000                1.22651993               -1.48950698               -1.06864086               -2.04606296                5.73444275                0.34053828
              20.17221222                6.92711601               76.71602326                0.00010000                2.42348359               -2.51106846               -1.76054789               -3.54449411                6.04353959                1.27833183
              21.20150034                6.38115444               76.33621706                0.00010000                3.00197541               -2.53245483               -2.47308656               -6.43763158                6.12511104                1.38663433
              22.23225173                5.81322920               75.96065418                0.00010000                2.64375749               -0.51528848               -3.07276763               -8.23482253                5.56206045                0.93904156
              23.25437549                5.24373015               75.58124499                0.00010000                1.71273771                1.58854792               -3.59959678               -7.46789521                3.92262486               -0.18445031
              24.26650649                4.69853131               75.18758741                0.00010000                0.68713967                3.12849867               -3.31325028               -4.53838232                1.80895296               -0.98155756
              25.26811828                4.19069726               74.76971545                0.41810887                0.16117945                3.69273249               -3.51264384               -2.69006439                0.97066718               -2.65224084
              15.64751347               10.46219630               78.63391524                1.00000000               -0.01597088                0.02122229               -0.01032831               -0.00177434                0.00277980                0.58297522
              16.64735376                9.96713219               78.18244049                0.35993696               -0.02282506               -0.06286166                0.12661597               -0.03933553                0.11623703               -0.42599387
              17.64705696                9.47104861               77.73308532                0.00010000               -0.19304880               -0.20130970                0.24187458               -0.96812511                3.71233050               -1.77006322
              18.64349278                8.95757220               77.35378305                0.00010000                0.13990165               -0.50161469               -0.68508791               -2.07351319                7.11052654               -1.08083284
              19.64985500                8.43846357               76.97312727                0.00010000                1.12715661               -0.93141637               -1.57264043               -2.87915961                6.96957835               -0.46881031
              20.66603591                7.90936073               76.59319478                0.00010000                1.97087357               -1.18387738               -2.46365689               -4.38185742                6.77421812                0.00672782
              21.68927247                7.36678369               76.21311636                0.00010000                2.35731380               -0.75478717               -3.32853933               -6.14101194                6.23859348                0.28720773
              22.71318219                6.81384750               75.82952611                0.00010000                2.13430010                0.54589488               -4.08890455               -7.12685259                5.16277271                0.34748468
              23.73195847                6.26281844               75.43678752                0.00010000                1.49228465                2.10581975               -4.58031315               -6.40483281                3.58326730                0.24581958
              24.74302788                5.72905398               75.02874145                0.00010000                0.87859567                3.14171338               -4.82008223               -3.87356986                1.82220742               -0.09882643
              25.74953038                5.22687259               74.60358171                0.41935258                0.65025022                3.41143569               -4.74567652               -1.77962048                1.03006709               -0.97048917
              16.14298618               11.46249941               78.49617427                1.00000000               -0.00286695                0.03873418               -0.06788085               -0.00133984               -0.00002615                0.64891304
              17.14295751               10.96656124               78.03949209                0.38824052               -0.02173732               -0.05092874                0.09292381               -0.05345074                0.02938462               -0.40857484
              18.14255143               10.46932211               77.58332158                0.00010000               -0.20804537               -0.15443333                0.25220908               -1.04377445                4.24606475               -1.53267797
              19.13879660                9.95365251               77.21125205                0.00010000                0.05537568               -0.24122962               -0.85690607               -2.28697867                8.28653445               -1.31286203
              20.14365894                9.43253206               76.83739494                0.00010000                0.87291774               -0.30087009               -1.91173530               -3.13127181                7.98464812               -0.95270484
              21.15625495                8.90343846               76.46167525                0.00010000                1.52671908               -0.18135909               -2.95165734               -4.27720506                7.52776289               -0.60123419
              22.17419332                8.36605869               76.08242540                0.00010000                1.87124875                0.34563259               -3.95631377               -5.35520042                6.74773842               -0.29451274
              23.19367993                7.82414710               75.69628933                0.00010000                1.84395127                1.30697342               -4.84727137               -5.74107611                5.54822187               -0.05208122
              24.21107235                7.28584654               75.29887368                0.00010000                1.56505034                2.38010880               -5.52455779               -4.93320945                3.95299398                0.07688083
              25.22498094                6.76136558               74.88604618                0.00010000                1.29081517                3.11424918               -5.88663048               -2.85655294                2.06609398               -0.06470165
              26.23688865                6.25892598               74.45437756                0.42008064                1.19077179                3.03537576               -5.87993038               -1.25790455                1.00873976               -0.86294003
              16.63936301               12.46297098               78.35879133                1.00000000                0.00990367                0.05509830               -0.12487419               -0.00051776                0.00216519                0.68644387
              17.63946204               11.96611362               77.89671303                0.41478645               -0.01364006               -0.03862568                0.06146191               -0.05263592                0.02915140               -0.41613371
              18.63909021               11.46795994               77.43516608                0.00010000               -0.24593943               -0.12712486                0.25215708               -0.96634661                4.74555837               -1.46963255
              19.63454326               10.95274761               77.06778400                0.00010000               -0.08232979                0.04338531               -0.96444742               -2.12320959                9.25574990               -1.33749790
              20.63744361               10.43244617               76.69873497                0.00010000                0.62109630                0.20662603               -2.13001769               -2.85440850                8.87952546               -1.11554322
              21.64696518                9.90573355               76.32650038                0.00010000                1.20081074                0.48466647               -3.27376917               -3.68129058                8.29230037               -0.84536242
              22.66145983                9.37369634               75.94898003                0.00010000                1.58038175                0.98784379               -4.37904592               -4.29064273                7.40580686               -0.57334445
              23.67857282                8.83998697               75.56291550                0.00010000                1.73079878                1.70016966               -5.37926508               -4.33008678                6.13357560               -0.33772923
              24.69607580                8.31042062               75.16425249                0.00010000                1.71222869                2.43086102               -6.16796773               -3.55567827                4.44609013               -0.22631401
              25.71281739                7.79133897               74.74876211                0.00010000                1.65878493                2.86373088               -6.62266883               -2.00370489                2.37205053               -0.41525369
              26.72925150                7.28758011               74.31279174                0.42124529                1.64341092                2.68127388               -6.63073860               -0.84955580                1.13372843               -1.11576787
              17.13669054               13.46360138               78.22152616                1.00000000                0.02252871                0.06996762               -0.18379863                0.00013835                0.00624574                0.68650505
              18.13691583               12.96578873               77.75382751                0.44591755               -0.00500154               -0.02655960                0.03489986               -0.04696821                0.06167287               -0.45179330
              19.13659051               12.46677961               77.28729980                0.00010000               -0.25348231               -0.11047184                0.25239507               -0.74718347                5.31987164               -1.26523601
              20.13184618               11.95452022               76.92523304                0.00010000               -0.15028381                0.26958420               -1.03913252               -1.63847939               10.21972539               -1.18714320
              21.13358483               11.43666458               76.56014001                0.00010000                0.47663936                0.55015444               -2.27347570               -2.22597667                9.70262613               -0.99890104
              22.14137897               10.91313179               76.19109749                0.00010000                1.02711071                0.87512769               -3.48413738               -2.77584418                9.02073961               -0.79456832
              23.15412705               10.38581557               75.81574545                0.00010000                1.44874752                1.31472131               -4.65493377               -3.08571672                8.06060315               -0.58969580
              24.17035392                9.85815049               75.43085656                0.00010000                1.72398712                1.84161770               -5.72233915               -2.96065063                6.72274510               -0.42036071
              25.18860679                9.33446376               75.03229228                0.00010000                1.86967137                2.33693343               -6.57624307               -2.30449464                4.92698559               -0.37037395
              26.20774735                8.81864020               74.61543451                0.00010000                1.94042341                2.60545088               -7.07414896               -1.22476741                2.65460481               -0.57949418
              27.22741526                8.31255145               74.17592248                0.42238107                1.96679115                2.37538108               -7.07536094               -0.47731776                1.25956936               -1.21717222
              17.63499107               14.46437033               78.08393089                0.94658492                0.03533726                0.08343356               -0.23776988               -0.00004597                0.03328240                0.60262656
              18.63534444               13.96558243               77.61060103                0.36040115                0.02119876               -0.01483568                0.00778118               -0.03864061                0.36140961               -0.46153122
              19.63541505               13.46575050               77.14396897                0.00010000               -0.17278734               -0.10588634                0.21416403               -0.43627655                6.05724282               -1.02777595
              20.63188870               12.95813929               76.78521726                0.00010000               -0.05512722                0.38568380               -1.11107501               -0.90141903               11.07903480               -0.75404364
              21.63431250               12.44344926               76.42419349                0.00010000                0.52043070                0.70674937               -2.39465688               -1.28214916               10.45939570               -0.60677242
              22.64229731               11.92323610               76.05808844                0.00010000                1.02071445                1.06250667               -3.64860653               -1.57036236                9.66113359               -0.48682129
              23.65472679               11.39999077               75.68501296                0.00010000                1.42071485                1.47032130               -4.86164182               -1.69248974                8.64486014               -0.36838564
              24.67071161               10.87681933               75.30182011                0.00010000                1.73847052                1.89422833               -5.97206755               -1.56093626                7.26376920               -0.27267637
              25.68949620               10.35715928               74.90425962                0.00010000                1.97613716                2.25373692               -6.86752805               -1.13869060                5.38479415               -0.25437025
              26.71023435                9.84344799               74.48711865                0.00010000                2.11932140                2.43240079               -7.39124485               -0.54514212                2.92340174               -0.40395097
              27.73188263                9.33508773               74.04489193                0.42337077                2.16482786                2.25600028               -7.36937474               -0.15490305                1.39172615               -0.88436324
              18.13426543               15.46527005               77.94484096                0.95322270                0.04974148                0.08997176               -0.30233615               -0.05036782                0.28154485                0.53166562
              19.13476284               14.96549201               77.46785794                0.64299617                0.05213426               -0.00904125               -0.01848362               -0.08856839                0.80860500               -0.45806070
              20.13530811               14.46466189               77.00162344                0.36927458                0.06781026               -0.10886177                0.17829920               -0.17359949                7.09171773               -1.01612061
              21.13611905               13.96223389               76.65123374                0.36323917                0.37684629                0.40946017               -1.22992539               -0.27008083               12.00773327               -0.35154083
              22.14284504               13.45079957               76.29311501                0.36084094                0.86555805                0.73503140               -2.54952093               -0.53934484               11.01986822               -0.31097833
              23.15343021               12.93438193               75.92945568                0.36253102                1.19244948                1.11458228               -3.83908142               -0.66558907               10.14450114               -0.26674466
              24.16669403               12.41522199               75.55840447                0.36773613                1.42682334                1.52312269               -5.08817715               -0.72061977                9.09149198               -0.23433061
              25.18196668               11.89603506               75.17706225                0.37685662                1.62551446                1.92157315               -6.23829108               -0.65866794                7.72023753               -0.21823575
              26.19920432               11.37953850               74.78132777                0.39044885                1.84746913                2.23792170               -7.17783982               -0.46653076                5.87291591               -0.24806831
              27.21891606               10.86728821               74.36590069                0.40914714                2.09166953                2.38402266               -7.74685871               -0.22518151                3.34444276               -0.36792844
              28.24103771               10.35767146               73.92346037                0.71203390                2.21216500                2.25837292               -7.72923084               -0.04616757                1.72589986               -0.74554542
              13.60817976                5.60660895               80.32051190                1.00000000               -0.06864804               -0.03794416                0.14908651                0.01907840               -0.39104643                0.47977202
              14.60749328                5.10989444               79.88936219                1.00000000               -0.09300156               -0.08199524                0.29144584                0.02736838               -0.47854292                0.05509433
              15.60631973                4.61298450               79.45596608                1.00000000               -0.13972553               -0.12141144                0.43061688                0.02771451               -0.50361632               -0.04380182
              16.60469877                4.11574764               79.02416989                0.67616322               -0.19368472               -0.16375229                0.56759954                0.00291662               -0.46037479               -0.26807312
              17.60244604                3.61783065               78.59182098                0.48610531               -0.24562945               -0.20343138                0.70690630               -0.01334335               -0.44478714               -0.29459648
              18.59978618                3.11934841               78.16080264                0.14794086               -0.85441527               -0.26096915                0.85431535               -0.60949897                0.62956772               -0.56184591
              19.58535773                2.60886246               77.75073730                0.00010000               -2.10360770                0.51748403                0.60435886               -4.25484014                8.32232815               -2.27341822
              20.55771403                2.01597243               77.46533662                0.00010000               -0.02692525               -0.88562015               -0.56962603               -4.12593971               15.60619166               -0.22531937
              21.58481923                1.40674928               77.18673396                0.00010000                5.04012348               -1.59683297               -1.59941126               -4.13108495               15.98119932               -0.04471165
              22.65851650                0.78174530               76.90683269                1.00000000                4.02132329                0.61569185               -2.35697466               -4.12030813                7.80270026                0.02750492
              23.66524569                0.24217496               76.47152029                1.00000000                0.67291942                0.52138871               -2.06185638               -0.06053085               -0.02067083               -0.02070313
              14.10508506                6.60622951               80.18223923                1.00000000               -0.05058706               -0.03242298                0.10568444               -0.00271425                0.01667902                0.66694535
              15.10457919                6.10907449               79.75094745                1.00000000               -0.07073913               -0.07849498                0.24951343                0.00644537                0.08869611                0.07854964
              16.10367028                5.61177039               79.32064902                1.00000000               -0.11371626               -0.11927538                0.39070150                0.00511305                0.16044518               -0.22564998
              17.10230487                5.11411011               78.89068395                0.85950534               -0.15790297               -0.16623703                0.53859877               -0.01033412                0.23482606               -0.20693893
              18.10051222                4.61579634               78.46209480                0.71758568               -0.20647889               -0.20793288                0.67703319               -0.02690219                0.22151496               -0.21631591
              19.09817529                4.11673871               78.03237745                0.38185063               -0.30074503               -0.26188029                0.82948055               -0.19281885                0.26909676               -0.40285861
              20.09449732                3.61403730               77.60559964                0.00010000                0.96679678                0.06887924                1.00169819               -4.87474797                7.95183518               -1.33466542
              21.11751122                3.00711623               77.33003768                0.00010000                3.30623111               -2.02023148               -0.48685120               -6.66770062               15.01986606               -0.27861963
              22.16062194                2.39078095               77.04158677                0.00010000                4.10446772               -1.28852379               -1.35240319               -5.50897382               14.53382776               -0.75993748
              23.19960058                1.78790222               76.75385773                0.91955433                2.17943940                0.51485387               -1.71456791               -3.01894480                7.36390700                0.00475106
              24.20421073                1.24738885               76.31810852                1.00000000                0.46101511                0.42610443               -1.42930253               -0.10950965                0.01770100               -0.08695660
              14.60243553                7.60596049               80.04706768                1.00000000               -0.03542167               -0.01781667                0.06093624               -0.00552810                0.14894552                0.77923489
              15.60208131                7.10832454               79.61270760                1.00000000               -0.05245807               -0.07038910                0.20863648                0.00101805                0.33723731                0.00579602
              16.60138637                6.61059900               79.18172710                0.00010000               -0.08075839               -0.11135071                0.35355699               -0.01722179                0.91211954               -0.65972383
              17.60046614                6.11242289               78.75880908                0.00010000               -0.10534870               -0.62072074                0.51047260               -0.28085655                1.24589258               -0.17105359
              18.59927939                5.61367199               78.33470418                0.00010000               -0.13886515               -1.05005258                0.64104975               -0.18358188                1.04034059                0.37892515
              19.59768884                5.11411080               77.90826107                0.00010000               -0.08970671               -1.67329671                0.80345363                0.22169743                1.07141998                1.23433782
              20.59748526                4.61024005               77.48580392                0.00010000                2.49637643               -3.58192828                0.98489283               -4.71473100                7.85681040                3.11836703
              21.64761637                3.97556780               77.19742479                0.00010000                4.81842492               -2.47778487               -0.83119461               -8.83651513               12.92759017               -0.02593021
              22.69385376                3.38097880               76.88273417                0.00010000                4.69566687               -0.72120544               -1.63811659               -7.47001133               13.20057189               -1.94816539
              23.74152971                2.79204238               76.59989271                0.00010000                2.51142473                1.47444372               -1.09673946               -6.10550670                7.61676127               -5.03299256
              24.74408225                2.25069705               76.16366056                0.51908696                0.25525450                3.00158944               -0.83170158               -4.01749923                0.07748110               -3.39321345
              15.10024641                8.60587318               79.91049714                1.00000000               -0.02853596                0.00219581                0.01975814               -0.00095694                0.25036848                0.65566941
              16.09996105                8.10766670               79.47261856                0.49349664               -0.05094602               -0.06834536                0.17369994                0.01169600                0.42133733               -0.33755249
              17.09922749                7.60954338               79.03784210                0.00010000               -0.31731546               -0.14615524                0.30925598               -0.45159017                1.74732432               -1.16330766
              18.09361474                7.10169570               78.62652544                0.00010000               -0.20374052               -0.91765274                0.06420738               -1.08811846                3.05253728               -0.41843315
              19.09515268                6.59479528               78.21777331                0.00010000                0.62132218               -1.75853627               -0.17070009               -0.99836405                3.36692575                0.55577128
              20.10604118                6.08327278               77.81391672                0.00010000                2.17965106               -3.04051543               -0.44288907               -1.78937181                4.50372801                1.97276476
              21.13874570                5.54239874               77.43146175                0.00010000                3.20004905               -5.03189983               -0.97403297               -4.19167336                6.00492101                3.88101615
              22.17004216                4.95756053               77.06610522                0.00010000                2.80007177               -1.37124876               -1.55111679               -7.42742078                7.27542490                0.02780274
              23.19474713                4.37635684               76.71719981                0.00010000                1.88650180                0.34378380               -2.06871455               -7.58523915                6.74913040               -2.43268721
              24.20777220                3.81739110               76.34374426                0.00010000                0.59021383                2.84503243               -2.65695312               -6.01501901                4.10958150               -7.37329758
              25.20655141                3.30742064               75.94259645                0.41178396               -0.12207894                4.66390604               -3.25476547               -3.56585682                2.40621197               -6.07915120
              15.59882934                9.60600441               79.77241594                1.00000000               -0.01843030                0.02051042               -0.02184652               -0.00057221               -0.00360028                0.55733832
              16.59864503                9.10695763               79.32734617                0.37796303               -0.02518833               -0.07065948                0.16054826               -0.00236048                0.34567409               -0.50717414
              17.59832557                8.60767589               78.88903860                0.00010000               -0.25965840               -0.21326562                0.28361496               -0.71473633                2.60953519               -1.63457782
              18.59345187                8.09406984               78.48940076                0.00010000               -0.02952698               -0.68502147               -0.28342131               -1.45765738                4.64271364               -0.88112236
              19.59773503                7.57850127               78.09248780                0.00010000                1.04230437               -1.41646663               -0.83871421               -1.86562685                4.89674022               -0.20635985
              20.61429795                7.05330049               77.70031179                0.00010000                2.08145050               -2.31854863               -1.42142756               -3.13083571                5.17369491                0.44740454
              21.63936404                6.50960205               77.31415743                0.00010000                2.54059480               -2.29492885               -2.02059705               -5.59405544                5.33966424                0.36406537
              22.66510985                5.94814283               76.93315090                0.00010000                2.14771839               -0.45127843               -2.55880505               -6.99499271                5.04266963               -0.31836416
              23.68231841                5.38785448               76.54955708                0.00010000                1.25278418                1.37738423               -2.96583347               -6.33076546                3.99520659               -1.97419507
              24.69016553                4.84894303               76.15472179                0.00010000                0.51938150                2.89358560               -3.16881215               -3.72647010                2.08144790               -3.26146091
              25.69270604                4.34397517               75.73788784                0.41273027                0.25405055                3.14573101               -3.22053702               -1.62848972                1.04976292               -4.36371614
              16.09832852               10.60628339               79.63353461                1.00000000               -0.00861626                0.03571748               -0.06430985               -0.00126492                0.00339111                0.56260208
              17.09824236               10.10625351               79.18376062                0.38525475               -0.02539829               -0.06684315                0.13590483               -0.03877370                0.10729210               -0.40605318
              18.09782055                9.60527806               78.73591496                0.00010000               -0.23030701               -0.21776401                0.31881224               -0.91244071                3.17386128               -1.68097787
              19.09363622                9.08799527               78.34770547                0.00010000                0.03944682               -0.50055205               -0.53875376               -1.93342188                6.03246662               -1.22577394
              20.09860949                8.56646595               77.95866641                0.00010000                0.93437348               -0.88524324               -1.33758217               -2.59353559                5.87917125               -0.82556902
              21.11232369                8.03690181               77.57052390                0.00010000                1.67063830               -1.09896519               -2.11228413               -3.84330659                5.68544285               -0.55096020
              22.13202225                7.49650016               77.18268144                0.00010000                1.97830970               -0.70539901               -2.84086875               -5.25711557                5.24322016               -0.48239770
              23.15188988                6.94853496               76.79246102                0.00010000                1.76546822                0.43102432               -3.45945260               -5.92724517                4.42703126               -0.71140902
              24.16733162                6.40390453               76.39548767                0.00010000                1.26161145                1.71161968               -3.86852764               -5.07389797                3.19229464               -1.17012641
              25.17712211                5.87526281               75.98625182                0.00010000                0.82928588                2.51811097               -4.01562525               -2.86000587                1.64638405               -1.85445155
              26.18391734                5.37033526               75.56074684                0.41356833                0.67952288                2.50832000               -4.02565568               -1.24619840                0.85138874               -2.78867302
              16.59886378               11.60671876               79.49527158                1.00000000                0.00111011                0.05129524               -0.11119668               -0.00011835                0.00072481                0.62343821
              17.59887488               11.10562077               79.04052964                0.41585550               -0.02643896               -0.05880102                0.11303568               -0.05065096                0.03193164               -0.38403700
              18.59833500               10.60332061               78.58632951                0.00010000               -0.26396716               -0.17990609                0.33973108               -0.96492585                3.61176915               -1.44804110
              19.59359554               10.08405880               78.20343572                0.00010000               -0.06886109               -0.24853624               -0.71316113               -2.09798840                7.00481371               -1.36286251
              20.59695778                9.56079640               77.81945749                0.00010000                0.69010374               -0.28913497               -1.68999674               -2.79306976                6.70572481               -1.14306185
              21.60739761                9.03132119               77.43401041                0.00010000                1.28153967               -0.17672859               -2.61652741               -3.72788135                6.25530595               -0.93857935
              22.62258857                8.49549407               77.04564195                0.00010000                1.58814826                0.27647107               -3.47234898               -4.56056171                5.55489752               -0.80402888
              23.63916058                7.95676331               76.65170333                0.00010000                1.57620144                1.06696136               -4.19437532               -4.75353057                4.54440957               -0.77321266
              24.65411260                7.42208687               76.24866778                0.00010000                1.36870532                1.89227148               -4.70435391               -3.95673232                3.23271080               -0.89715180
              25.66653468                6.89930525               75.83292026                0.00010000                1.17622871                2.36714511               -4.95095808               -2.22313041                1.69551972               -1.25974111
              26.67763718                6.39414157               75.40174896                0.41463310                1.11024910                2.27287502               -4.89988660               -0.94593880                0.85738845               -2.03375876
              17.10052213               12.60730929               79.35736118                1.00000000                0.01053523                0.06582464               -0.15914344                0.00127220                0.00251283                0.65714945
              18.10062748               12.10507749               78.89749777                0.44394369               -0.02190630               -0.04953139                0.09277630               -0.04769719                0.03309118               -0.38566377
              19.10008401               11.60167994               78.43822859                0.00010000               -0.32134135               -0.15676241                0.34939552               -0.86897182                4.04022605               -1.38452865
              20.09420066               11.08302454               78.05882299                0.00010000               -0.22991500                0.02970468               -0.83199999               -1.90864888                7.83298438               -1.32045185
              21.09548571               10.56068325               77.67844420                0.00010000                0.44338670                0.20217633               -1.93575041               -2.51874248                7.46415925               -1.18017734
              22.10306839               10.03336724               77.29535918                0.00010000                0.99415953                0.45361211               -2.97815153               -3.19986918                6.88316799               -1.00432381
              23.11536890                9.50202958               76.90766585                0.00010000                1.35790365                0.87317831               -3.93928646               -3.66136256                6.05781552               -0.84388193
              24.13022646                8.96987419               76.51272124                0.00010000                1.51430696                1.43993432               -4.76154263               -3.61464547                4.94886206               -0.74209595
              25.14565503                8.44174996               76.10736391                0.00010000                1.51891703                1.98671229               -5.36423720               -2.89641922                3.55100350               -0.76989982
              26.16060480                7.92260571               75.68836076                0.00010000                1.48354428                2.27310489               -5.66311692               -1.59496241                1.88448512               -1.04518793
              27.17532592                7.41579276               75.25277777                0.41569649                1.47211163                2.07222989               -5.59412386               -0.65945724                0.91559266               -1.72493969
              17.60335282               13.60803525               79.21955790                1.00000000                0.01974694                0.07791539               -0.20795064                0.00205010                0.00799292                0.65674708
              18.60355029               13.10463014               78.75441087                0.47823979               -0.01721512               -0.04035781                0.07778618               -0.04064358                0.06344027               -0.41631406
              19.60300852               12.60018536               78.29042040                0.00010000               -0.35655188               -0.14315914                0.36045379               -0.63174071                4.55200829               -1.18998679
              20.59641925               12.08465289               77.91543951                0.00010000               -0.33841386                0.26694465               -0.92061827               -1.41453462                8.68986824               -1.13470383
              21.59624024               11.56483993               77.53820401                0.00010000                0.28173259                0.55869040               -2.11292874               -1.93881315                8.19009810               -0.98776716
              22.60205390               11.04039343               77.15752597                0.00010000                0.83070643                0.84713520               -3.23992254               -2.41126669                7.51480416               -0.83357011
              23.61285437               10.51295764               76.77123906                0.00010000                1.25466964                1.21038416               -4.28112761               -2.64714647                6.60854616               -0.68895124
              24.62714729                9.98556200               76.37671598                0.00010000                1.52991645                1.62559499               -5.17948598               -2.49442451                5.42516298               -0.58779031
              25.64345270                9.46182112               75.97078446                0.00010000                1.67226711                1.99471648               -5.84671090               -1.90205278                3.92469714               -0.60074546
              26.66059264                8.94476735               75.54998900                0.00010000                1.73106226                2.16523001               -6.17976046               -0.98961000                2.09888646               -0.83776902
              27.67807394                8.43558617               75.11106737                0.41646877                1.74813047                1.93419829               -6.08670030               -0.36974665                1.00898331               -1.41892741
              18.10737335               14.60886760               79.08147309                0.96659579                0.02911458                0.08825983               -0.25162172                0.00167336                0.02655443                0.56835130
              19.10766450               14.10427034               78.61098545                0.39042549                0.00265424               -0.03204512                0.06363898               -0.03095264                0.33501880               -0.42286559
              20.10742644               13.59881676               78.14678172                0.00010000               -0.32045512               -0.13898356                0.33475616               -0.29193812                5.22412620               -0.96053124
              21.10125540               13.08836344               77.77463526                0.00010000               -0.32287671                0.44100751               -1.00245996               -0.71991013                9.46931244               -0.70891916
              22.10096891               12.57185706               77.40085673                0.00010000                0.27349756                0.74509089               -2.26283270               -1.09979115                8.86921607               -0.57652420
              23.10672535               12.05030994               77.02257234                0.00010000                0.81442460                1.05548763               -3.44972706               -1.36701167                8.08249860               -0.47678805
              24.11725740               11.52623726               76.63803133                0.00010000                1.23745702                1.39389774               -4.54852099               -1.45807964                7.11689218               -0.38284477
              25.13147449               11.00238609               76.24467933                0.00010000                1.55756165                1.73084417               -5.50217873               -1.32279939                5.88478278               -0.31374877
              26.14840863               10.48164429               75.83927406                0.00010000                1.77865333                1.99975023               -6.21731572               -0.94625183                4.30428317               -0.31739208
              27.16704756                9.96591031               75.41793528                0.00010000                1.89423585                2.10955492               -6.57492038               -0.44315836                2.31680128               -0.46744489
              28.18629335                9.45447672               74.97654137                0.41751948                1.92457908                1.92813545               -6.45616753               -0.11518861                1.10900368               -0.88725419
              18.61258081               15.60980045               78.94179239                0.96290643                0.04012682                0.09328499               -0.30547737               -0.06037586                0.27103958                0.49065155
              19.61298207               15.10398924               78.46804057                0.65561665                0.02479241               -0.02810993                0.04891860               -0.08798046                0.75554998               -0.41563402
              20.61307665               14.59740569               78.00416217                0.36856485               -0.20006648               -0.14110665                0.31442252                0.03921166                6.16769622               -0.93869540
              21.60898074               14.09347304               77.63943291                0.36304211               -0.03893708                0.51096062               -1.12301220               -0.11066264               10.29627749               -0.32085954
              22.61229791               13.57974175               77.26814406                0.36095644                0.56763599                0.78846860               -2.42663332               -0.46559233                9.36018902               -0.28394804
              23.62033346               13.06150318               76.89190623                0.36244445                0.96593554                1.11932429               -3.65432374               -0.58449631                8.49910608               -0.24630601
              24.63161662               12.54083559               76.50899623                0.36720780                1.24754102                1.45983268               -4.79232747               -0.63029244                7.49327254               -0.21970149
              25.64528428               12.02017888               76.11707944                0.37527241                1.46934069                1.77927919               -5.78636158               -0.56999387                6.26231430               -0.20764864
              26.66100344               11.50181612               75.71306215                0.38779964                1.68063738                2.01718385               -6.54293627               -0.40154112                4.70418760               -0.23684379
              27.67889703               10.98695845               75.29301752                0.40453478                1.88169550                2.10481341               -6.93854477               -0.19841482                2.66020065               -0.34488403
              28.69863735               10.47414888               74.85138127                0.70905968                1.97403149                1.96721539               -6.82182765               -0.04655695                1.37669553               -0.66122640
              14.03469090                5.74988178               81.32143915                1.00000000               -0.04461711               -0.00714963                0.04028312                0.03030791               -0.39386658                0.47750216
              15.03424472                5.24907317               80.89200110                1.00000000               -0.07754022               -0.06746857                0.23728517                0.03726515               -0.48521686                0.05626126
              16.03314009                4.74808271               80.46027526                1.00000000               -0.14059283               -0.12200159                0.42877397                0.03718227               -0.51418476               -0.03959108
              17.03143287                4.24676294               80.03013118                0.68339153               -0.20935007               -0.18129492                0.61888532                0.01227835               -0.47005451               -0.25605939
              18.02895309                3.74478533               79.59945298                0.49605597               -0.27584811               -0.23905179                0.80874466               -0.00141084               -0.44589482               -0.28920420
              19.02591591                3.24227710               79.17023872                0.16392358               -0.67394903               -0.31406491                1.01908853               -0.41502305                0.41939529               -0.56441993
              20.01547411                2.73142331               78.75757886                0.00010000               -1.58613213                0.17432583                0.83045429               -3.82290714                7.39719843               -1.84950518
              20.99419326                2.14772427               78.46091375                0.00010000                0.33520721               -1.04967583               -0.32709744               -3.64852642               14.17709723               -0.38616763
              22.02217825                1.54914457               78.17158635                0.00010000                4.92698338               -1.62396823               -1.42078092               -3.73812384               14.69009819               -0.21400429
              23.09273293                0.93173931               77.88385332                1.00000000                3.83354661                0.64338390               -2.24530649               -3.77955073                7.22792958                0.00394523
              24.09884918                0.39209728               77.45208057                1.00000000                0.61162547                0.50495245               -1.83454226                0.03760667               -0.02054155               -0.04694067
              14.53580259                6.74981029               81.18278571                1.00000000               -0.02856746               -0.00436957                0.00702829                0.00021276                0.01320610                0.66127827
              15.53551691                6.24839848               80.75322195                1.00000000               -0.05677810               -0.06590437                0.20586683                0.00827106                0.08292319                0.07990968
              16.53466703                5.74686269               80.32461849                1.00000000               -0.11562865               -0.12192717                0.40051129                0.00566934                0.15755688               -0.21774132
              17.53320434                5.24494999               79.89641397                0.87364341               -0.17425627               -0.18669212                0.60156666               -0.00910567                0.23521922               -0.19078606
              18.53118190                4.74239481               79.46952483                0.73295254               -0.23788293               -0.24735757                0.80056285               -0.02386856                0.23365239               -0.20875187
              19.52844668                4.23913645               79.04168328                0.40781319               -0.33302231               -0.32118266                1.02190246               -0.14546175                0.31080227               -0.39963856
              20.52452145                3.73316657               78.61705628                0.00010000                1.02003444               -0.14484159                1.27485684               -4.32261755                7.13722659               -1.12647501
              21.54884737                3.13722751               78.32622341                0.00010000                3.41340195               -2.07159165               -0.30113042               -5.82257320               13.57269952               -0.60973738
              22.59278949                2.53290488               78.02834371                0.00010000                4.23068481               -1.39109067               -1.28500852               -4.86551910               13.52227963               -1.13614435
              23.63346107                1.93817315               77.73519226                0.87061190                2.30388938                0.60702095               -1.98361960               -2.64122004                6.92701101               -0.00565203
              24.63886728                1.39714680               77.30300817                1.00000000                0.54062142                0.46579625               -1.55041981               -0.03543441                0.01657605               -0.10844216
              15.03751876                7.74979439               81.04722352                1.00000000               -0.01610160                0.00465181               -0.02667504               -0.00347651                0.14446156                0.77106399
              16.03735774                7.24775508               80.61463076                1.00000000               -0.04083952               -0.06093399                0.17612252                0.00089743                0.33138113                0.01018769
              17.03670197                6.74564416               80.18538728                0.00010000               -0.08195528               -0.11767855                0.37557545               -0.02293115                0.91302844               -0.65219964
              18.03571864                6.24302910               79.76431393                0.00010000               -0.12063543               -0.62779069                0.58481754               -0.28774328                1.25190804               -0.35701394
              19.03428926                5.73983818               79.34186686                0.00010000               -0.17418634               -1.04046501                0.78504239               -0.21014298                1.06645471                0.00285780
              20.03223491                5.23585345               78.91742868                0.00010000               -0.16792781               -1.60748894                1.02409879                0.17737903                1.14298414                0.63474734
              21.03093070                4.72852648               78.49729170                0.00010000                2.28842878               -3.32334858                1.30152966               -4.10171305                6.91174885                2.12540924
              22.07800348                4.10629243               78.19016277                0.00010000                4.64957652               -2.41221424               -0.65604904               -7.79131547               11.44670681               -0.70964423
              23.12392223                3.52132275               77.86722371                0.00010000                4.88315634               -0.86670247               -1.47116500               -6.56200736               12.71115026               -2.66941454
              24.17566661                2.94387973               77.58606028                0.00010000                2.81354765                1.30079191               -1.68370168               -5.79064899                7.54139104               -5.76392817
              25.18019319                2.40141320               77.15326635                0.40621908                0.45265740                3.00304184               -1.22496108               -4.28584410                0.07743962               -4.46634069
              15.53981168                8.74990332               80.91030259                1.00000000               -0.01265875                0.01949353               -0.05578272               -0.00024024                0.24183315                0.64480234
              16.53968509                8.24717980               80.47425337                0.51279782               -0.04386467               -0.06110733                0.15305534                0.00677047                0.40320500               -0.31844747
              17.53893438                7.74450912               80.04111336                0.00010000               -0.32148140               -0.15301406                0.34175794               -0.44987668                1.53503920               -1.14569727
              18.53325546                7.23239418               79.62772880                0.00010000               -0.23898460               -0.90733885                0.16749885               -1.07776775                2.64370836               -0.77409529
              19.53415469                6.72158551               79.21702059                0.00010000                0.50252477               -1.68490432                0.00324625               -0.98211638                2.94074980               -0.15344733
              20.54330596                6.20698667               78.81085043                0.00010000                1.89467580               -2.81982607               -0.19600961               -1.65521605                3.93668630                0.86914917
              21.57204821                5.66669960               78.42340530                0.00010000                2.84594153               -4.56552123               -0.69147507               -3.67398188                5.28529399                2.32574285
              22.60022479                5.08898322               78.05184456                0.00010000                2.59569226               -1.28931549               -1.33891244               -6.57133872                6.61698926               -0.96911140
              23.62396205                4.51557083               77.69685568                0.00010000                1.86664247                0.23178196               -1.96223006               -6.80038713                6.27622469               -3.47666131
              24.63755764                3.96418898               77.32030950                0.00010000                0.70606968                2.34574042               -2.22054991               -5.71125654                3.89354825               -8.64480658
              25.63808345                3.45720764               76.91622080                0.40658053                0.05258094                4.19296724               -2.36710633               -3.56872255                2.68828920               -7.72472869
              16.04296099                9.75018426               80.77187161                1.00000000               -0.00736379                0.03446857               -0.08449244                0.00074653                0.00033051                0.54155704
              17.04288735                9.24653293               80.32892569                0.40300016               -0.02354674               -0.06760716                0.15448354               -0.00831153                0.31878167               -0.48076295
              18.04249006                8.74258388               79.89213296                0.00010000               -0.29002312               -0.21854927                0.33161226               -0.69978306                2.21297502               -1.56804648
              19.03708689                8.22488232               79.48722026                0.00010000               -0.12178103               -0.66862108               -0.16483345               -1.41542940                3.88456472               -1.14117625
              20.04005444                7.70614009               79.08515962                0.00010000                0.84648033               -1.33015018               -0.64950428               -1.74800442                4.11380775               -0.76360082
              21.05401650                7.17945693               78.68759471                0.00010000                1.77000395               -2.11718808               -1.16221159               -2.82501249                4.36967308               -0.38883899
              22.07545452                6.63721606               78.29580512                0.00010000                2.18444879               -2.05241928               -1.71408025               -4.93996308                4.58834105               -0.62946077
              23.09770547                6.08050612               77.90947808                0.00010000                1.86271068               -0.39581665               -2.25599878               -6.12829329                4.48537970               -1.42437182
              24.11270873                5.52595839               77.52192832                0.00010000                1.10496014                1.23671893               -2.66149770               -5.58300422                3.73966023               -3.22081747
              25.11980468                4.99079453               77.12421117                0.00010000                0.50363487                2.47887470               -2.92875664               -3.37735461                2.14036888               -4.60898297
              26.12278143                4.48527255               76.70530471                0.40748529                0.29767496                2.50151904               -3.04091620               -1.57796481                1.13810823               -5.69389726
              16.54712926               10.75059269               80.63262904                1.00000000               -0.00100228                0.04786680               -0.11464654               -0.00032538                0.00392713                0.54085531
              17.54711924               10.24582766               80.18515859                0.41224096               -0.02699640               -0.06947936                0.14207959               -0.04018518                0.10010366               -0.38417440
              18.54658934                9.74013813               79.73946156                0.00010000               -0.28642865               -0.22681101                0.38237988               -0.87076121                2.64073539               -1.58693114
              19.54139067                9.21902176               79.34300798                0.00010000               -0.09846676               -0.48022879               -0.41322390               -1.82388105                4.97791976               -1.38812884
              20.54462000                8.69498250               78.94637563                0.00010000                0.71695372               -0.81235258               -1.14444459               -2.36172630                4.84230582               -1.21204891
              21.55572974                8.16464291               78.55094910                0.00010000                1.37898753               -0.98126700               -1.84633974               -3.40855901                4.67757980               -1.13819390
              22.57219975                7.62565121               78.15629898                0.00010000                1.65934223               -0.61111782               -2.50677276               -4.57160937                4.33997690               -1.25518686
              23.58891659                7.08106689               77.76033706                0.00010000                1.49069040                0.39582494               -3.06935710               -5.07545897                3.74155893               -1.68097961
              24.60201356                6.54030521               77.35941696                0.00010000                1.08899022                1.50344335               -3.46583534               -4.27497529                2.79616491               -2.36231075
              25.61069639                6.01376648               76.94842894                0.00010000                0.77772839                2.16336449               -3.65049351               -2.35308607                1.49692527               -3.19742015
              26.61756813                5.50723802               76.52306860                0.40830754                0.68717356                2.04736618               -3.63117399               -0.97296551                0.79907113               -3.94349552
              17.05248455               11.75114160               80.49395034                1.00000000                0.00536577                0.06174785               -0.15098809                0.00071607                0.00092307                0.59623145
              18.05253821               11.24514335               80.04175280                0.44406833               -0.03019091               -0.06542708                0.12940194               -0.04783584                0.03328742               -0.35959856
              19.05188073               10.73804766               79.59011620                0.00010000               -0.33866555               -0.19798253                0.41024729               -0.89427117                2.97649756               -1.36432174
              20.04576490               10.21527775               79.19698882                0.00010000               -0.23409894               -0.23434855               -0.58794044               -1.92789776                5.73437346               -1.44048160
              21.04719876                9.68989304               78.80359500                0.00010000                0.47058552               -0.24432052               -1.50330623               -2.49377803                5.46824626               -1.37957139
              22.05517661                9.15983159               78.40934471                0.00010000                1.01997969               -0.12557032               -2.35674275               -3.26110976                5.06254215               -1.33163636
              23.06759835                8.62499370               78.01297842                0.00010000                1.31828421                0.27851896               -3.13040267               -3.91773177                4.47066219               -1.36134838
              24.08154229                8.08842262               77.61240182                0.00010000                1.34556426                0.95327575               -3.77252873               -4.00155145                3.66022044               -1.51116847
              25.09450963                7.55602726               77.20478660                0.00010000                1.21339274                1.63003614               -4.21605125               -3.24590004                2.62505200               -1.81837190
              26.10581015                7.03406182               76.78702702                0.00010000                1.09346996                1.97999988               -4.40788125               -1.77052705                1.38445263               -2.29363353
              27.11637903                6.52621987               76.35637983                0.40939894                1.05688851                1.82624429               -4.33507418               -0.72613548                0.70641340               -2.99961246
              17.55914009               12.75182765               80.35560846                1.00000000                0.01163750                0.07414060               -0.18924320                0.00214210                0.00258489                0.62669218
              18.55925646               12.24451912               79.89856856                0.47516124               -0.02852865               -0.05842896                0.11824443               -0.04326209                0.03520565               -0.35593833
              19.55856951               11.73617848               79.44215399                0.00010000               -0.41345621               -0.18104594                0.42660434               -0.77315139                3.32405209               -1.29927968
              20.55098734               11.21433479               79.05114400                0.00010000               -0.41894566                0.03680594               -0.71269804               -1.69936791                6.40143505               -1.33640579
              21.55019060               10.69009609               78.66001996                0.00010000                0.22097743                0.23018357               -1.76390068               -2.20508541                6.06914961               -1.29988022
              22.55540688               10.16213151               78.26693734                0.00010000                0.75317405                0.47078220               -2.73782126               -2.77055547                5.53391987               -1.23573400
              23.56525408                9.63122159               77.87019430                0.00010000                1.12225564                0.83386849               -3.61488180               -3.12447437                4.80857938               -1.19730377
              24.57785200                9.10013241               77.46768464                0.00010000                1.31011378                1.30069859               -4.34305377               -3.02730859                3.88747969               -1.22635270
              25.59145636                8.57290594               77.05696775                0.00010000                1.36206204                1.72557258               -4.85207828               -2.37239244                2.77249018               -1.37379619
              26.60509324                8.05336648               76.63549977                0.00010000                1.36364844                1.91242321               -5.07382480               -1.27555056                1.47060699               -1.71009187
              27.61872932                7.54376291               76.20090926                0.41029847                1.36360865                1.70947164               -4.95695720               -0.50739963                0.73383620               -2.32094202
              18.06714446               13.75262441               80.21736715                1.00000000                0.01776758                0.08376073               -0.22825765                0.00290372                0.00997877                0.62622951
              19.06732214               13.24397477               79.75538324                0.51196326               -0.02712112               -0.05118530                0.11223128               -0.03589694                0.06395468               -0.38068308
              20.06660204               12.73442674               79.29450887                0.00010000               -0.47311030               -0.16901894                0.44515372               -0.51413274                3.76292225               -1.11513570
              21.05785993               12.21601387               78.90682067                0.00010000               -0.56508547                0.28163603               -0.80833509               -1.18587131                7.12769426               -1.11191282
              22.05530033               11.69449671               78.51788143                0.00010000                0.03900364                0.59413125               -1.95887317               -1.65987444                6.67201497               -1.02842383
              23.05864000               11.16924723               78.12629904                0.00010000                0.59038171                0.85942903               -3.02577877               -2.07299207                6.04030402               -0.94442420
              24.06710796               10.64167107               77.73012290                0.00010000                1.03358877                1.16775559               -3.98735199               -2.25535345                5.22798380               -0.87773524
              25.07931178               10.11443659               77.32726684                0.00010000                1.33598762                1.50242409               -4.79015285               -2.09099103                4.22919306               -0.85676622
              26.09382772                9.59053871               76.91535807                0.00010000                1.50651950                1.78139060               -5.35629033               -1.56283737                3.02821142               -0.93515017
              27.10944217                9.07231029               76.49183931                0.00010000                1.58052341                1.88520414               -5.59995908               -0.79597903                1.61305281               -1.19000027
              28.12543818                8.56040930               76.05418848                0.41100746                1.59960149                1.66329197               -5.45089200               -0.28403840                0.79104064               -1.70468920
              18.57649744               14.75350287               80.07889846                0.98997925                0.02387461                0.09100351               -0.26090664                0.00152458                0.02061176                0.53245795
              19.57673619               14.24349541               79.61187381                0.42291477               -0.01248414               -0.04528381                0.10772300               -0.02614167                0.30701706               -0.38270928
              20.57624776               13.73279810               79.15066409                0.00010000               -0.47681225               -0.16498285                0.42951231               -0.14301199                4.36110447               -0.89259032
              21.56719994               13.21996751               78.76516806                0.00010000               -0.62440075                0.51037742               -0.89317952               -0.53083054                7.80732949               -0.68177870
              22.56375974               12.70197872               78.37893684                0.00010000               -0.02136304                0.80246138               -2.12098713               -0.91861251                7.25084449               -0.57905140
              23.56677268               12.17932009               77.98909390                0.00010000                0.55989516                1.07704026               -3.25532951               -1.17409261                6.51054190               -0.51412533
              24.57495765               11.65457670               77.59404254                0.00010000                1.01959261                1.36135483               -4.28020739               -1.24304494                5.63537869               -0.45889366
              25.58716453               11.13018089               77.19177654                0.00010000                1.36841328                1.63226328               -5.14108386               -1.11038494                4.58630323               -0.42851328
              26.60232591               10.60853375               76.77991331                0.00010000                1.60692647                1.83433613               -5.75397408               -0.77940279                3.31626903               -0.46088698
              27.61930306               10.09107056               76.35562024                0.00010000                1.72623067                1.89578792               -6.01849636               -0.35731067                1.77548665               -0.61194870
              28.63685053                9.57702874               75.91576858                0.41177589                1.75474626                1.71789176               -5.84204724               -0.08388388                0.86315341               -0.97433431
              19.08718986               15.75444448               79.93873141                0.97436248                0.03142054                0.09416145               -0.30091531               -0.06829722                0.25838237                0.44678528
              20.08750406               15.24306909               79.46883631                0.66924434                0.00399222               -0.04263202                0.10051576               -0.08908221                0.69942768               -0.37060001
              21.08726970               14.73112709               79.00791189                0.36778440               -0.47206798               -0.16710189                0.41888789                0.25981040                5.20957453               -0.85937455
              22.07806270               14.22622141               78.62877349                0.36282150               -0.48471016                0.62539067               -1.00766045                0.05721858                8.52295332               -0.29542293
              23.07757550               13.71054594               78.24458235                0.36106781                0.22487311                0.85672167               -2.28082941               -0.39009343                7.66748361               -0.27017781
              24.08256017               13.19078804               77.85636920                0.36220447                0.69053820                1.14679500               -3.45642795               -0.50364020                6.85697921               -0.24708762
              25.09138626               12.66889817               77.46255792                0.36663095                1.02934346                1.43214616               -4.51981928               -0.54244730                5.94010229               -0.23454489
              26.10314704               12.14708186               77.06133501                0.37422271                1.29818620                1.69009727               -5.41900335               -0.48538659                4.88652128               -0.23457149
              27.11734999               11.62722543               76.65046905                0.38506375                1.53269615                1.86916850               -6.06964434               -0.34038327                3.63462079               -0.26949095
              28.13380096               11.11022605               76.22712979                0.40000851                1.72470733                1.91554881               -6.36660014               -0.17312535                2.05174047               -0.36887791
              29.15184413               10.59476714               75.78702381                0.70614956                1.80431759                1.77383939               -6.19080805               -0.04653014                1.08080920               -0.63715425
              14.45917854                5.89346587               82.32131757                1.00000000               -0.02257064                0.02048400               -0.05968982                0.04102776               -0.39913249                0.47626208
              15.45895283                5.38857796               81.89410789                1.00000000               -0.06362963               -0.05349543                0.18544788                0.04722271               -0.49620649                0.05807390
              16.45790595                4.88350623               81.46454156                1.00000000               -0.14164361               -0.12026877                0.42185758                0.04649071               -0.53034113               -0.03485044
              17.45611996                4.37806088               81.03654760                0.68898211               -0.22426720               -0.19492359                0.65844471                0.01812687               -0.48707850               -0.24616570
              18.45342060                3.87190287               80.60799588                0.50852878               -0.30358771               -0.26954491                0.89146964                0.00503572               -0.45008072               -0.27953060
              19.45004821                3.36517090               80.18118441                0.19041451               -0.53969671               -0.36149059                1.15713093               -0.26810071                0.25319601               -0.56566604
              20.44262667                2.85291752               79.76734639                0.00010000               -1.13998606               -0.11225509                1.13051897               -3.36955171                6.39658611               -1.56810628
              21.42724849                2.27762976               79.45879467                0.00010000                0.65274757               -1.19573006               -0.11069406               -3.15522265               12.61171671               -0.51014635
              22.45568162                1.68895447               79.15831835                0.00010000                4.76661900               -1.65337645               -1.25611114               -3.28246590               13.23742408               -0.26301648
              23.52258087                1.07914633               78.86192656                1.00000000                3.63493698                0.64358985               -2.19372343               -3.38912739                6.53928666               -0.10545944
              24.52838036                0.53938097               78.43482944                1.00000000                0.57994940                0.46532653               -1.67504674                0.07647211               -0.01429180               -0.11441943
              14.96447672                6.89367071               82.18237979                1.00000000               -0.00718408                0.01995120               -0.08402688                0.00381656                0.00833094                0.65655560
              15.96440488                6.38804301               81.75506479                1.00000000               -0.04236629               -0.05405496                0.16336373                0.01125845                0.07475777                0.08204199
              16.96362940                5.88230354               81.32865925                1.00000000               -0.11509855               -0.12230470                0.40419393                0.00632314                0.15199043               -0.20867808
              17.96210291                5.37611165               80.90271528                0.88449510               -0.18567198               -0.20465522                0.65234415               -0.00956753                0.23807106               -0.17659100
              18.95991596                4.86920742               80.47810606                0.74959739               -0.26215155               -0.28347441                0.90758740               -0.02412621                0.25942941               -0.19865478
              19.95685988                4.36155599               80.05281550                0.44282535               -0.36071187               -0.37661520                1.19362028               -0.11684913                0.37715318               -0.39697984
              20.95270172                3.85179497               79.63109678                0.00010000                1.04089529               -0.32591530                1.51019726               -3.77620275                6.26465694               -0.96857631
              21.97767778                3.26567246               79.32401508                0.00010000                3.46984810               -2.09379972               -0.21155541               -5.00021269               11.97963126               -0.83692168
              23.02209868                2.67242071               79.01588660                0.00010000                4.28992805               -1.49379596               -1.17214842               -4.17963019               12.23402568               -1.28272293
              24.06347635                2.08558223               78.71418533                0.92290181                2.34058830                0.62501274               -2.04640974               -2.23262273                6.30709451               -0.12537037
              25.06891045                1.54403423               78.28710013                1.00000000                0.54341007                0.43883176               -1.49700719               -0.01287263                0.00303941               -0.16682616
              15.47051027                7.89386489               82.04653418                1.00000000                0.00349025                0.02252129               -0.10757327               -0.00156284                0.13882292                0.76441125
              16.47054517                7.38749687               81.61623006                1.00000000               -0.02732468               -0.05200933                0.14381034                0.00023751                0.32419669                0.01580479
              17.46996377                6.88106014               81.18923861                0.00010000               -0.07602195               -0.12098933                0.39073785               -0.03528198                0.91277547               -0.64379485
              18.46902473                6.37396778               80.77050543                0.00010000               -0.12350170               -0.64020958                0.64653208               -0.31739959                1.27023515               -0.53847018
              19.46749374                5.86623338               80.35040503                0.00010000               -0.19505240               -1.03869236                0.91350292               -0.26995513                1.12516965               -0.37326940
              20.46512368                5.35763859               79.92874305                0.00010000               -0.22537993               -1.55331298                1.22904505                0.08480733                1.26548494                0.02170838
              21.46298614                4.84639921               79.51183451                0.00010000                2.07474063               -3.06973958                1.58436564               -3.55645424                5.90511760                1.06377619
              22.50661850                4.23575377               79.18430381                0.00010000                4.45965569               -2.34047336               -0.55819786               -6.80334348                9.81585723               -1.24283568
              23.55217925                3.65907855               78.85331087                0.00010000                4.98481963               -1.01508521               -1.29714944               -5.71995911               11.74760722               -3.14169487
              24.60631489                3.09164658               78.56621868                0.00010000                2.95198245                1.03809226               -1.85812568               -5.40596281                7.10157478               -6.10768551
              25.61121890                2.54815760               78.13916134                0.40103122                0.49040158                2.84267338               -1.26576817               -4.36969123                0.05649439               -5.02900183
              15.97718152                8.89412113               81.90938148                1.00000000                0.00328700                0.03221065               -0.12519767               -0.00095563                0.23167650                0.63623028
              16.97721439                8.38700282               81.47567967                0.53375822               -0.03643377               -0.05298558                0.13192387               -0.00116148                0.38246137               -0.29669411
              17.97645284                7.87988376               81.04467726                0.00010000               -0.33163586               -0.15466908                0.36719251               -0.46843185                1.32648314               -1.12461587
              18.97058167                7.36330746               80.62987542                0.00010000               -0.28033996               -0.90003208                0.25001794               -1.11792058                2.25300395               -1.12400918
              19.97084604                6.84843358               80.21783823                0.00010000                0.39042642               -1.61795847                0.14194712               -1.03373637                2.54099140               -0.86576916
              20.97839020                6.33048973               79.80999653                0.00010000                1.63057064               -2.61067751               -0.00274784               -1.60555836                3.36901146               -0.25553714
              22.00345745                5.79040018               79.41763225                0.00010000                2.52706891               -4.11400273               -0.48061302               -3.26826906                4.46671434                0.76307057
              23.02893158                5.21886300               79.03932698                0.00010000                2.41746150               -1.22954428               -1.19244501               -5.81027167                5.74468004               -1.79446753
              24.05180668                4.65211900               78.67795521                0.00010000                1.86732319                0.08991463               -1.79534341               -6.11598304                5.64325008               -4.27396168
              25.06627804                4.10634407               78.29933327                0.00010000                0.83439522                1.84986704               -2.03637050               -5.39748352                3.56710036               -9.45945575
              26.06849459                3.60088770               77.89525432                0.40176678                0.22165494                3.75459124               -1.98757458               -3.44252673                2.48199316               -8.96352420
              16.48472777                9.89450910               81.77072609                1.00000000                0.00315442                0.04503134               -0.14163424                0.00112709                0.00432165                0.52838798
              17.48475932                9.38643715               81.33043584                0.42918478               -0.02186353               -0.06299523                0.14685639               -0.01724162                0.29064904               -0.45186779
              18.48429050                8.87796675               80.89567084                0.00010000               -0.33214099               -0.21637780                0.37098198               -0.70684922                1.81983687               -1.49777153
              19.47811650                8.35596714               80.48610409                0.00010000               -0.23268821               -0.64216637               -0.07198811               -1.41968315                3.14225876               -1.40568433
              20.47963674                7.83387422               80.07949772                0.00010000                0.64647092               -1.23219933               -0.50603126               -1.69368294                3.34855871               -1.33138155
              21.49104592                7.30542504               79.67706756                0.00010000                1.48053769               -1.90508997               -0.97584059               -2.60966633                3.55959155               -1.23442292
              22.50924749                6.76411916               79.27987582                0.00010000                1.88241598               -1.80885283               -1.51168608               -4.41428880                3.76918918               -1.58440107
              23.52869424                6.21116288               78.88803092                0.00010000                1.65655126               -0.34356848               -2.06337914               -5.42854075                3.78373752               -2.39495440
              24.54237852                5.66087684               78.49632712                0.00010000                1.04511423                1.08405167               -2.49488900               -4.95813061                3.25455675               -4.19822288
              25.54959652                5.12864392               78.09614666                0.00010000                0.54513006                2.10772435               -2.73400949               -3.02482405                1.90759617               -5.66361873
              26.55328112                4.62324943               77.67706952                0.40259507                0.36845985                1.97512645               -2.70171706               -1.43320701                1.04553478               -6.73485101
              16.99334796               10.89502176               81.63124168                1.00000000                0.00639450                0.05774289               -0.15993250               -0.00040691                0.00435641                0.52097576
              17.99341190               10.38574292               81.18660221                0.44049931               -0.02810437               -0.07091620                0.14499445               -0.04250534                0.09151490               -0.36230797
              18.99278587                9.87555620               80.74356256                0.00010000               -0.35656795               -0.23125033                0.43117019               -0.84701811                2.10912484               -1.49464294
              19.98628055                9.35046413               80.33944100                0.00010000               -0.26356959               -0.44269982               -0.31407048               -1.75394526                3.93431560               -1.56247163
              20.98751448                8.82378959               79.93577752                0.00010000                0.48356916               -0.71567843               -0.99834025               -2.18730580                3.81954390               -1.61598249
              21.99595193                8.29238793               79.53359710                0.00010000                1.09596774               -0.83624122               -1.66176976               -3.06736745                3.67664306               -1.73686804
              23.00943384                7.75422312               79.13254598                0.00010000                1.38255730               -0.48736891               -2.29827497               -4.03495462                3.41844902               -2.00721963
              24.02360307                7.21199163               78.73107388                0.00010000                1.28645987                0.40147365               -2.85693639               -4.42802564                2.98744195               -2.55167133
              25.03516303                6.67380003               78.32617096                0.00010000                0.99029511                1.36459033               -3.26742622               -3.69415709                2.28460505               -3.34014723
              26.04340898                6.14849856               77.91324195                0.00010000                0.77282077                1.88589158               -3.46164792               -2.01879109                1.25522938               -4.20818875
              27.05061945                5.64039023               77.48812336                0.40335231                0.72104711                1.65296157               -3.40411280               -0.82189847                0.69747538               -4.88836030
              17.50327732               11.89566396               81.49225182                1.00000000                0.00974540                0.07022804               -0.18591318                0.00077094                0.00085990                0.56992610
              18.50337477               11.38501883               81.04311768                0.47458904               -0.03241937               -0.07073138                0.14090719               -0.04740255                0.03273020               -0.33680168
              19.50262893               10.87334175               80.59453446                0.00010000               -0.42852846               -0.21272637                0.46397204               -0.83509792                2.33933043               -1.28736114
              20.49480420               10.34711314               80.19167691                0.00010000               -0.43310543               -0.19997753               -0.48648276               -1.78491272                4.46805376               -1.53685862
              21.49396682                9.81956065               79.78939136                0.00010000                0.22304180               -0.16951858               -1.35805630               -2.24260256                4.24128664               -1.64267944
              22.49926504                9.28870022               79.38687555                0.00010000                0.74889408               -0.03448539               -2.17356136               -2.87841778                3.88332305               -1.75057644
              23.50894470                8.75437178               78.98303390                0.00010000                1.06458843                0.33579548               -2.91829612               -3.40742552                3.39350673               -1.92678406
              24.52055681                8.21919236               78.57625276                0.00010000                1.15218699                0.92452420               -3.54356864               -3.43017961                2.76697514               -2.21495728
              25.53198844                7.68816865               78.16434675                0.00010000                1.10368495                1.49512662               -3.98100068               -2.73519595                1.99358756               -2.63518398
              26.54263051                7.16636176               77.74476264                0.00010000                1.05356861                1.75465134               -4.16567422               -1.45967707                1.06280555               -3.15744616
              27.55305982                6.65630866               77.31504747                0.40412859                1.04293093                1.55875212               -4.05705104               -0.57709990                0.56833337               -3.76996842
              18.01465364               12.89642632               81.35357632                1.00000000                0.01324252                0.08029430               -0.21472235                0.00234228                0.00222677                0.59713495
              19.01478607               12.38432829               80.89986266                0.50754369               -0.03320208               -0.06538005                0.13703437               -0.04058806                0.03459191               -0.32876378
              20.01398960               11.87130167               80.44676068                0.00010000               -0.52113378               -0.19845982                0.48473928               -0.68315589                2.60187365               -1.22209362
              21.00436339               11.34646458               80.04456903                0.00010000               -0.64571237                0.06387162               -0.61182241               -1.50530408                4.96554247               -1.37486355
              22.00107535               10.82039922               79.64316618                0.00010000               -0.03954762                0.28969615               -1.62238142               -1.92655036                4.67687384               -1.45286890
              23.00357244               10.29169822               79.24060276                0.00010000                0.48589148                0.53240877               -2.56003029               -2.40533560                4.19493026               -1.50562417
              24.01079318                9.76093903               78.83536822                0.00010000                0.88150857                0.85914562               -3.40598082               -2.68572887                3.57533725               -1.58548409
              25.02120261                9.23048211               78.42586016                0.00010000                1.12482656                1.25712106               -4.10819414               -2.56486408                2.84414143               -1.72787821
              26.03328972                8.70370257               78.01032235                0.00010000                1.24364087                1.60019550               -4.59410759               -1.97172526                2.01151784               -1.96498173
              27.04607543                8.18359159               77.58688426                0.00010000                1.29469674                1.72425543               -4.79014700               -1.03722623                1.06673554               -2.32954217
              28.05918365                7.67156527               77.15363863                0.40498401                1.31082208                1.51622072               -4.64154284               -0.39580223                0.55462846               -2.86223334
              18.52752022               13.89726985               81.21499275                1.00000000                0.01674368                0.08630891               -0.24428368                0.00320037                0.01181217                0.59798900
              19.52768766               13.38371123               80.75665550                0.54805811               -0.03453489               -0.05826071                0.13738330               -0.03220785                0.06145801               -0.34799149
              20.52682952               12.86937255               80.29932347                0.00010000               -0.60435424               -0.18698708                0.50603541               -0.39779919                2.96428021               -1.04609555
              21.51560057               12.34839057               79.89927280                0.00010000               -0.83136770                0.31552316               -0.70753479               -0.96260687                5.55241345               -1.11045530
              22.51020217               11.82535457               79.49902655                0.00010000               -0.24910292                0.65879492               -1.82136091               -1.40287880                5.14616641               -1.10129918
              23.51061852               11.29934839               79.09701040                0.00010000                0.31220332                0.91295227               -2.85472400               -1.77709176                4.56668279               -1.09598797
              24.51644624               10.77155469               78.69149202                0.00010000                0.79387353                1.18426703               -3.78574211               -1.92622338                3.85886459               -1.11155277
              25.52649599               10.24433478               78.28091292                0.00010000                1.14991128                1.46327710               -4.55925537               -1.76274757                3.05409816               -1.16880781
              26.53944446                9.72017256               77.86365865                0.00010000                1.37636462                1.68064987               -5.09540321               -1.29436624                2.15556203               -1.30426343
              27.55402328                9.20084686               77.43798981                0.00010000                1.48759715                1.73946307               -5.30716523               -0.64564502                1.14395978               -1.56692470
              28.56919641                8.68663307               77.00204953                0.40565323                1.51731265                1.52947164               -5.12308612               -0.21757441                0.58301733               -2.00793257
              19.04183489               14.89815250               81.07625496                1.00000000                0.02043190                0.09002003               -0.26861703                0.00197909                0.01469861                0.50341826
              20.04203921               14.38316308               80.61313991                0.45662533               -0.02403086               -0.05295000                0.14045886               -0.02440429                0.27944767               -0.34779334
              21.04135427               13.86756193               80.15537197                0.00010000               -0.64549856               -0.18249795                0.49884488                0.00567018                3.48794252               -0.83068852
              22.02912924               13.35277504               79.75677167                0.00010000               -0.96471559                0.59815759               -0.78947890               -0.34090162                6.12461896               -0.66773483
              23.02205996               12.83357512               79.35843699                0.00010000               -0.36493773                0.88463022               -1.98237056               -0.74840356                5.61670704               -0.60215384
              24.02183048               12.30995727               78.95746575                0.00010000                0.26111846                1.13312134               -3.08533241               -1.00358937                4.93072305               -0.57874098
              25.02728233               11.78462437               78.55242718                0.00010000                0.77496545                1.37796251               -4.08112616               -1.06014974                4.15784375               -0.56741795
              26.03732979               11.25974765               78.14185765                0.00010000                1.18039875                1.60178606               -4.91275138               -0.93506046                3.30421938               -0.57838290
              27.05089030               10.73731556               77.72419458                0.00010000                1.46861130                1.75711314               -5.49405957               -0.64550977                2.35167322               -0.63892363
              28.06670202               10.21838085               77.29756536                0.00010000                1.61847225                1.78574615               -5.72415395               -0.29035329                1.25211687               -0.78801301
              29.08325975                9.70215470               76.85970043                0.40643343                1.65577318                1.61311244               -5.51172448               -0.05916023                0.62888909               -1.09380456
              19.55753865               15.89907025               80.93577409                0.98683993                0.02514940                0.09177497               -0.29405554               -0.07142612                0.23894212                0.41498230
              20.55779014               15.38265223               80.47005089                0.68475198               -0.01038424               -0.05108482                0.13677348               -0.09228947                0.64462604               -0.33396171
              21.55733096               14.86572259               80.01253993                0.36715004               -0.75103932               -0.18393383                0.49394682                0.48274398                4.24739141               -0.78842666
              22.54276936               14.36035373               79.61927970                0.36253168               -0.96395449                0.75786841               -0.89296088                0.23024093                6.73157160               -0.27418214
              23.53805187               13.84304717               79.22252748                0.36074174               -0.16359398                0.94720569               -2.13025886               -0.31795404                5.95976644               -0.26557997
              24.53949748               13.32201082               78.82277767                0.36209678                0.37004916                1.20535512               -3.27356809               -0.42996224                5.20804943               -0.26066921
              25.54545286               12.79911394               78.41859984                0.36573520                0.78030528                1.44895727               -4.30751639               -0.46496324                4.39196260               -0.26539889
              26.55510358               12.27637050               78.00869938                0.37255154                1.12241078                1.66228468               -5.17733812               -0.41257695                3.52893009               -0.27983412
              27.56790107               11.75531482               77.59166927                0.38240614                1.41367468                1.79992582               -5.79620234               -0.28935885                2.59174620               -0.32155333
              28.58337708               11.23656179               77.16568552                0.39582960                1.62822104                1.81809396               -6.05836048               -0.15346939                1.46557954               -0.41264707
              29.60046549               10.71889532               76.72756511                0.70341328                1.70884177                1.67406175               -5.84632016               -0.04607248                0.80262096               -0.63678706
              14.88112760                6.03728257               83.32024535                1.00000000               -0.00309991                0.04422070               -0.14819540                0.05098953               -0.40799933                0.47619656
              15.88109660                5.52832085               82.89571005                1.00000000               -0.05170171               -0.04036949                0.13705168                0.05698881               -0.51333262                0.06045500
              16.88009356                5.01915032               82.46871241                1.00000000               -0.14298077               -0.11582406                0.40952533                0.05544770               -0.55361274               -0.02995473
              17.87823698                4.50950425               82.04330008                0.69248700               -0.23894529               -0.20439154                0.68532857                0.01939824               -0.51129378               -0.23825772
              18.87531466                3.99897435               81.61728237                0.52273499               -0.33038332               -0.29617880                0.95949978                0.00542971               -0.45725931               -0.26496809
              19.87162932                3.48770161               81.19338134                0.22748103               -0.47595428               -0.40633910                1.27276848               -0.18372719                0.15624426               -0.56130760
              20.86579557                2.97256039               80.78018924                0.00010000               -0.80868399               -0.32534756                1.40772643               -2.74911002                5.38669551               -1.42724043
              21.85545564                2.40708053               80.45869987                0.00010000                0.89996351               -1.21005956                0.08987845               -2.37117928               11.01525189               -0.60133771
              22.88379484                1.82874773               80.14646413                0.00010000                4.57759636               -1.64898315               -1.24514081               -2.74790689               11.48195701               -0.04647625
              23.94700756                1.22511258               79.83997886                1.00000000                3.44813722                0.62610461               -2.20510544               -3.03582354                5.74745263               -0.13386177
              24.95275759                0.68526752               79.41857964                1.00000000                0.57500222                0.42108564               -1.58922757                0.04958471               -0.00946466               -0.11499548
              15.39059921                7.03772478               83.18110518                1.00000000                0.01333966                0.03991757               -0.16529265                0.00803129                0.00086856                0.65283482
              16.39073261                6.52791716               82.75648922                1.00000000               -0.02714376               -0.04322777                0.12256932                0.01539775                0.06205063                0.08488149
              17.39005634                6.01799208               82.33270237                1.00000000               -0.11068297               -0.12000339                0.39992979                0.00658594                0.14213468               -0.19855456
              18.38851895                5.50746034               81.90946085                0.89414715               -0.18930323               -0.22023451                0.68781271               -0.01297923                0.24510895               -0.16380229
              19.38627028                4.99601256               81.48767658                0.76800470               -0.27599646               -0.31668689                0.99396991               -0.02908698                0.30428168               -0.18478236
              20.38299902                4.48363822               81.06555568                0.48841757               -0.38276308               -0.42975150                1.34276953               -0.11099182                0.46854025               -0.39083156
              21.37861501                3.96930692               80.64726023                0.06636333                1.03255773               -0.46469300                1.71650701               -3.04907860                5.29670170               -0.88669299
              22.40365018                3.39497993               80.32199230                0.00010000                3.43423679               -2.04783539               -0.65809187               -3.98301976                9.70756049               -0.42161548
              23.44729975                2.81225790               80.00490074                0.00010000                4.23696265               -1.61637421               -0.89772989               -3.52208215               10.66604319               -1.29957101
              24.48838943                2.23137362               79.69426407                0.99311248                2.28993679                0.57327541               -1.89908048               -1.89697204                5.58116574               -0.13293255
              25.49309849                1.68947838               79.27306802                1.00000000                0.47090547                0.37057236               -1.28860201               -0.05551608                0.00000701               -0.13836115
              15.90090347                8.03808093               83.04507205                1.00000000                0.02337797                0.03556185               -0.18010505                0.00001819                0.13063839                0.75979107
              16.90113725                7.52745630               82.61750697                1.00000000               -0.01106849               -0.04385127                0.11174548               -0.00123696                0.31334675                0.02300287
              17.90068210                7.01675026               82.19320204                0.00010000               -0.05901660               -0.12037590                0.39652091               -0.05723870                0.90927164               -0.63362642
              18.89995692                6.50509956               81.77724457                0.00010000               -0.10635335               -0.65725008                0.68950128               -0.37370143                1.30148138               -0.71816254
              19.89855503                5.99264061               81.36013692                0.00010000               -0.19208974               -1.04175647                1.01332240               -0.37049251                1.22389631               -0.75551648
              20.89611512                5.47910658               80.94200958                0.00010000               -0.25413732               -1.50434017                1.40436973               -0.07404659                1.44548907               -0.62091560
              21.89347229                4.96326653               80.52897901                0.00010000                1.83645702               -2.76936108                1.82009267               -2.97728626                4.84348327               -0.07850040
              22.93284426                4.36612382               80.17899881                0.00010000                4.17436108               -2.28065852               -0.19421866               -5.78505204                7.90902552               -0.63879597
              23.97695951                3.79642024               79.84128072                0.00010000                4.95016872               -1.25912721               -0.99556298               -5.00123607               10.60384504               -3.68143453
              25.03184764                3.23657808               79.54889776                0.00010000                2.92391191                0.68491359               -1.57329162               -5.02650834                6.55122418               -6.36726410
              26.03543775                2.69267897               79.12795099                0.39666002                0.35901089                2.52752982               -0.96821504               -4.25077544                0.04167416               -5.50544222
              16.41184884                9.03843602               82.90779864                1.00000000                0.01897050                0.04054509               -0.18714378               -0.00336611                0.21881261                0.63114976
              17.41203854                8.52704013               82.47689185                0.55564256               -0.02902686               -0.04416305                0.11022335               -0.01165600                0.35761263               -0.27187707
              18.41126830                8.01558457               82.04845721                0.00010000               -0.34419873               -0.15035550                0.38423539               -0.50941742                1.11590249               -1.09991972
              19.40515457                7.49431534               81.63272916                0.00010000               -0.32074467               -0.89482537                0.30636003               -1.21294298                1.86985058               -1.47056551
              20.40485341                6.97517743               81.21985954                0.00010000                0.28688014               -1.55337209                0.23992257               -1.16284066                2.15295674               -1.58744683
              21.41089217                6.45355142               80.81079548                0.00010000                1.35993221               -2.39693423                0.13761257               -1.62713177                2.80017173               -1.42828617
              22.43205205                5.91391970               80.41379304                0.00010000                2.19516291               -3.63261173               -0.27727546               -2.88910040                3.49765487               -0.79573743
              23.45479543                5.34936676               80.02799566                0.00010000                2.23843573               -1.26318427               -0.94367432               -5.13798435                4.79541332               -2.43311893
              24.47682076                4.78707535               79.66094881                0.00010000                1.84025540               -0.13210290               -1.57173196               -5.57851237                4.94555004               -5.07738934
              25.49160054                4.24507189               79.27958209                0.00010000                0.95302186                1.35176948               -1.93073973               -5.08399056                3.09552236              -10.23296183
              26.49588120                3.74002898               78.87646931                0.39704993                0.42806659                3.25137584               -1.83255011               -3.18385948                2.23160967              -10.07188924
              16.92362792               10.03889183               82.76903892                1.00000000                0.01276618                0.05252305               -0.19184383                0.00044507                0.00789035                0.51965961
              17.92375558                9.52657304               82.33186282                0.45686932               -0.02046867               -0.05702354                0.13765645               -0.02792857                0.26012976               -0.42097285
              18.92321855                9.01374315               81.89955260                0.00010000               -0.38251962               -0.21014532                0.39934548               -0.73526164                1.42488331               -1.42757121
              19.91610519                8.48720306               81.48578050                0.00010000               -0.35782045               -0.60579176               -0.00630832               -1.47312597                2.40176326               -1.67088207
              20.91606214                7.96157317               81.07503899                0.00010000                0.43625167               -1.12041113               -0.40697936               -1.70168959                2.57939604               -1.90628447
              21.92483022                7.43116790               80.66807790                0.00010000                1.19063981               -1.67269287               -0.85078098               -2.46784516                2.71499205               -2.08782002
              22.93987494                6.89061430               80.26557140                0.00010000                1.60493491               -1.57854757               -1.37475606               -3.96339281                2.89086303               -2.54387120
              23.95692892                6.34086014               79.86821049                0.00010000                1.49045976               -0.37775664               -1.93385514               -4.82955469                2.97198835               -3.32880907
              24.96968413                5.79377819               79.47203054                0.00010000                1.01426400                0.92036444               -2.41349044               -4.42649221                2.62938447               -5.13703805
              25.97721420                5.26361347               79.06953098                0.00010000                0.60811306                1.79574136               -2.66210550               -2.69118271                1.57164547               -6.63034105
              26.98184639                4.75770649               78.65127037                0.39782182                0.46321893                1.57319417               -2.56455663               -1.29701759                0.89210186               -7.76284979
              17.43649532               11.03948648               82.62943039                1.00000000                0.01333299                0.06568237               -0.19857853               -0.00157645                0.00444434                0.50510742
              18.43662865               10.52589966               82.18805848                0.47063505               -0.02811374               -0.07130868                0.14434227               -0.04751132                0.08088041               -0.34140351
              19.43593305               10.01138166               81.74808497                0.00010000               -0.43833143               -0.23204118                0.46527731               -0.84052982                1.57641454               -1.41042504
              20.42786202                9.48219950               81.33672657                0.00010000               -0.45391371               -0.38952565               -0.24063736               -1.72242843                2.89036484               -1.74086051
              21.42685477                8.95276921               80.92640882                0.00010000                0.23160575               -0.59611943               -0.89446426               -2.06691147                2.78431421               -2.02417221
              22.43249414                8.42009756               80.51771371                0.00010000                0.81185920               -0.66767487               -1.54510765               -2.80250766                2.64167929               -2.34033024
              23.44309196                7.88234875               80.11033348                0.00010000                1.12731555               -0.34892585               -2.18946799               -3.60347944                2.42701930               -2.75446289
              24.45504045                7.34181163               79.70319833                0.00010000                1.12228130                0.42385263               -2.78042236               -3.91130431                2.12401759               -3.39294618
              25.46553758                6.80548264               79.29406844                0.00010000                0.94040652                1.26970024               -3.23197160               -3.23187673                1.64715177               -4.23604498
              26.47384858                6.28098672               78.87919599                0.00010000                0.81086192                1.68285606               -3.43739743               -1.74192231                0.92499065               -5.12081723
              27.48175482                5.77149286               78.45498634                0.39848036                0.79062416                1.37993741               -3.33068352               -0.68290419                0.55688140               -5.77313863
              17.95077003               12.04020548               82.49023208                1.00000000                0.01401481                0.07714723               -0.21457541               -0.00003051                0.00046643                0.54664810
              18.95091018               11.52514686               82.04457095                0.50638628               -0.03309586               -0.07468157                0.14674826               -0.04839315                0.02882812               -0.31644871
              19.95010811               11.00910232               81.59939564                0.00010000               -0.53205533               -0.22170304                0.49943806               -0.78833731                1.70143510               -1.21872348
              20.94026907               10.47941254               81.18725917                0.00010000               -0.66411307               -0.14789382               -0.40675559               -1.67104420                3.20208150               -1.64177559
              21.93682585                9.94965078               80.77643388                0.00010000               -0.05342673               -0.06828406               -1.24866391               -2.03792856                3.00099219               -1.91434767
              22.93920054                9.41781440               80.36587348                0.00010000                0.46327136                0.08933079               -2.05574559               -2.57028410                2.66956516               -2.17578234
              23.94609128                8.88363578               79.95461250                0.00010000                0.81842027                0.43525200               -2.81580589               -3.00328745                2.25615667               -2.48820088
              24.95556894                8.34933719               79.54153045                0.00010000                0.98901134                0.95515230               -3.47519902               -2.98616732                1.79143855               -2.88851772
              25.96587150                7.81917219               79.12516659                0.00010000                1.03982977                1.44058793               -3.95091184               -2.34707790                1.27771586               -3.38497902
              26.97636554                7.29727059               78.70371353                0.00010000                1.06522626                1.62808676               -4.15585610               -1.23019302                0.68550647               -3.92806336
              27.98717603                6.78530524               78.27523881                0.39925023                1.08104927                1.40116628               -4.02274391               -0.46861878                0.40501225               -4.47597587
              18.46661194               13.04102942               82.35131402                1.00000000                0.01520036                0.08500370               -0.23470294                0.00191954                0.00161640                0.57048513
              19.46676394               12.52440603               81.90130924                0.54122725               -0.03556586               -0.07045872                0.14827023               -0.03857152                0.03081469               -0.30494735
              20.46590062               12.00694760               81.45184878                0.00010000               -0.64356308               -0.21043925                0.52241179               -0.60010923                1.87961189               -1.15452322
              21.45389268               11.47924162               81.03890755                0.00010000               -0.91031380                0.10947854               -0.52711557               -1.33040093                3.53051589               -1.42469171
              22.44769434               10.95140353               80.62757233                0.00010000               -0.33946117                0.37745706               -1.50680745               -1.68486177                3.27087024               -1.61861900
              23.44710346               10.42188418               80.21573674                0.00010000                0.19045381                0.63250389               -2.43754833               -2.10210467                2.82304482               -1.78773218
              24.45150342                9.89105379               79.80207469                0.00010000                0.63386199                0.93726338               -3.30050654               -2.33390249                2.29087777               -1.97975815
              25.45978070                9.36091468               79.38552076                0.00010000                0.95795989                1.28628807               -4.03664492               -2.20506099                1.73875282               -2.22116143
              26.47066262                8.83429440               78.96508560                0.00010000                1.16654888                1.57045121               -4.55974538               -1.66878302                1.19170874               -2.52734257
              27.48311167                8.31354846               78.53969683                0.00010000                1.28252721                1.65100520               -4.77657148               -0.86066301                0.62742035               -2.90485894
              28.49631316                7.79951619               78.10807841                0.40011185                1.32014890                1.44418073               -4.61003658               -0.31307322                0.36231337               -3.36123932
              18.98405521               14.04190555               82.21248148                1.00000000                0.01653639                0.08802340               -0.25585571                0.00369259                0.01194138                0.57166865
              19.98422057               13.52373769               81.75813090                0.58541439               -0.03924381               -0.06309386                0.15286704               -0.02839104                0.05447742               -0.31817194
              20.98327033               13.00489354               81.30462958                0.00010000               -0.75077258               -0.19898609                0.54491038               -0.28306723                2.16769981               -0.98601388
              21.96920512               12.48160211               80.89266998                0.00010000               -1.13921344                0.36821460               -0.61681761               -0.74794921                3.97994088               -1.12014972
              22.96048606               11.95719992               80.48145421                0.00010000               -0.58484671                0.75155928               -1.69800501               -1.17160868                3.60607693               -1.18769220
              23.95750819               11.43046448               80.06920456                0.00010000               -0.00516675                1.00469097               -2.72458686               -1.52626904                3.06006428               -1.26238820
              24.96038273               10.90238105               79.65440806                0.00010000                0.53594609                1.25333683               -3.67363780               -1.65911629                2.44157033               -1.35867771
              25.96822711               10.37506295               79.23608174                0.00010000                0.97396674                1.49560501               -4.48174684               -1.50495021                1.82443543               -1.48851289
              26.97986206                9.85058121               78.81345000                0.00010000                1.28516910                1.67251306               -5.05474075               -1.08915962                1.23440432               -1.67248496
              27.99393049                9.33029070               78.38569600                0.00010000                1.45585213                1.70330674               -5.28702110               -0.53322420                0.64552453               -1.93494671
              29.00897911                8.81418885               77.95172676                0.40073859                1.50486156                1.50604438               -5.08766383               -0.16793450                0.36215506               -2.30059005
              19.50302151               15.04278989               82.07352612                1.00000000                0.01866197                0.09001620               -0.27639745                0.00342046                0.01399048                0.48020393
              20.50320813               14.52314415               81.61468298                0.49224981               -0.03233310               -0.05848914                0.16266041               -0.02059230                0.25273482               -0.31832659
              21.50237485               14.00296788               81.16064099                0.00010000               -0.82904111               -0.19354503                0.54244884                0.15900760                2.62033421               -0.77544686
              22.48662731               13.48660592               80.74937849                0.00010000               -1.34875217                0.70598032               -0.68984272               -0.15158469                4.44690447               -0.66098460
              23.47539981               12.96643472               80.33928943                0.00010000               -0.76151803                0.99267157               -1.84684767               -0.59205633                3.96931221               -0.63405927
              24.47139695               12.44197800               79.92738725                0.00010000               -0.08385915                1.22431716               -2.94243928               -0.85867957                3.31714539               -0.65366983
              25.47372262               11.91612052               79.51242002                0.00010000                0.50422896                1.44319071               -3.95731514               -0.91150707                2.63110626               -0.68640901
              26.48148153               11.39082678               79.09352151                0.00010000                0.99645266                1.63693912               -4.82539648               -0.79733795                1.96727744               -0.73716109
              27.49365168               10.86774466               78.67003211                0.00010000                1.36790125                1.76318848               -5.44561235               -0.54377417                1.33871927               -0.82288983
              28.50883955               10.34761459               78.24113717                0.00010000                1.57532456                1.77210366               -5.69777928               -0.24106839                0.69977944               -0.96688391
              29.52515817                9.82963707               77.80553409                0.40147151                1.63186148                1.60565930               -5.46883445               -0.03983781                0.38210208               -1.21233882
              20.02341510               16.04370587               81.93285030                1.00000000                0.02156450                0.09159811               -0.29360277               -0.07443817                0.22562294                0.39439019
              21.02363074               15.52256791               81.47157178                0.70044798               -0.02131884               -0.05762473                0.16334180               -0.09190064                0.59753756               -0.30666184
              22.02298872               15.00102264               81.01779083                0.36625542               -1.04620768               -0.19452393                0.54190054                0.71907788                3.30083377               -0.72441734
              23.00270659               14.49572172               80.61091427                0.36242726               -1.48579310                0.91158033               -0.77835704                0.40946392                4.95294907               -0.25673463
              23.99327286               13.97705336               80.20197717                0.36112786               -0.60289003                1.06186400               -1.97609786               -0.25123966                4.24262413               -0.26609104
              24.99064879               13.45495082               79.79089784                0.36186151                0.00154745                1.29728257               -3.11094006               -0.36524051                3.52594740               -0.28012704
              25.99330381               12.93124487               79.37640759                0.36550034                0.50037119                1.51243421               -4.16553026               -0.39933599                2.79237641               -0.30201120
              27.00065621               12.40780173               78.95778825                0.37115668                0.94474788                1.69749563               -5.07546548               -0.35252557                2.11221039               -0.32985498
              28.01219877               11.88584498               78.53454500                0.37964875                1.32802492                1.81003234               -5.73820224               -0.24873908                1.49521633               -0.37668327
              29.02721671               11.36573277               78.10596259                0.39189088                1.59693100                1.81181809               -6.02791715               -0.13943154                0.84557907               -0.45750674
              30.04413739               10.84630204               77.67009741                0.70086847                1.69206748                1.66649637               -5.80049851               -0.04515166                0.50710999               -0.63336807
              15.30008916                6.18127015               84.31835366                1.00000000                0.01299672                0.06305514               -0.22116389                0.05954299               -0.42146326                0.47713190
              16.30021912                5.66822873               83.89684892                1.00000000               -0.04227436               -0.02850099                0.09377907                0.06581184               -0.53813284                0.06307202
              17.29924367                5.15492723               83.47273207                1.00000000               -0.14474983               -0.10844044                0.39160280                0.06295203               -0.58438831               -0.02608811
              18.29732413                4.64097419               83.05025417                0.69687928               -0.25247559               -0.20830765                0.69669104                0.01506920               -0.53662041               -0.23201752
              19.29419416                4.12581511               82.62718587                0.53988297               -0.35289500               -0.31578717                1.00386231                0.00235339               -0.45614386               -0.24622277
              20.29026623                3.60959606               82.20663978                0.27313997               -0.45760537               -0.44849357                1.36388103               -0.14113791                0.12171444               -0.53901025
              21.28504205                3.09023074               81.79550091                0.00010000               -0.44937930               -0.49593986                1.61070681               -1.81318684                4.45175795               -1.32221616
              22.28127864                2.53901815               81.46059224                0.00010000                0.94998652               -0.20769378                0.10071439               -2.66296742                9.28218826               -1.93737771
              23.30404178                1.97115171               81.13341553                0.00010000                4.20678839               -1.95390183               -1.49050550               -2.64537444                9.80477305                0.20423345
              24.36541441                1.36789867               80.81782445                1.00000000                3.34738599                0.61060007               -2.18831407               -3.00057342                4.97917763               -0.07070517
              25.37098950                0.82810429               80.40304489                1.00000000                0.55750912                0.37913703               -1.48397370                0.05188072               -0.00593390               -0.07177318
              15.81372601                7.18190071               84.17907394                1.00000000                0.03226967                0.05485473               -0.23313523                0.01250388               -0.01067892                0.64982168
              16.81404870                6.66794372               83.75751617                1.00000000               -0.01127734               -0.03372193                0.08458242                0.02025573                0.04172196                0.08807510
              17.81350046                6.15384282               83.33665784                1.00000000               -0.10089121               -0.11472305                0.38587777                0.00576655                0.12438190               -0.18810849
              18.81203088                5.63889111               82.91647154                0.90479697               -0.17968521               -0.23189857                0.70105541               -0.01951165                0.25455507               -0.15266918
              19.80990676                5.12265724               82.49798546                0.78949707               -0.26919236               -0.34375053                1.04394991               -0.03837441                0.37413815               -0.16771843
              20.80664703                4.60511112               82.07967089                0.54336513               -0.38538108               -0.48077858                1.45778590               -0.12303772                0.61184117               -0.37094011
              21.80219913                4.08527134               81.66542692                0.18340257                0.37707234               -0.59671737                1.93249208               -1.51726945                3.83215658               -0.83461655
              22.81418848                3.53694121               81.31085324                0.00010000                3.04743218               -1.10218270               -0.62186809               -3.12199944                7.77341469               -0.68993105
              23.86314778                2.95161269               80.99793200                0.00010000                4.63719524               -2.08749572               -0.43293775               -3.63105612                9.69505310               -1.18610791
              24.90693238                2.37400467               80.67620372                1.00000000                2.40774518                0.55423081               -1.82031722               -1.72311664                4.67036101               -0.06967340
              25.91130268                1.83189566               80.26132809                1.00000000                0.43702978                0.32715886               -1.13374316               -0.06307819               -0.00192554               -0.09948717
              16.32825320                8.18236725               84.04293208                1.00000000                0.04289196                0.04382766               -0.24123792                0.00097190                0.11803417                0.75759609
              17.32868212                7.66755429               83.61846496                1.00000000                0.00792053               -0.03671457                0.08045351               -0.00375545                0.29511081                0.03210173
              18.32841161                7.15263277               83.19716903                0.00010000               -0.02813177               -0.11540101                0.39016718               -0.08924778                0.89559154               -0.61993002
              19.32811948                6.63633622               82.78429546                0.00010000               -0.06024753               -0.67654485                0.70231330               -0.45735991                1.33287276               -0.89506949
              20.32720666                6.11894010               82.37067147                0.00010000               -0.14640569               -1.04373368                1.05962751               -0.52118124                1.35507080               -1.13961721
              21.32519137                5.59998049               81.95683044                0.00010000               -0.21700444               -1.46277182                1.51461414               -0.34153069                1.69163844               -1.28179979
              22.32286657                5.07829639               81.54823636                0.00010000                1.36529642               -2.36891478                2.00922923               -1.44973754                4.09865483               -1.25060556
              23.35249730                4.51697450               81.18041944                0.00010000                3.57453173               -2.79761380                0.83773627               -4.26994970                5.89297976               -0.36823738
              24.39435720                3.92940180               80.83339961                0.00010000                4.90859047               -1.58956512               -0.25238100               -5.10038699                9.35601347               -4.56023816
              25.45066911                3.37898328               80.53475285                0.00010000                2.97943711                0.35234762               -1.47075537               -4.45093627                5.85164467               -6.68290651
              26.45394595                2.83464747               80.11979704                0.39240608                0.32768399                2.21174323               -0.80225067               -4.03109840                0.03736697               -6.10025002
              16.84337135                9.18277726               83.90563861                1.00000000                0.03367210                0.04516503               -0.23902366               -0.00755348                0.20197568                0.63100660
              17.84370807                8.66720943               83.47788413                0.57904883               -0.02188869               -0.03516133                0.08808624               -0.02381659                0.32714928               -0.24339962
              18.84293358                8.15153480               83.05236197                0.00010000               -0.35658611               -0.14225995                0.39096685               -0.56951658                0.89692475               -1.07105456
              19.83657635                7.62536022               82.63600262                0.00010000               -0.35473590               -0.88920643                0.33259974               -1.36031792                1.47975064               -1.80666990
              20.83583886                7.10178256               82.22263668                0.00010000                0.19418862               -1.48704297                0.28761202               -1.38919621                1.76511602               -2.30541479
              21.84046012                6.57585569               81.81274878                0.00010000                1.01857555               -2.16150388                0.21357730               -1.71337658                2.27675890               -2.62898728
              22.85621037                6.03789304               81.41208674                0.00010000                1.86119764               -3.07975475               -0.10861136               -2.54005811                2.69643060               -2.48663067
              23.87768408                5.48098894               81.02045349                0.00010000                2.14604401               -2.37952355               -0.58131068               -4.44470472                3.95204253               -3.64558693
              24.89913125                4.91982139               80.64652057                0.00010000                1.74919542               -0.21926730               -1.44093455               -5.03244013                4.07104967               -6.19351731
              25.91266799                4.38105162               80.26071847                0.00010000                1.01105441                0.87199615               -1.87832285               -4.62851842                2.55268197              -11.03952632
              26.91935234                3.87613053               79.85860332                0.39265711                0.66843551                2.74139626               -1.80838593               -2.80718782                1.95604204              -11.24040989
              17.35923778               10.18327055               83.76688922                1.00000000                0.02104571                0.05767491               -0.23280530               -0.00148250                0.01059357                0.51760939
              18.35944824                9.66685107               83.33318897                0.48746186               -0.01836452               -0.05013524                0.12641787               -0.04080597                0.22632922               -0.38848941
              19.35887049                9.14978757               82.90365775                0.00010000               -0.43914366               -0.20150735                0.41378043               -0.77932415                1.02433824               -1.35929943
              20.35066537                8.61855209               82.48597792                0.00010000               -0.49716145               -0.55959826                0.03462949               -1.57003490                1.65292620               -1.92536921
              21.34892726                8.08919924               82.07135813                0.00010000                0.20739947               -0.99356496               -0.34785395               -1.77134580                1.79321040               -2.46929864
              22.35481336                7.55675041               81.66005194                0.00010000                0.90024464               -1.40349720               -0.78746640               -2.40486052                1.84974881               -2.95497454
              23.36693216                7.01670129               81.25238070                0.00010000                1.34307493               -1.39001424               -1.30780420               -3.55435794                1.96998400               -3.60833581
              24.38167485                6.46938403               80.84935382                0.00010000                1.33567818               -0.50880935               -1.90625828               -4.35102263                2.03238037               -4.47027388
              25.39364572                5.92501645               80.44805731                0.00010000                1.00573736                0.80608505               -2.47029795               -3.99918299                1.85298843               -6.17483097
              26.40178960                5.39642321               80.04290455                0.00010000                0.69993282                1.54240220               -2.75256687               -2.36090787                1.15724435               -7.60227746
              27.40764438                4.88947539               79.62577839                0.39320158                0.58547741                1.24142442               -2.62003136               -1.15358023                0.72882609               -8.77371520
              17.87618067               11.18393076               83.62727010                1.00000000                0.01942679                0.07213738               -0.22869253               -0.00384678                0.00406921                0.49565827
              18.87637494               10.66620673               83.18948906                0.50290675               -0.02672965               -0.07059883                0.13946910               -0.05432837                0.06749182               -0.32234576
              19.87564607               10.14750466               82.75286811                0.00010000               -0.53054744               -0.22920508                0.48129597               -0.84697792                1.04328107               -1.33395020
              20.86576399                9.61416825               82.33462825                0.00010000               -0.67162242               -0.32277225               -0.18575399               -1.72255833                1.84338276               -1.91136090
              21.86221363                9.08191126               81.91788823                0.00010000               -0.04515648               -0.45445246               -0.82122042               -1.99687080                1.72296332               -2.42013753
              22.86486086                8.54778574               81.50269495                0.00010000                0.51379854               -0.47944358               -1.48221039               -2.60770700                1.54656797               -2.94278484
              23.87248960                8.01009276               81.08875662                0.00010000                0.87438060               -0.19173698               -2.16952615               -3.27471391                1.33087911               -3.52113044
              24.88234847                7.47081275               80.67546543                0.00010000                0.98094087                0.48577736               -2.83219780               -3.49965158                1.12164086               -4.25775561
              25.89210841                6.93594309               80.26153153                0.00010000                0.93212083                1.22177300               -3.35548100               -2.85995665                0.87726866               -5.13828439
              26.90099089                6.41189966               79.84449400                0.00010000                0.90339730                1.54382208               -3.60489860               -1.52526334                0.51551820               -6.03816063
              27.91017636                5.90095902               79.42150969                0.39400495                0.91854747                1.21108406               -3.48644778               -0.57080841                0.38278770               -6.68112847
              18.39460891               12.18471330               83.48796031                1.00000000                0.01788641                0.08279326               -0.23555883               -0.00167811               -0.00022554                0.52849956
              19.39478777               11.66543909               83.04605265                0.54010930               -0.03197490               -0.07686696                0.14626324               -0.05085812                0.02216008               -0.29914647
              20.39396941               11.14520347               82.60452322                0.00010000               -0.64900885               -0.22636960                0.51588292               -0.75024948                1.06909582               -1.16093253
              21.38180759               10.61209664               82.18354180                0.00010000               -0.92985272               -0.08041568               -0.34003587               -1.58035528                1.94107549               -1.74280341
              22.37537235               10.08011019               81.76441808                0.00010000               -0.36649370                0.05476190               -1.15958294               -1.87425793                1.73361966               -2.17671230
              23.37447772                9.54716154               81.34576064                0.00010000                0.15192573                0.24133785               -1.98483795               -2.32867561                1.38637516               -2.59205254
              24.37841087                9.01286656               80.92671778                0.00010000                0.56768844                0.57277749               -2.80334308               -2.68624217                1.00937792               -3.04222947
              25.38583149                8.47909957               80.50674878                0.00010000                0.84744021                1.03474210               -3.54841748               -2.63981775                0.68397077               -3.55149860
              26.39535967                7.94945191               80.08532851                0.00010000                1.02184611                1.44646047               -4.11428569               -2.04802582                0.43789324               -4.11909963
              27.40626841                7.42729965               79.66164552                0.00010000                1.13749156                1.58061386               -4.38031658               -1.05573471                0.23003188               -4.69103394
              28.41810950                6.91369708               79.23459260                0.39462883                1.18410934                1.34467613               -4.24608357               -0.38573738                0.20750411               -5.19235955
              18.91469552               13.18558662               83.34888226                1.00000000                0.01720847                0.08889129               -0.24807072                0.00084121                0.00077744                0.54792975
              19.91486760               12.66466939               82.90282807                0.57723417               -0.03559934               -0.07325200                0.15123380               -0.03840114                0.02442059               -0.28450564
              20.91398353               12.14297727               82.45720891                0.00010000               -0.78087208               -0.21717015                0.53824909               -0.52172057                1.16821913               -1.09604410
              21.89925016               11.61255994               82.03402672                0.00010000               -1.21599782                0.17100020               -0.44892894               -1.17017999                2.10888698               -1.47422896
              22.88966357               11.08300650               81.61303004                0.00010000               -0.68595913                0.48867184               -1.40130982               -1.47653323                1.84190267               -1.77926705
              23.88553098               10.55261250               81.19185179                0.00010000               -0.14184283                0.76442901               -2.35202939               -1.85349762                1.38376226               -2.06317192
              24.88682672               10.02154831               80.76935809                0.00010000                0.37178902                1.05846246               -3.28025577               -2.05576554                0.90034087               -2.36609619
              25.89296676                9.49150759               80.34512727                0.00010000                0.80605534                1.37320988               -4.11275689               -1.92823733                0.50686133               -2.70402542
              26.90294782                8.96487230               79.91912744                0.00010000                1.13321343                1.61622165               -4.73781886               -1.44185203                0.25438280               -3.07760907
              27.91563103                8.44351194               79.49135283                0.00010000                1.33594664                1.67039724               -5.02905936               -0.73155800                0.11504886               -3.46953843
              28.92966676                7.92785254               79.06143789                0.39537410                1.40357303                1.47342572               -4.87303731               -0.25251582                0.13713037               -3.85988750
              19.43646020               14.18649112               83.20987563                1.00000000                0.01689042                0.09005680               -0.26272693                0.00356517                0.01099656                0.54673261
              20.43662910               13.66397405               82.75971284                0.62471312               -0.04078764               -0.06568598                0.15858377               -0.02598127                0.04507385               -0.29031325
              21.43564445               13.14086006               82.31022168                0.00010000               -0.91271729               -0.20427605                0.56057207               -0.16877383                1.38798786               -0.93253027
              22.41837476               12.61551665               81.88693645                0.00010000               -1.49276602                0.43755575               -0.52629759               -0.54038570                2.43011759               -1.13109248
              23.40578913               12.08988362               81.46506645                0.00010000               -0.97543992                0.86822369               -1.57382138               -0.96463318                2.04886327               -1.27220641
              24.39886596               11.56245012               81.04251866                0.00010000               -0.36943309                1.12890445               -2.61947856               -1.31679997                1.48921884               -1.42574411
              25.39840047               11.03403580               80.61801926                0.00010000                0.25383943                1.36741722               -3.63776702               -1.44714353                0.92011307               -1.60173689
              26.40394275               10.50656377               80.19127799                0.00010000                0.80589098                1.58951615               -4.54933994               -1.30814858                0.47016636               -1.80268601
              27.41451829                9.98177634               79.76256384                0.00010000                1.23571328                1.74452338               -5.23291681               -0.93774837                0.19759615               -2.03331156
              28.42865701                9.46070759               79.33224939                0.00010000                1.49298549                1.76323223               -5.54718083               -0.45230732                0.07541473               -2.29443861
              29.44437799                8.94316559               78.90029625                0.39604577                1.57209800                1.58423672               -5.36254431               -0.13214076                0.10853027               -2.58330522
              19.95980096               15.18738776               83.07072701                1.00000000                0.01780703                0.09092833               -0.27999298                0.00418806                0.01806129                0.45650165
              20.95997903               14.66335567               82.61639312                0.52966774               -0.03677542               -0.06163259                0.17278838               -0.01623784                0.22556999               -0.28905547
              21.95906546               14.13889174               82.16622095                0.00010000               -1.02800743               -0.19627524                0.56038159                0.31580412                1.77457521               -0.72593015
              22.93941889               13.62131105               81.74297482                0.00010000               -1.78140074                0.83154035               -0.58426648                0.03732339                2.80196128               -0.65447293
              23.92343744               13.10037097               81.32150003                0.00010000               -1.21880434                1.12331215               -1.69975756               -0.44944004                2.31131620               -0.66564878
              24.91504280               12.57519059               80.89861697                0.00010000               -0.48336238                1.34684886               -2.81244622               -0.73771396                1.64155528               -0.72743722
              25.91377019               12.04889665               80.47328088                0.00010000                0.20102240                1.55313855               -3.89915073               -0.79415822                0.99887662               -0.80332766
              26.91906325               11.52329792               80.04534972                0.00010000                0.81394212                1.73380736               -4.87674432               -0.69331257                0.50185388               -0.89262952
              27.93004904               10.99976277               79.61528233                0.00010000                1.30661937                1.84895209               -5.61526372               -0.47042748                0.20503156               -1.00220453
              28.94519563               10.47877659               79.18360977                0.00010000                1.60294557                1.85266108               -5.95570944               -0.20731319                0.07177197               -1.13935847
              29.96210795                9.95953727               78.75032374                0.39669021                1.69123130                1.69678618               -5.74042508               -0.02592891                0.09895412               -1.31705846
              20.48460814               16.18830969               82.92990203                1.00000000                0.01922194                0.09219313               -0.29312630               -0.07611120                0.21869834                0.37231845
              21.48480036               15.66274140               82.47331772                0.71742477               -0.03014984               -0.06142688                0.17847964               -0.08662375                0.54904480               -0.27839562
              22.48400515               15.13693456               82.02337794                0.36549549               -1.35791825               -0.19571846                0.56109850                0.96427184                2.38251058               -0.66553735
              23.45764200               14.63214746               81.60371256                0.36212097               -2.05421778                1.08364036               -0.65192349                0.59307651                3.22213765               -0.24211053
              24.44292079               14.11234987               81.18300552                0.36076731               -1.10279964                1.19788934               -1.80153969               -0.18968311                2.52095356               -0.26948039
              25.43558600               13.58938710               80.76055887                0.36189130               -0.42554078                1.41965066               -2.95183022               -0.30824413                1.78110647               -0.30159492
              26.43440997               13.06509858               80.33528924                0.36472255                0.18121888                1.62019231               -4.08182217               -0.34338075                1.08006737               -0.33905289
              27.43921038               12.54123992               79.90719007                0.36987795                0.76105460                1.79420028               -5.10897976               -0.30244602                0.55482414               -0.37810606
              28.44963107               12.01875539               79.47690522                0.37775366                1.27629332                1.89926169               -5.90040106               -0.21575220                0.26249136               -0.42735629
              29.46473625               11.49776081               79.04512718                0.38827063                1.63534885                1.89842285               -6.28970341               -0.12864225                0.13558066               -0.49484534
              30.48233804               10.97710131               78.61155514                0.69867278                1.76017955                1.75640413               -6.07845566               -0.04294045                0.16179835               -0.61109264
              15.71570780                6.32538465               85.31582208                1.00000000                0.02477298                0.07581387               -0.27319806                0.06565042               -0.43999052                0.47851962
              16.71595553                5.80824779               84.89758563                1.00000000               -0.03536234               -0.01851743                0.05798104                0.07237925               -0.57112992                0.06543862
              17.71500055                5.29077701               84.47654447                1.00000000               -0.14523798               -0.09840535                0.36794898                0.06787453               -0.62257889               -0.02482487
              18.71305077                4.77242916               84.05723390                0.69877868               -0.25971949               -0.20634976                0.69007679                0.00685278               -0.56446700               -0.22845051
              19.70980616                4.25245073               83.63735962                0.55911287               -0.36511040               -0.32781345                1.01559116               -0.00374603               -0.43611792               -0.21622750
              20.70574856                3.73085920               83.22065896                0.32805583               -0.44639462               -0.48304372                1.41797317               -0.10475170                0.14669554               -0.47173104
              21.70087827                3.20626406               82.81240338                0.00010000               -0.12818883               -0.63849180                1.71402994               -0.83265895                3.42122913               -1.08129435
              22.70318479                2.66781098               82.46071416                0.00010000                1.08899082               -0.64568637                0.16481943               -2.78036989                7.31978596               -2.75358953
              23.72265809                2.10379945               82.11665402                0.00010000                3.68884830               -1.52477987               -1.22474321               -2.72432852                7.80691158                0.51995946
              24.77696175                1.50693993               81.79621257                1.00000000                2.97699712                0.61118291               -2.12205615               -2.68280753                4.37076669               -0.06794980
              25.78219803                0.96726567               81.38890017                1.00000000                0.52362783                0.34708147               -1.34621207                0.09389618               -0.00662707               -0.06737236
              16.23350117                7.32614279               85.17644247                1.00000000                0.04819791                0.06417636               -0.28247739                0.01651211               -0.02771423                0.64691117
              17.23398314                6.80806262               84.75818087                1.00000000                0.00437248               -0.02587109                0.05130480                0.02485795                0.01067356                0.09111245
              18.23358862                6.28979296               84.34041992                1.00000000               -0.08503515               -0.10647380                0.36093001                0.00329667                0.09264104               -0.17845952
              19.23228244                5.77036567               83.92348196                0.91639163               -0.15174637               -0.23810343                0.68608280               -0.02796058                0.25507777               -0.14540439
              20.23055369                5.24917259               83.50855557                0.81557801               -0.22440299               -0.36268425                1.03923100               -0.05108028                0.46280379               -0.14438866
              21.22779438                4.72602876               83.09471140                0.60862282               -0.32389472               -0.52332523                1.49844713               -0.13295064                0.85223914               -0.31971641
              22.22407579                4.19987914               82.68591007                0.31733353               -0.05904953               -0.73347264                2.10026097               -0.68482662                2.88141221               -0.71089433
              23.22661339                3.66135411               82.30955494                0.00327086                2.58872664               -0.93260766                0.79298880               -2.44858326                7.30860337               -1.45006591
              24.27585033                3.08855165               81.99624199                0.09089802                4.58935877               -2.35862706               -0.29060440               -3.06070347               10.15350032               -1.57806438
              25.31840057                2.51305176               81.65785772                1.00000000                2.34804627                0.57326374               -1.86899530               -1.61469057                3.45728863               -0.07270521
              26.32281125                1.97073649               81.25039316                1.00000000                0.44106849                0.30665324               -1.06531565               -0.03659388                0.00392917               -0.09123067
              16.75219839                8.32666818               85.04024729                1.00000000                0.06041347                0.04781125               -0.28651311                0.00102553                0.09920283                0.75801813
              17.75280252                7.80773037               84.61911604                1.00000000                0.02825260               -0.03072435                0.05125431               -0.00728111                0.26541578                0.04331120
              18.75276344                7.28864754               84.20100538                0.00010000                0.01547006               -0.10591053                0.36972574               -0.12817898                0.85995286               -0.60074424
              19.75311193                6.76766709               83.79129083                0.00010000                0.01790117               -0.69330970                0.67542849               -0.56290366                1.33665255               -1.06310706
              20.75312146                6.24519704               83.38132947                0.00010000               -0.03644605               -1.03950555                1.02756318               -0.72092645                1.47712199               -1.50787858
              21.75238300                5.72039269               82.97230186                0.00010000               -0.06325390               -1.41392930                1.49549031               -0.72097643                1.98667316               -1.92374087
              22.75185639                5.19159460               82.56916360                0.00010000                0.65788020               -1.99181962                2.05731452               -0.85168538                4.04921362               -2.36526251
              23.76554061                4.64915882               82.19575354                0.00010000                2.89449921               -2.69167347                1.52043276               -3.10893191                5.45511730               -2.59956607
              24.80974637                4.05662691               81.83623310                0.00010000                4.84712488               -2.00021730                1.35340409               -4.43135836                9.72629865               -4.75199839
              25.86248311                3.51840521               81.51948266                0.00010000                2.81751638                0.15389544               -1.61943028               -3.55286543                4.56044808               -6.98746771
              26.86609670                2.97339874               81.11190597                0.38826830                0.36135931                1.92514724               -0.78655920               -3.67959191                0.04180225               -6.75416234
              17.27139729                9.32709902               84.90301817                1.00000000                0.04608737                0.04721685               -0.27715738               -0.01299396                0.18014728                0.63717151
              18.27185817                8.80744813               84.47865357                0.60339966               -0.01544906               -0.02660223                0.06606145               -0.03565810                0.28995035               -0.21083187
              19.27108831                8.28767475               84.05627654                0.00010000               -0.36916529               -0.12982599                0.38512620               -0.63978692                0.66488164               -1.03809355
              20.26447486                7.75649947               83.63938116                0.00010000               -0.38393759               -0.87985274                0.33040746               -1.54704268                1.06347404               -2.11319777
              21.26340956                7.22838248               83.22561178                0.00010000                0.12512146               -1.41306963                0.28129638               -1.70092162                1.34100433               -2.98200773
              22.26697729                6.69775017               82.81506702                0.00010000                0.74331969               -1.91352258                0.19124158               -1.99600540                1.76258696               -3.77829862
              23.27827595                6.16004275               82.41162082                0.00010000                1.62125782               -2.49084516               -0.11373925               -2.60565904                2.18739129               -4.39230969
              24.29940245                5.60752064               82.01636944                0.00010000                1.98504104               -2.63580524               -0.50780753               -3.75680657                2.94132007               -5.93034084
              25.31797678                5.04854731               81.63213012                0.00010000                1.55844911               -0.06781497               -1.64570216               -4.39720853                2.63608605               -7.56668524
              26.33057143                4.51612967               81.24201563                0.00010000                1.06277870                0.46935926               -1.90464768               -3.95764810                2.12992387              -11.61424771
              27.33923235                4.00923943               80.84030159                0.38848709                0.86609201                2.29635376               -1.89851761               -2.46009710                1.60841075              -12.57560796
              17.79124028               10.32761252               84.76438282                1.00000000                0.02733517                0.06147652               -0.26170651               -0.00434356                0.01201078                0.52424855
              18.79151363                9.80719833               84.33439118                0.51979469               -0.01619581               -0.04295304                0.11271362               -0.05195928                0.18847458               -0.35472055
              19.79091636                9.28605102               83.90782821                0.00010000               -0.50251471               -0.19187795                0.41300721               -0.82785623                0.62045372               -1.29581337
              20.78146334                8.75007004               83.48647309                0.00010000               -0.65320167               -0.50455333                0.06035956               -1.69403373                0.89184882               -2.14882175
              21.77785233                8.21693565               83.06808191                0.00010000               -0.03303531               -0.85379869               -0.31710616               -1.90550104                0.96636097               -2.98090863
              22.78080263                7.68212224               82.65232857                0.00010000                0.60602030               -1.11085042               -0.78570084               -2.47890662                0.94099634               -3.80169653
              23.78997274                7.14177770               82.23941531                0.00010000                1.05486429               -1.12268434               -1.34950497               -3.35082092                0.93871801               -4.74875973
              24.80189992                6.59644272               81.83008533                0.00010000                1.16102190               -0.41295412               -2.03733484               -4.06055879                0.89966904               -5.78681282
              25.81319317                6.05527061               81.42262458                0.00010000                1.03690500                0.84492236               -2.65856041               -3.62863609                0.94556838               -7.26878853
              26.82263802                5.52779239               81.01447964                0.00010000                0.87410278                1.26764342               -3.00905648               -2.11677217                0.66913788               -8.68318693
              27.83067523                5.01932581               80.59886974                0.38934727                0.80372127                0.99083250               -2.86297590               -1.03931502                0.60598154               -9.86625747
              18.31213880               11.32832855               84.62485654                1.00000000                0.02416802                0.07753964               -0.24828111               -0.00691905                0.00312580                0.49452015
              19.31238048               10.80658907               84.19084786                0.53842011               -0.02396642               -0.06867022                0.12981551               -0.06072586                0.05055789               -0.30528051
              20.31165948               10.28383719               83.75771089                0.00010000               -0.63354654               -0.22540740                0.47769137               -0.85480774                0.51874842               -1.26500390
              21.29970955                9.74640840               83.33301149                0.00010000               -0.92060682               -0.24560159               -0.13490139               -1.73991505                0.80230529               -2.05631990
              22.29324734                9.21130651               82.90998442                0.00010000               -0.35762232               -0.29804570               -0.75648623               -1.97240815                0.62592895               -2.77708329
              23.29255711                8.67553317               82.48806950                0.00010000                0.18458596               -0.26528676               -1.45343595               -2.49458668                0.35894972               -3.51305969
              24.29693906                8.13758906               82.06694296                0.00010000                0.60706276                0.02060146               -2.22798080               -3.04768208                0.08982566               -4.28442016
              25.30469836                7.59926156               81.64655438                0.00010000                0.85576610                0.61013301               -3.00699343               -3.17028006               -0.04317354               -5.14512875
              26.31405438                7.06544575               81.22695882                0.00010000                0.97412104                1.19618370               -3.65509642               -2.56197834               -0.04470503               -6.07753237
              27.32418078                6.54148254               80.80709801                0.00010000                1.06624126                1.43993493               -3.99534331               -1.36627967                0.01446042               -7.03631215
              28.33537921                6.02905608               80.38525739                0.38957075                1.11984227                1.11020135               -3.89990122               -0.50480928                0.15868226               -7.70804268
              18.83458085               12.32916331               84.48552090                1.00000000                0.02096222                0.08720762               -0.24745364               -0.00398520               -0.00119828                0.51699917
              19.83479047               11.80582492               84.04749621                0.57700126               -0.02899879               -0.07666710                0.13909115               -0.05376134                0.01337558               -0.28461365
              20.83400088               11.28154287               83.60971330                0.00010000               -0.77973781               -0.22544652                0.51009092               -0.71300185                0.45653090               -1.11088409
              21.81919572               10.74515801               83.18045845                0.00010000               -1.23607342               -0.00230048               -0.26865976               -1.50141941                0.70404905               -1.82649526
              22.80927941               10.21097474               82.75324222                0.00010000               -0.72836859                0.19316584               -1.06436304               -1.74407606                0.43527112               -2.40908029
              23.80462835                9.67681651               82.32617672                0.00010000               -0.19943539                0.41647760               -1.93288419               -2.14457317                0.00713054               -2.98022398
              24.80529070                9.14218973               81.89854564                0.00010000                0.30046383                0.74206585               -2.85717523               -2.44377105               -0.38796706               -3.58066072
              25.81063762                8.60864538               81.47056210                0.00010000                0.72209657                1.15216986               -3.75156815               -2.37726198               -0.60316632               -4.21786360
              26.81973263                8.07919428               81.04288087                0.00010000                1.05322361                1.50305704               -4.47675995               -1.82919790               -0.56667868               -4.88823756
              27.83170209                7.55659109               80.61610720                0.00010000                1.28496616                1.60356365               -4.86940676               -0.93715141               -0.32811350               -5.51842277
              28.84543195                7.04152984               80.19031714                0.39032866                1.37298597                1.37793492               -4.77976591               -0.33080316               -0.03364376               -5.99482306
              19.35873587               13.33007270               84.34635260                1.00000000                0.01898247                0.09160707               -0.25382178               -0.00070283               -0.00031274                0.53025213
              20.35892570               12.80505573               83.90433392                0.61459528               -0.03347610               -0.07292766                0.14588640               -0.03794550                0.01607567               -0.26689004
              21.35806635               12.27932826               83.46261376                0.00010000               -0.93382013               -0.21559846                0.53150327               -0.44438675                0.48728778               -1.04629713
              22.34024930               11.74636240               83.02992897                0.00010000               -1.56795164                0.24370769               -0.35905815               -1.01957236                0.72855037               -1.51219353
              23.32670732               11.21516982               82.59954613                0.00010000               -1.08993243                0.61555320               -1.27798485               -1.29489814                0.39161879               -1.91968416
              24.31845065               10.68386272               82.16869615                0.00010000               -0.52362782                0.91839581               -2.27390616               -1.65140224               -0.14888157               -2.31846338
              25.31623476               10.15243038               81.73646957                0.00010000                0.08489599                1.21168961               -3.32136346               -1.84113967               -0.64483929               -2.73963626
              26.32014857                9.62230496               81.30326562                0.00010000                0.66449732                1.50706966               -4.32486268               -1.72376208               -0.91145090               -3.18778646
              27.32952471                9.09550689               80.87032922                0.00010000                1.14768151                1.72829055               -5.13518504               -1.28205987               -0.85760380               -3.64498871
              28.34310220                8.57355381               80.43911564                0.00010000                1.46804658                1.77769480               -5.57629129               -0.64439164               -0.50674217               -4.06974371
              29.35888564                8.05661478               80.01061766                0.39066231                1.57834436                1.60535311               -5.47984119               -0.21270074               -0.13840278               -4.40783158
              19.88460074               14.33099545               84.20722694                1.00000000                0.01752694                0.09104142               -0.26363879                0.00282398                0.00978575                0.52455769
              20.88477600               13.80436637               83.76130258                0.66431790               -0.03971308               -0.06487869                0.15465559               -0.02323295                0.03355834               -0.26462895
              21.88380647               13.27723090               83.31584102                0.00010000               -1.09066507               -0.20176224                0.55300399               -0.05579528                0.64880284               -0.88599332
              22.86296270               12.75003216               82.88214402                0.00010000               -1.89626761                0.51889787               -0.41731310               -0.34034727                0.93917686               -1.13497630
              23.84588112               12.22328580               82.44997779                0.00010000               -1.43114777                1.00064227               -1.42054555               -0.77855394                0.48084746               -1.34396067
              24.83433975               11.69518442               82.01681499                0.00010000               -0.79277287                1.27631636               -2.51028227               -1.14328590               -0.17100210               -1.57599321
              25.83002566               11.16642352               81.58165272                0.00010000               -0.06269427                1.51768100               -3.65575764               -1.28325072               -0.75798971               -1.83531213
              26.83308586               10.63878677               81.14509494                0.00010000                0.64084577                1.73785733               -4.75301371               -1.16474206               -1.07719864               -2.11382725
              27.84284258               10.11376010               80.70879167                0.00010000                1.23102557                1.89261454               -5.63935737               -0.83371173               -1.02161113               -2.39942000
              28.85770637                9.59214499               80.27475238                0.00010000                1.61067088                1.91979118               -6.11873347               -0.39959032               -0.60958642               -2.66574590
              29.87505600                9.07363690               79.84447587                0.39158410                1.73496238                1.77111181               -6.00093613               -0.10962469               -0.19902207               -2.87719561
              20.41205052               15.33189353               84.06792626                1.00000000                0.01750748                0.09033753               -0.27698757                0.00430985                0.02228572                0.43316906
              21.41222559               14.80375816               83.61813875                0.56632654               -0.03829319               -0.06077921                0.17063274               -0.01203949                0.19717204               -0.26016607
              22.41128465               14.27529301               83.17184862                0.00010000               -1.24190716               -0.19164955                0.55454796                0.47099109                0.97936635               -0.68247999
              23.38738745               13.75674035               82.73769316                0.00010000               -2.26503369                0.96859347               -0.45324957                0.22243579                1.23319287               -0.64365281
              24.36598398               13.23518267               82.30529428                0.00010000               -1.74701217                1.26834873               -1.51133590               -0.31934047                0.65414610               -0.69105601
              25.35244721               12.70938904               81.87113832                0.00010000               -0.95082912                1.49253511               -2.66496329               -0.63756111               -0.12000897               -0.79432680
              26.34696740               12.18278400               81.43443701                0.00010000               -0.14650267                1.70117833               -3.88370347               -0.70393242               -0.79421369               -0.91397677
              27.34951715               11.65706210               80.99598662                0.00010000                0.62624310                1.88860766               -5.05801677               -0.61869824               -1.16669770               -1.04367447
              28.35949226               11.13335919               80.55772684                0.00010000                1.28582152                2.01459881               -6.01344733               -0.42217852               -1.12373321               -1.17949853
              29.37523358               10.61194963               80.12202298                0.00010000                1.71085270                2.03280297               -6.53064995               -0.18750654               -0.68019789               -1.31082487
              30.39370931               10.09203702               79.69072559                0.39196846                1.84757306                1.89902418               -6.38175506               -0.01818964               -0.24452019               -1.41034841
              20.94095768               16.33280220               83.92698777                1.00000000                0.01780519                0.09086741               -0.28697997               -0.07442576                0.21164237                0.34907513
              21.94113573               15.80315079               83.47514137                0.73522143               -0.03567899               -0.06073701                0.17922994               -0.07920110                0.49676781               -0.24924432
              22.94024410               15.27339791               83.02901280                0.36504097               -1.68069837               -0.18951058                0.55471843                1.20860664                1.52762948               -0.61522623
              23.90752176               14.76940403               82.59787580                0.36200703               -2.66992388                1.26636784               -0.49085137                0.77617456                1.59224731               -0.23058951
              24.88684562               14.24865277               82.16594638                0.36086953               -1.67672818                1.34701042               -1.57159126               -0.13228140                0.81076843               -0.27597318
              25.87398720               13.72503512               81.73186124                0.36164912               -0.92858325                1.56460794               -2.75962755               -0.25628507               -0.05066784               -0.32484529
              26.86827396               13.20044709               81.29477115                0.36425467               -0.19252449                1.76630923               -4.02671068               -0.29315425               -0.80481312               -0.37600711
              27.87013671               12.67655893               80.85560866                0.36858188                0.56187619                1.94968204               -5.26215226               -0.25779531               -1.22572855               -0.42405049
              28.87951148               12.15405207               80.41653698                0.37545406                1.25708506                2.06928865               -6.28620552               -0.18597209               -1.19065868               -0.47307011
              29.89527841               11.63280105               79.98016852                0.38464227                1.75029796                2.08514112               -6.86927515               -0.11725161               -0.72165196               -0.52329889
              30.91451744               11.11161739               79.54852830                0.69620598                1.92390282                1.95803689               -6.72866303               -0.03755353               -0.26483098               -0.56271673
              16.12776223                6.46959975               86.31288970                1.00000000                0.03119035                0.08139558               -0.29841793                0.06799865               -0.46272953                0.47944967
              17.12807413                5.94834704               85.89800854                1.00000000               -0.03092008               -0.01114734                0.03256100                0.07506296               -0.61132286                0.06700478
              18.12714383                5.42667983               85.48009105                1.00000000               -0.14272480               -0.08671059                0.33961585                0.06893788               -0.66633463               -0.02742562
              19.12521963                4.90390906               85.06405570                0.69917940               -0.25485446               -0.19829738                0.66391809               -0.00134416               -0.59276590               -0.23120947
              20.12204674                4.37909865               84.64749770                0.57874228               -0.35316279               -0.32990319                0.98695510               -0.00396016               -0.39719805               -0.18959364
              21.11815638                3.85205656               84.23499925                0.38796653               -0.43176518               -0.49826612                1.40743502               -0.05726504                0.21439622               -0.37247829
              22.11341143                3.32159147               83.82978151                0.12172519                0.26336709               -0.72982321                1.77894069               -0.13234717                2.61601453               -0.63349150
              23.12342372                2.78626480               83.46388863                0.00010000                0.56350824               -1.33642838                0.54601241               -2.30033488                5.18534882               -2.32598697
              24.12468160                2.22237496               83.10892066                0.00010000                2.85799366               -2.19026335               -0.16647449                2.17256858                8.26377620               -0.54843118
              25.18058359                1.64324937               82.77538333                1.00000000                3.04000883                0.60311105               -2.00399729               -1.79586556                3.30567488               -0.10685507
              26.18548177                1.10377086               82.37612065                1.00000000                0.48981804                0.32943837               -1.25128939                0.13501125               -0.00979262               -0.04147604
              16.64969493                7.47041371               86.17342439                1.00000000                0.05897947                0.06760802               -0.30754246                0.01906216               -0.05064987                0.64329473
              17.65028472                6.94823557               85.75854227                1.00000000                0.01786309               -0.01996131                0.02549183                0.02786121               -0.03289817                0.09349204
              18.65005219                6.42581272               85.34387644                1.00000000               -0.06439712               -0.09592820                0.32617475               -0.00087137                0.04151870               -0.17051968
              19.64899678                5.90192609               84.93019319                0.93034929               -0.10594019               -0.23670925                0.64133550               -0.03521437                0.22981736               -0.14610411
              20.64793339                5.37579962               84.51877008                0.84556880               -0.13297312               -0.36861623                0.96978734               -0.05804280                0.52706272               -0.12477400
              21.64633732                4.84707390               84.10963983                0.68225831               -0.14747740               -0.54532544                1.41614761               -0.12860295                1.12124669               -0.24907663
              22.64498384                4.31429324               83.70743214                0.46587015                0.18456538               -0.81555364                2.00698956               -0.35928251                2.83161435               -0.44906793
              23.65002863                3.77290052               83.32671302                0.24818188                3.64655801               -1.40480632                1.79545495               -2.13572469                6.69057441               -1.34696318
              24.71791500                3.20047232               82.99211991                0.39329756                3.59491800               -1.19506275               -0.63855519                0.84262112                7.32242024               -0.30332367
              25.72192699                2.64928048               82.63882382                1.00000000                0.41976986                0.59133265               -1.90794310               -0.38927392                2.31656498               -0.13529811
              26.72631040                2.10706524               82.24002177                1.00000000                0.43834099                0.29424658               -1.01967052                0.00115570                0.02862667               -0.03758026
              17.17249976                8.47095191               86.03720182                1.00000000                0.07325838                0.04857278               -0.31072007                0.00001765                0.07335028                0.76080347
              18.17323234                7.94794781               85.61949005                1.00000000                0.04680561               -0.02589548                0.02643190               -0.01133350                0.22148720                0.05661658
              19.17343587                7.42476126               85.20456354                0.00010000                0.06480532               -0.09313045                0.33552066               -0.16607465                0.79055639               -0.57427823
              20.17452845                6.89917488               84.79780403                0.00010000                0.11511004               -0.70060423                0.60819634               -0.67605595                1.27612927               -1.21009612
              21.17573807                6.37172632               84.39122274                0.00010000                0.12811256               -1.02048293                0.91073583               -0.94925674                1.50090593               -1.83209611
              22.17709070                5.84115005               83.98674025                0.00010000                0.23305444               -1.34054461                1.30806129               -1.15402127                2.16677937               -2.49462086
              23.18039916                5.30528039               83.58938265                0.00010000                0.87197183               -1.72490507                1.76478512               -1.46547178                3.84387162               -3.32801564
              24.19453014                4.75816868               83.21082809                0.00010000                4.23774480               -2.24250931                1.33657914               -2.04170709                6.39422943               -4.60129247
              25.26515406                4.19847370               82.86046770                0.00010000                3.58375287               -0.91880610                0.87297159               -4.74004342                6.79428136               -5.35333692
              26.26620520                3.65507602               82.50236424                0.00010000                0.23906520                0.22445996               -1.75986435               -3.18249542                2.04943610               -7.29305489
              27.26993536                3.10965579               82.10406586                0.38427260                0.37301661                1.52946761               -0.77623013               -3.11011111                0.03611879               -7.39861687
              17.69570349                9.47138517               85.90009546                1.00000000                0.05452190                0.04826173               -0.29740548               -0.01867540                0.15316416                0.65015442
              18.69624871                8.94771766               85.47920536                0.62944048               -0.00999282               -0.01927215                0.04526110               -0.04475276                0.24617341               -0.17416534
              19.69550363                8.42395011               85.06006449                0.00010000               -0.38690528               -0.11621521                0.36495756               -0.70209325                0.42222448               -0.99983025
              20.68851060                7.88791401               84.64261077                0.00010000               -0.42652745               -0.86147787                0.31413463               -1.74199850                0.60852013               -2.36094601
              21.68697308                7.35538996               84.22826261                0.00010000                0.05961116               -1.32589498                0.24187489               -2.04950352                0.81893286               -3.55629748
              22.68970282                6.82026301               83.81657361                0.00010000                0.58413482               -1.67180242                0.07904701               -2.51928204                1.07910862               -4.77606956
              23.69865578                6.27979513               83.40981196                0.00010000                1.31491769               -1.94382185               -0.30677570               -3.23310399                1.42938875               -6.13871829
              24.71600118                5.72805033               83.01029734                0.00010000                1.37755029               -1.73529194               -0.87141336               -3.78850546                1.41302803               -7.77017449
              25.72620678                5.18209620               82.61360653                0.00010000                1.55469061               -0.68308620               -1.69502510               -5.56359700                1.51097168               -9.91253145
              26.74709499                4.65376968               82.22262552                0.00010000                1.43709267                0.13005312               -2.07994655               -3.58598014                1.49081573              -12.59719705
              27.75494864                4.13765459               81.82063297                0.38469292                0.78536479                1.87693280               -2.12662113               -2.55908620                1.03915857              -14.09982134
              18.21946127               10.47191715               85.76165509                1.00000000                0.03110703                0.06489561               -0.27576002               -0.00762546                0.01191530                0.54043163
              19.21977234                9.94756237               85.33544325                0.55408540               -0.01318080               -0.03607846                0.09642597               -0.05985763                0.14849306               -0.31981329
              20.21919766                9.42243696               84.91191790                0.00010000               -0.57618548               -0.18153117                0.39597003               -0.86316316                0.22705796               -1.24043462
              21.20824863                8.88194532               84.48718511                0.00010000               -0.83993267               -0.44287573                0.09299435               -1.81012853                0.12859053               -2.31435847
              22.20239900                8.34520842               84.06501601                0.00010000               -0.29743738               -0.70903324               -0.28197123               -2.07651042                0.07360335               -3.39329179
              23.20229989                7.80771400               83.64433792                0.00010000                0.27753763               -0.82933040               -0.80734763               -2.67129917               -0.10279208               -4.52509263
              24.20794976                7.26640396               83.22539060                0.00010000                0.70795378               -0.72605519               -1.48322688               -3.35528551               -0.29790062               -5.74119225
              25.21645896                6.72346284               82.80860712                0.00010000                1.01065074               -0.03084621               -2.28201699               -3.80620101               -0.33425731               -7.02918533
              26.22816277                6.18481198               82.39488611                0.00010000                1.12341189                0.60199773               -3.00545420               -3.06609305               -0.11892531               -8.34416896
              27.23892720                5.65767708               81.98272342                0.00010000                1.14105175                0.78880921               -3.44691908               -2.08654984                0.09525031              -10.03315159
              28.25098381                5.14719445               81.56851887                0.38497908                1.20566064                0.88480857               -3.36352147               -0.94413287                0.37069450              -11.31672562
              18.74426054               11.47268308               85.62230448                1.00000000                0.02712063                0.08200334               -0.25576641               -0.01004683                0.00160619                0.50256494
              19.74453174               10.94699609               85.19208537                0.57504929               -0.02015617               -0.06508054                0.11542459               -0.06365238                0.03123537               -0.28954726
              20.74385742               10.42031949               84.76242194                0.00010000               -0.74975906               -0.21770227                0.45660968               -0.84997327                0.02435151               -1.20846943
              21.72953656                9.87905649               84.33193022                0.00010000               -1.20916107               -0.16480344               -0.06316630               -1.74995869               -0.20410910               -2.15505267
              22.71967419                9.34120929               83.90275851                0.00010000               -0.72276278               -0.14207797               -0.66104707               -1.97097948               -0.50913683               -3.05993076
              23.71508131                8.80367640               83.47362623                0.00010000               -0.19364803               -0.03917975               -1.41881181               -2.44591185               -0.94892167               -4.00122635
              24.71580123                8.26527403               83.04419701                0.00010000                0.31939145                0.26613847               -2.32829998               -2.89632972               -1.32002028               -4.99576464
              25.72146914                7.72743341               82.61532556                0.00010000                0.74347210                0.72841090               -3.28763437               -2.90819548               -1.41483515               -6.03473912
              26.73067068                7.19413616               82.18842960                0.00010000                1.07561937                1.17523902               -4.13530199               -2.37846601               -1.14483198               -7.14550802
              27.74298152                6.66954586               81.76458714                0.00010000                1.31802905                1.36182407               -4.65327599               -1.27213572               -0.60308425               -8.23203632
              28.75703126                6.15535077               81.34351166                0.38549674                1.40497318                1.06229474               -4.63599283               -0.51786229               -0.10303381               -8.99329890
              19.27063432               12.47355722               85.48301124                1.00000000                0.02285657                0.09012731               -0.24938740               -0.00634137               -0.00248956                0.51292984
              20.27086289               11.94626076               85.04883447                0.61562781               -0.02482667               -0.07354339                0.12580278               -0.05390450                0.00207209               -0.27163559
              21.27013779               11.41808291               84.61472504                0.00010000               -0.92516157               -0.21979455                0.48498313               -0.66673446               -0.10915639               -1.06846335
              22.25235965               10.87864925               84.17816861                0.00010000               -1.58891391                0.07870008               -0.16580312               -1.41819079               -0.46746865               -1.87836836
              23.23835951               10.34236687               83.74313082                0.00010000               -1.15213706                0.33339775               -0.92279031               -1.63321334               -0.88301654               -2.59110705
              24.22931691                9.80693041               83.30710296                0.00010000               -0.60466783                0.59642840               -1.85753464               -2.00457705               -1.48359093               -3.32276213
              25.22626615                9.27172673               82.86957427                0.00010000                0.00580066                0.91872371               -2.94442775               -2.26700631               -1.97504971               -4.09847036
              26.22943293                8.73803105               82.43171741                0.00010000                0.61074218                1.28928077               -4.07174748               -2.20005069               -2.11808314               -4.91399260
              27.23848100                8.20831676               81.99579332                0.00010000                1.14184744                1.59627894               -5.05564945               -1.69212162               -1.78951714               -5.73993497
              28.25226987                7.68491357               81.56425738                0.00010000                1.52678793                1.69630107               -5.67273806               -0.88250994               -1.02391683               -6.48767744
              29.26901675                7.16844034               81.13899728                0.38622147                1.67468789                1.50932047               -5.70122576               -0.30415233               -0.34047296               -6.98380661
              19.79872663               13.47448562               85.34380583                1.00000000                0.02013314                0.09257031               -0.25133609               -0.00252466               -0.00164115                0.51816906
              20.79892796               12.94552522               84.90574579                0.65471918               -0.02961978               -0.06920589                0.13323850               -0.03693619                0.00675070               -0.25083440
              21.79813423               12.41592360               84.46783898                0.00010000               -1.10195815               -0.20887871                0.50343363               -0.36267265               -0.13230802               -1.00136550
              22.77688880               11.88063049               84.02684555                0.00010000               -1.97027289                0.32018446               -0.22941629               -0.86922353               -0.56146022               -1.52963976
              23.75872877               11.34787725               83.58747034                0.00010000               -1.56294447                0.74447003               -1.09582798               -1.13249611               -1.06283856               -2.02852457
              24.74562991               10.81560497               83.14637367                0.00010000               -0.96841571                1.07788370               -2.16131796               -1.48873335               -1.79128403               -2.54680467
              25.73936046               10.28364850               82.70293082                0.00010000               -0.23759070                1.38177006               -3.39248149               -1.68456865               -2.38886240               -3.10559651
              26.74087809                9.75321902               82.25863001                0.00010000                0.52926361                1.67675855               -4.66258568               -1.58799344               -2.57898230               -3.69354975
              27.74994573                9.22606173               81.81642374                0.00010000                1.21648254                1.90367828               -5.77088758               -1.18997587               -2.20752409               -4.27113343
              28.76520774                8.70347188               81.37982700                0.00010000                1.69744638                1.97858860               -6.47175695               -0.60066762               -1.28061738               -4.76152486
              29.78389466                8.18553718               80.95184107                0.38676942                1.86869164                1.85367057               -6.51573894               -0.19677954               -0.48414747               -5.06937902
              20.32850464               14.47540862               85.20460286                1.00000000                0.01815504                0.09023410               -0.25765169                0.00155490                0.00817077                0.50649031
              21.32868619               13.94487664               84.76280595                0.70615879               -0.03627899               -0.06058337                0.14217966               -0.02155647                0.02225883               -0.24062163
              22.32777906               13.41390534               84.32128176                0.00010000               -1.28323284               -0.19266153                0.52348780                0.05702245               -0.01475820               -0.84353660
              23.30302153               12.88505294               83.87859019                0.00010000               -2.35219723                0.60378614               -0.26094738               -0.14503915               -0.43727180               -1.12649397
              24.28073511               12.35725627               83.43665554                0.00010000               -1.96252707                1.13520075               -1.19614153               -0.61092208               -1.07616145               -1.39685852
              25.26377099               11.82848808               82.99231301                0.00010000               -1.28871964                1.43264192               -2.35447044               -1.00120767               -1.93642945               -1.71057815
              26.25496072               11.29936213               82.54490411                0.00010000               -0.42555820                1.69250896               -3.69620383               -1.16223472               -2.64127036               -2.06356287
              27.25525983               10.77156623               82.09621771                0.00010000                0.47339476                1.93458423               -5.08285284               -1.07052185               -2.88680778               -2.43597809
              28.26442862               10.24639032               81.64977669                0.00010000                1.27606276                2.11828746               -6.29412731               -0.77442996               -2.49429789               -2.79520274
              29.28078108                9.72448534               81.20987472                0.00010000                1.82609822                2.18360354               -7.05677047               -0.37456915               -1.45683983               -3.08247105
              30.30095058                9.20551375               80.78027753                0.38707387                2.01694991                2.08703508               -7.09228251               -0.10127526               -0.58368165               -3.21959178
              20.85982169               15.47629031               85.06518726                1.00000000                0.01784242                0.08797691               -0.26783029                0.00378189                0.02583643                0.41276671
              21.86000011               14.94431355               84.61980577                0.60340987               -0.03616550               -0.05626861                0.15806164               -0.00977193                0.17058559               -0.23286051
              22.85909838               14.41207037               84.17731191                0.00010000               -1.46815140               -0.18018329                0.52560704                0.62184556                0.27518529               -0.64419766
              23.83063708               13.89270622               83.73390983                0.00010000               -2.80115925                1.10587129               -0.26572875                0.40213655               -0.19522524               -0.62552231
              24.80307519               13.37058126               83.29127331                0.00010000               -2.35685971                1.41349692               -1.23650133               -0.20163997               -0.97431879               -0.70827354
              25.78349989               12.84425780               82.84531770                0.00010000               -1.50187869                1.64781432               -2.45401490               -0.55528475               -1.98177567               -0.85375971
              26.77303762               12.31749868               82.39560681                0.00010000               -0.55302159                1.87740103               -3.87616662               -0.63707629               -2.79915410               -1.02070977
              27.77243946               11.79191071               81.94418939                0.00010000                0.42502000                2.09743097               -5.35614734               -0.57005231               -3.11331657               -1.19679395
              28.78153802               11.26842748               81.49501338                0.00010000                1.30767360                2.26416907               -6.65743742               -0.39686680               -2.72521911               -1.36608235
              29.79859293               10.74714396               81.05299677                0.00010000                1.91371523                2.32592091               -7.47570382               -0.18093985               -1.60798458               -1.49619266
              30.81981232               10.22727788               80.62268864                0.38764554                2.12193936                2.23639023               -7.48214256               -0.01804368               -0.67380499               -1.50604923
              21.39253379               16.47716816               84.92416243                1.00000000                0.01769030                0.08778543               -0.27583102               -0.07047939                0.20556514                0.32844163
              22.39271069               15.94375127               84.47690232                0.75186726               -0.03552412               -0.05622825                0.16724787               -0.07226669                0.44726956               -0.22203887
              23.39182330               15.41030167               84.03447231                0.36434336               -2.00786621               -0.17686939                0.52488533                1.44344756                0.78420183               -0.57244844
              24.35255337               14.90717037               83.59389553                0.36176086               -3.33362890                1.44641521               -0.25874505                0.95285467                0.14241475               -0.22534652
              25.32515073               14.38552620               83.15157369                0.36097664               -2.34027449                1.49449407               -1.23362200               -0.07874677               -0.85228711               -0.28906233
              26.30574788               13.86144437               82.70536632                0.36162159               -1.52922174                1.71865630               -2.47948552               -0.20600427               -1.98179043               -0.35343560
              27.29456629               13.33691015               82.25475502                0.36359785               -0.64089482                1.94114651               -3.95596397               -0.24360892               -2.91662768               -0.41656082
              28.29292998               12.81351484               81.80194702                0.36737526                0.33458706                2.16041373               -5.51236206               -0.21277007               -3.31147996               -0.47175512
              29.30125803               12.29167371               81.35118111                0.37338357                1.26909559                2.32462214               -6.90345757               -0.15355314               -2.95129524               -0.51805338
              30.31831189               11.77100376               80.90774168                0.38131550                1.95319152                2.38598009               -7.81062903               -0.09971134               -1.78643061               -0.54652838
              31.34032186               11.25024156               80.47698188                0.69395026                2.20099718                2.29636800               -7.83194367               -0.02526600               -0.80516856               -0.48657397
              16.53621552                6.61390426               87.30985372                1.00000000                0.03122067                0.07923038               -0.29235614                0.06530723               -0.48669354                0.47862924
              17.53652772                6.08852044               86.89823685                1.00000000               -0.02944058               -0.00694850                0.02039249                0.07221274               -0.65417446                0.06746217
              18.53562670                5.56265771               86.48333679                1.00000000               -0.13694581               -0.07476338                0.30981983                0.06461390               -0.71156392               -0.03448898
              19.53378881                5.03552999               86.07051226                0.69833318               -0.23540219               -0.18347332                0.61851489               -0.00754571               -0.62642821               -0.24222188
              20.53091866                4.50611409               85.65709872                0.59890115               -0.30180679               -0.31620217                0.90871065                0.00288787               -0.36615811               -0.17646522
              21.52775267                3.97412846               85.24880766                0.45098004               -0.33047407               -0.48222379                1.29041024               -0.01059799                0.34562095               -0.29274549
              22.52430918                3.43829297               84.84798219                0.25500922               -0.00000297               -0.69963316                1.70423218                0.00827162                2.12633964               -0.36429326
              23.52775261                2.89564246               84.47163441                0.07447733                2.60648654               -0.81670810                0.93482529               -0.79458261                4.06628965               -1.22349733
              24.57643891                2.32643233               84.11332453                0.25165843                2.40613264                0.45058179               -0.05540196               -2.51112873                6.12343324               -1.19261051
              25.57587526                1.77792186               83.75613263                1.00000000                0.20443142                0.54430326               -1.81628658               -0.29444675                1.73373219               -0.21625646
              26.58052754                1.23863391               83.36387438                1.00000000                0.46522745                0.34057675               -1.24898776                0.11723907               -0.05076579                0.02821821
              17.06225241                7.61469656               87.17029162                1.00000000                0.06207172                0.06544610               -0.30364619                0.01910980               -0.07785061                0.63799267
              18.06287313                7.08845095               86.75869070                1.00000000                0.02578282               -0.01604144                0.01025522                0.02781670               -0.08683410                0.09500595
              19.06276807                6.56191007               86.34694342                1.00000000               -0.04439851               -0.08418904                0.28627346               -0.00609017               -0.03005434               -0.16496343
              20.06198516                6.03369526               85.93630867                0.94965194               -0.05598807               -0.22411968                0.57072568               -0.03857483                0.16218908               -0.15643465
              21.06164831                5.50295207               85.52795132                0.88089510               -0.02139528               -0.35257533                0.84210801               -0.05521675                0.50370944               -0.11376344
              22.06155725                4.96930622               85.12303435                0.76263407                0.09932950               -0.52809855                1.20335992               -0.09247127                1.19201878               -0.19270507
              23.06363489                4.43129664               84.72604986                0.62163742                0.70899275               -0.78192474                1.58379101               -0.07470242                2.64555865               -0.27106640
              24.07573711                3.88747538               84.34546404                0.49961986                2.32765162               -1.10469069                1.39782374               -0.28854746                4.61321659               -0.72078004
              25.11018793                3.33093815               83.98347089                0.69523280                2.05464503                0.08206133               -0.66660398               -1.32267770                2.78502433               -0.01983154
              26.11683001                2.78336489               83.61969886                1.00000000                0.53999741                0.54102769               -1.76742759               -0.24500340                1.45893848               -0.24885817
              27.12098788                2.24203968               83.22999975                1.00000000                0.41578688                0.30906493               -1.04242209                0.01189408                0.14292781                0.05729578
              17.58908893                8.61521318               87.03403289                1.00000000                0.07816152                0.04761377               -0.30947546               -0.00193933                0.04192864                0.76492180
              18.58987055                8.08819961               86.61964468                1.00000000                0.05858310               -0.02196613                0.00889292               -0.01498893                0.16449818                0.07154184
              19.59026059                7.56097393               86.20771580                0.00010000                0.10523824               -0.07931437                0.29174304               -0.18963382                0.68295584               -0.54021901
              20.59197531                7.03104760               85.80345476                0.00010000                0.19713832               -0.68978987                0.51110449               -0.77246776                1.12503749               -1.31496731
              21.59420336                6.49906258               85.39954418                0.00010000                0.27916817               -0.97444040                0.73534154               -1.16520215                1.34816911               -2.07464811
              22.59755868                5.96356649               84.99846308                0.00010000                0.52213056               -1.23375589                1.00237378               -1.54776207                1.97154566               -2.93818230
              23.60464597                5.42265448               84.60445930                0.00010000                1.23907391               -1.50181032                1.20351565               -2.02563657                3.10738213               -3.99667293
              24.62234015                4.87354865               84.22248512                0.00010000                2.47249394               -1.65686290                0.82303601               -2.32247960                4.21595272               -5.22427883
              25.65409585                4.32807356               83.85369253                0.00010000                1.87667563               -0.75299398               -0.56469318               -2.95630694                1.88756722               -6.26737367
              26.65987367                3.78874241               83.48428537                0.00010000                0.46599958                0.02308333               -1.61293259               -2.33635241                1.07680122               -7.75288186
              27.66341584                3.24481521               83.09638137                0.38040847                0.35421762                1.03751589               -0.83985251               -2.24208271                0.14252794               -8.14702360
              18.11624077                9.61564884               86.89707006                1.00000000                0.05718369                0.04994721               -0.29645701               -0.02305408                0.12232210                0.66885275
              19.11681260                9.08801163               86.47955880                0.65752472               -0.00566837               -0.01387755                0.02733557               -0.04874599                0.19792592               -0.13422107
              20.11612740                8.56032379               86.06357569                0.00010000               -0.41827311               -0.10445245                0.33001171               -0.73285545                0.18616045               -0.95634413
              21.10844714                8.01989946               85.64566385                0.00010000               -0.51510152               -0.82920923                0.31342010               -1.89493993                0.13501710               -2.51182624
              22.10582537                7.48346326               85.23044927                0.00010000               -0.07185118               -1.22443345                0.22162732               -2.36500646                0.18227578               -3.96326002
              23.10701012                6.94463111               84.81664796                0.00010000                0.36573172               -1.44993598               -0.03084369               -3.06946546                0.15965341               -5.54085083
              24.11314000                6.40126043               84.40548530                0.00010000                0.84291578               -1.50428363               -0.51471328               -3.75967149                0.17446686               -7.34302492
              25.12386843                5.85433813               83.99894117                0.00010000                1.13640125               -1.13589299               -1.22822920               -4.10015266                0.12942515               -9.12813368
              26.13586803                5.31587827               83.59822961                0.00010000                1.47464362               -0.72546977               -1.82618897               -4.39545231                0.58424367              -11.45250539
              27.15336131                4.78382655               83.20041670                0.00010000                1.40662975               -0.17873346               -2.49642792               -3.10258400                0.24749366              -14.16178067
              28.16400062                4.26278999               82.79776917                0.38095093                1.06393176                1.26486976               -2.60757175               -1.94953755                0.36728325              -15.95945309
              18.64390227               10.61621213               86.75886762                1.00000000                0.03184142                0.06874258               -0.27301272               -0.01058707                0.01032759                0.56487370
              19.64422068               10.08792206               86.33631970                0.59181500               -0.00933067               -0.03023654                0.07800594               -0.06260580                0.10825873               -0.28334389
              20.64371565                9.55888488               85.91574761                0.00010000               -0.66418222               -0.17315636                0.36165146               -0.86421968               -0.12643844               -1.18779130
              21.63093704                9.01446341               85.48833298                0.00010000               -1.07720330               -0.37878016                0.16718805               -1.87336525               -0.59070157               -2.39599527
              22.62217159                8.47457392               85.06244249                0.00010000               -0.62824208               -0.57350927               -0.18496261               -2.21762097               -0.86690682               -3.66949546
              23.61837220                7.93456777               84.63618162                0.00010000               -0.12130319               -0.59437500               -0.77700957               -2.84375285               -1.31057318               -5.05989048
              24.61974552                7.39256880               84.20975077                0.00010000                0.36735351               -0.38851692               -1.60800957               -3.40188319               -1.70093770               -6.54813689
              25.62571927                6.85083079               83.78444499                0.00010000                0.84764256                0.05591815               -2.56768423               -3.53520052               -1.72664937               -8.15392007
              26.63669838                6.31356416               83.36251550                0.00010000                1.25954969                0.28750582               -3.49348499               -2.98174587               -1.34020410               -9.92458587
              27.65091026                5.78516774               82.94554126                0.00010000                1.48999184                0.57406460               -4.15133747               -1.98879156               -0.60364484              -11.78863533
              28.66649821                5.27011260               82.53159932                0.38132564                1.55879522                0.79608516               -4.23593423               -0.93207112               -0.03087774              -13.23304842
              19.17260916               11.61702369               86.61974121                1.00000000                0.02785767                0.08542190               -0.25039208               -0.01256241               -0.00039414                0.51879448
              20.17288774               11.08740690               86.19315635                0.61511620               -0.01537552               -0.05951384                0.09715370               -0.06327982                0.01269014               -0.27298505
              21.17230165               10.55686066               85.76684308                0.00010000               -0.87984698               -0.20641597                0.41823478               -0.81575413               -0.40274222               -1.15719018
              22.15529080               10.01232386               85.33174816                0.00010000               -1.54665285               -0.08940533                0.06597486               -1.71820297               -1.11483013               -2.19108429
              23.14136859                9.47199308               84.89676347                0.00010000               -1.15753121               -0.00665755               -0.48004371               -1.95335568               -1.65451291               -3.24433566
              24.13214017                8.93274361               84.45969326                0.00010000               -0.62646359                0.15230253               -1.31619608               -2.41810509               -2.37165079               -4.39383714
              25.12883932                8.39349009               84.02037696                0.00010000                0.00144466                0.44588545               -2.41542619               -2.79286981               -2.92433998               -5.65533838
              26.13216907                7.85545649               83.58080169                0.00010000                0.65284203                0.81151418               -3.65073644               -2.77620292               -3.02030937               -6.99460530
              27.14189616                7.32162838               83.14425278                0.00010000                1.24339829                1.14186418               -4.81511357               -2.27223483               -2.48256136               -8.39289561
              28.15703703                6.79530785               82.71403249                0.00010000                1.67866568                1.32149680               -5.63731708               -1.29035755               -1.39032598               -9.74055118
              29.17546948                6.27871170               82.29253753                0.38167499                1.84324431                1.17058501               -5.81225830               -0.52739040               -0.43746208              -10.65360069
              19.70288460               12.61792056               86.48053315                1.00000000                0.02335174                0.09103867               -0.24127453               -0.00818055               -0.00395871                0.51603736
              20.70311812               12.08673178               86.05001227                0.65519541               -0.02004941               -0.06696680                0.10793046               -0.05120920               -0.00822815               -0.25801427
              21.70248361               11.55475656               85.61941296                0.00010000               -1.08387792               -0.20582152                0.44477722               -0.60188450               -0.58592025               -1.03362249
              22.68144056               11.01267531               85.17714239                0.00010000               -1.98994426                0.15120784                0.00525465               -1.31089286               -1.50445672               -1.88579549
              23.66268473               10.47444077               84.73478641                0.00010000               -1.64637417                0.45407710               -0.68108822               -1.52538237               -2.18565777               -2.71120706
              24.64851308                9.93761382               84.28902603                0.00010000               -1.07547403                0.74864792               -1.70319737               -1.89649695               -3.08764642               -3.61620498
              25.64117525                9.40148651               83.83965708                0.00010000               -0.32280791                1.07492571               -3.02377181               -2.15954487               -3.78388359               -4.61375640
              26.64205692                8.86706107               83.38912715                0.00010000                0.51135369                1.42385886               -4.49454076               -2.10890680               -3.92053253               -5.68042945
              27.65140232                8.33640144               82.94176788                0.00010000                1.29814387                1.72362332               -5.87532181               -1.65911617               -3.29665397               -6.75148200
              28.66801980                7.81159768               82.50265244                0.00010000                1.88701909                1.86990624               -6.86036780               -0.89208261               -1.90572530               -7.68663168
              29.68914270                7.29352430               82.07629262                0.38235463                2.11229065                1.76176268               -7.12083894               -0.32208306               -0.73639540               -8.26457660
              20.23482311               13.61884446               86.34132588                1.00000000                0.02044461                0.09116297               -0.24078348               -0.00402145               -0.00326389                0.51207375
              21.23502756               13.08606756               85.90699869                0.69507781               -0.02513398               -0.06189129                0.11544706               -0.03380366               -0.00290289               -0.23470499
              22.23432043               12.55274423               85.47268243                0.00010000               -1.28194133               -0.19346598                0.46001003               -0.27380463               -0.64442258               -0.96293227
              23.20938873               12.01534802               85.02534065                0.00010000               -2.41990011                0.38813497               -0.02251880               -0.71333398               -1.68273946               -1.51868560
              24.18592243               11.48107462               84.57762957                0.00010000               -2.11121230                0.85524441               -0.80084707               -0.98405546               -2.48342939               -2.09998186
              25.16716449               10.94771656               84.12546979                0.00010000               -1.48606296                1.22075020               -1.96023642               -1.36182505               -3.54582046               -2.75039614
              26.15620117               10.41498861               83.66861994                0.00010000               -0.60442438                1.54948810               -3.45416429               -1.58312930               -4.37071794               -3.47915029
              27.15507600                9.88393367               83.21001391                0.00010000                0.39880322                1.87233803               -5.11498230               -1.52337741               -4.55972036               -4.25427136
              28.16417724                9.35610085               82.75491147                0.00010000                1.34982609                2.14324772               -6.67372635               -1.16652017               -3.86725627               -5.00506907
              29.18207252                8.83270597               82.30968050                0.00010000                2.04986616                2.28640613               -7.79108274               -0.60524769               -2.25748365               -5.61256645
              30.20517456                8.31394695               81.88030288                0.38293610                2.31020388                2.24365990               -8.10302285               -0.20419927               -0.92550032               -5.92846518
              20.76835797               14.61974382               86.20207391                1.00000000                0.01843095                0.08724123               -0.24498059                0.00036843                0.00594472                0.49355391
              21.76854228               14.08549396               85.76414617                0.74682416               -0.03154518               -0.05314970                0.12360934               -0.01857438                0.01060609               -0.21759011
              22.76772707               13.55088724               85.32631078                0.00010000               -1.48493961               -0.17628586                0.47629705                0.16539631               -0.55240486               -0.80496915
              23.73884349               13.02043801               84.87692508                0.00010000               -2.85459994                0.67882751               -0.01798316                0.03956105               -1.61211585               -1.10206952
              24.71063507               12.49154565               84.42605496                0.00010000               -2.57404519                1.25122121               -0.84499744               -0.46209410               -2.57939687               -1.42951904
              25.68736259               11.96202883               83.96972558                0.00010000               -1.86697544                1.57719918               -2.09630069               -0.88778335               -3.80804489               -1.83341291
              26.67329556               11.43247627               83.50772864                0.00010000               -0.84427284                1.87651401               -3.71849060               -1.08047670               -4.77008302               -2.29844173
              27.67047713               10.90450783               83.04343788                0.00010000                0.30020252                2.17316254               -5.52718495               -1.02208137               -5.02672840               -2.79128070
              28.67929961               10.37926640               82.58290912                0.00010000                1.37958062                2.42661328               -7.22664884               -0.75893885               -4.29565193               -3.25488287
              29.69806874                9.85732580               82.13361697                0.00010000                2.16385732                2.57264285               -8.44026952               -0.37713895               -2.51897656               -3.58987558
              30.72257676                9.33839750               81.70263022                0.38321076                2.45080162                2.56323668               -8.76637762               -0.10908350               -1.07114631               -3.66530025
              21.30333022               15.62058929               86.06256965                1.00000000                0.01824407                0.08384337               -0.25313960                0.00308950                0.02832730                0.39658808
              22.30351266               15.08500457               85.62129998                0.63843591               -0.03229542               -0.04885223                0.13777172               -0.00709072                0.14524130               -0.20740814
              23.30268431               14.54921851               85.18236076                0.00010000               -1.69955594               -0.16295506                0.47798434                0.75639279               -0.28160363               -0.61027008
              24.26952154               14.02892457               84.73237858                0.00010000               -3.37972888                1.22438430                0.02003405                0.56528580               -1.38529717               -0.59855008
              25.23508973               13.50609904               84.28056425                0.00010000               -3.05216701                1.53625574               -0.81525325               -0.09849968               -2.52330357               -0.71871324
              26.20847820               12.97926055               83.82205803                0.00010000               -2.14885504                1.79201781               -2.11886853               -0.48863394               -3.94110697               -0.90952422
              27.19211263               12.45251889               83.35691367                0.00010000               -1.03169753                2.06715839               -3.83072012               -0.58992477               -5.05684595               -1.13068158
              28.18784425               11.92739692               82.88886368                0.00010000                0.20339328                2.35503609               -5.75460432               -0.54409399               -5.40936795               -1.36374470
              29.19618050               11.40463312               82.42457809                0.00010000                1.37771957                2.60445733               -7.57264637               -0.39233892               -4.67912084               -1.57902803
              30.21539864               10.88415883               81.97250890                0.00010000                2.23344943                2.75274343               -8.86751528               -0.18705682               -2.76722282               -1.71780193
              31.24084948               10.36521169               81.54108274                0.38370297                2.54508451                2.74509635               -9.17205429               -0.02686875               -1.21624944               -1.62855174
              21.83958920               16.62142069               85.92147115                1.00000000                0.01820463                0.08314022               -0.26056670               -0.06447979                0.20083884                0.31152583
              22.83977124               16.08451691               85.47848633                0.76774031               -0.03271355               -0.04876584                0.14565030               -0.06376902                0.40204925               -0.19746360
              23.83893493               15.54762814               85.03951051                0.36371825               -2.32512862               -0.15903738                0.47582274                1.64550098                0.21820000               -0.53564814
              24.79326867               15.04492569               84.59270090                0.36177069               -4.03029172                1.60011276                0.09295990                1.10684489               -1.00842786               -0.23275505
              25.75832909               14.52227077               84.14127394                0.36108721               -3.10493061                1.61717250               -0.71820587               -0.02888935               -2.40569641               -0.31601928
              26.73117006               13.99786918               83.68227153                0.36137984               -2.24841980                1.86086342               -2.03992971               -0.15338014               -4.00568860               -0.39482195
              27.71336070               13.47381944               83.21565187                0.36316644               -1.18445194                2.13005534               -3.81267435               -0.18822463               -5.29844810               -0.46819909
              28.70748102               12.95160856               82.74536142                0.36654488                0.06651114                2.42116404               -5.83212602               -0.15951754               -5.78023747               -0.52889520
              29.71469092               12.43135555               82.27846783                0.37122011                1.31340071                2.67224291               -7.76704731               -0.11035208               -5.10797456               -0.57018826
              30.73374904               11.91238067               81.82395594                0.37813572                2.26213747                2.82218388               -9.18059482               -0.06776625               -3.12257438               -0.57200348
              31.75993367               11.39329943               81.39188942                0.69207737                2.61846336                2.80877435               -9.50998989                0.00029455               -1.49339013               -0.38546490
              16.94126208                6.75829653               88.30704257                1.00000000                0.02454910                0.06978595               -0.25464049                0.05697258               -0.50628574                0.47458826
              17.94150757                6.22878858               87.89841639                1.00000000               -0.03124704               -0.00607231                0.02285959                0.06288038               -0.69072060                0.06692496
              18.94063714                5.69877679               87.48628745                1.00000000               -0.12892191               -0.06423435                0.28251493                0.05376176               -0.74886846               -0.04416194
              19.93892913                5.16747182               87.07642600                0.69716112               -0.21044834               -0.16169175                0.55832696               -0.01527944               -0.66530165               -0.26040656
              20.93642817                4.63386415               86.66567191                0.62000486               -0.23719030               -0.27852584                0.79207096               -0.00080581               -0.38599780               -0.17759048
              21.93418533                4.09774827               86.26080745                0.51476989               -0.16583474               -0.41838927                1.07460709                0.00468856                0.37161656               -0.25073516
              22.93311148                3.55817026               85.86386616                0.38714950                0.26109251               -0.57754630                1.33849939                0.05475116                1.70721839               -0.32585718
              23.93940718                3.01413559               85.48258513                0.29293043                1.47702819               -0.65013893                0.81103188               -0.45053605                2.84680817               -0.75377871
              24.96265204                2.45823003               85.10781263                0.51535193                1.26506045                0.14776577               -0.41615841               -1.44432912                1.42272233                0.19537307
              25.96470839                1.91179177               84.73905760                1.00000000                0.31654579                0.43588033               -1.57142649               -0.32042674                0.93695914               -0.23984208
              26.96898296                1.37208448               84.35114090                1.00000000                0.42745712                0.36196841               -1.30417046               -0.01230648               -0.05841854                0.02768450
              17.47133975                7.75899439               88.16735147                1.00000000                0.05564945                0.05876933               -0.26983164                0.01598109               -0.10504533                0.62998053
              18.47189625                7.22872786               87.75874737                1.00000000                0.02466943               -0.01390123                0.00777428                0.02359429               -0.14299018                0.09574968
              19.47183314                6.69813444               87.34960191                1.00000000               -0.03317944               -0.07260901                0.24816874               -0.01125974               -0.11365471               -0.16098901
              20.47123266                6.16585490               86.94160771                0.97365752               -0.02756258               -0.19757312                0.48588414               -0.03919364                0.05362484               -0.17462034
              21.47128189                5.63107889               86.53561224                0.92183060                0.04232482               -0.30643681                0.68703911               -0.05127830                0.36850725               -0.10989803
              22.47207915                5.09356437               86.13370703                0.84764527                0.20917183               -0.44877350                0.92348836               -0.06314580                0.96850197               -0.15581611
              23.47546533                4.55239480               85.73910796                0.77819978                0.63963897               -0.61293843                1.05458039               -0.02584399                1.84556774               -0.21267848
              24.48487193                4.00763420               85.35466949                0.74371594                1.19576680               -0.69648150                0.67696173               -0.12391659                2.38935385               -0.48861614
              25.49938066                3.45970769               84.97878783                0.97711419                0.98524797                0.00687342               -0.37962966               -0.65152595                1.33808090               -0.03762056
              26.50457689                2.91615057               84.60347527                1.00000000                0.45932596                0.37543883               -1.32772260               -0.18297632                0.75341310               -0.25322965
              27.50856718                2.37570417               84.21917333                1.00000000                0.39902880                0.34307081               -1.16093288               -0.06409253                0.27604943                0.04495405
              18.00211476                8.75947192               88.03101231                1.00000000                0.07246441                0.04665544               -0.28155263               -0.00450065                0.00906709                0.76834640
              19.00283940                8.22851056               87.61966791                1.00000000                0.05850736               -0.01848226                0.00116962               -0.01709842                0.10175381                0.08685782
              20.00328491                7.69732461               87.21039840                0.00010000                0.11807051               -0.06715112                0.24562933               -0.18507795                0.54737413               -0.50113505
              21.00520081                7.16352035               86.80802612                0.00010000                0.22041123               -0.65278155                0.40573190               -0.82422445                0.89718631               -1.35027084
              22.00769313                6.62773541               86.40592957                0.00010000                0.32028425               -0.89262189                0.55475997               -1.31974815                1.03963557               -2.19882617
              23.01160650                6.08877280               86.00678772                0.00010000                0.54158180               -1.09184575                0.69625106               -1.80216033                1.44672280               -3.22153607
              24.01852477                5.54591150               85.61345297                0.00010000                0.90047299               -1.23758207                0.70937028               -2.20901280                1.93709926               -4.42542497
              25.02961596                5.00020596               85.22728881                0.00010000                1.12901927               -1.20532065                0.36974171               -2.32852818                2.02214955               -5.60751277
              26.04110515                4.45836750               84.84917383                0.00010000                0.77182117               -0.77422821               -0.37073773               -2.19349735                0.91098958               -7.04467132
              27.04505238                3.91930055               84.47010559                0.00010000                0.37443845               -0.34362005               -1.08365386               -1.57465920                0.48210855               -8.51538871
              28.04859392                3.37894590               84.08726881                0.37707586                0.35415399                0.37717104               -1.00713696               -1.08435558                0.26485427               -9.27275474
              18.53317245                9.75992750               87.89416632                1.00000000                0.05291343                0.05357781               -0.27352777               -0.02448327                0.09057645                0.69020801
              19.53370159                9.22835821               87.47975207                0.68724211               -0.00253334               -0.01063116                0.01406567               -0.04589764                0.14923824               -0.09322093
              20.53312179                8.69679142               87.06666472                0.00010000               -0.46821125               -0.09554294                0.28219777               -0.70941220               -0.00645800               -0.90926107
              21.52433736                8.15279927               86.64887917                0.00010000               -0.67436520               -0.77896252                0.36505738               -1.95130325               -0.28533709               -2.52391013
              22.51963448                7.61322645               86.23269516                0.00010000               -0.32387502               -1.11155480                0.28329963               -2.57763564               -0.49062911               -4.15546315
              23.51785986                7.07172746               85.81595674                0.00010000                0.01087095               -1.26509525               -0.03836029               -3.42048257               -0.85719377               -6.05310049
              24.51985190                6.52764316               85.39951769                0.00010000                0.39927519               -1.26809667               -0.61590110               -4.05284028               -1.14269218               -8.23540310
              25.52584537                5.98352779               84.98573275                0.00010000                0.82821145               -1.08410213               -1.40849358               -4.19373739               -1.16478751              -10.59749719
              26.53641613                5.44422312               84.57708275                0.00010000                1.33299713               -0.90352016               -2.31911896               -3.75461784               -0.82532743              -13.47458474
              27.55250531                4.90927817               84.17269696                0.00010000                1.55866178               -0.55059818               -3.10931569               -2.41287156               -0.64295459              -16.12295130
              28.56758937                4.38324759               83.76848153                0.37756347                1.50840573                0.44096076               -3.37799408               -1.12024738               -0.09927094              -18.33358388
              19.06476366               10.76054347               87.75619483                1.00000000                0.02938688                0.07329683               -0.25345232               -0.01205783                0.00750329                0.59406091
              20.06505753               10.22829793               87.33700336                0.63114734               -0.00540244               -0.02571977                0.05883909               -0.05738180                0.07054610               -0.24510507
              21.06465561                9.69541375               86.91915093                0.00010000               -0.76589053               -0.16405442                0.31378104               -0.81339295               -0.38941277               -1.13642013
              22.04973972                9.14794110               86.49052888                0.00010000               -1.37216917               -0.31869365                0.32281829               -1.84636140               -1.17295791               -2.37098361
              23.03721223                8.60550431               86.06131676                0.00010000               -1.04797897               -0.46238960                0.03695106               -2.27329302               -1.77893201               -3.79215715
              24.02878014                8.06347089               85.62879773                0.00010000               -0.57722991               -0.43861075               -0.62447382               -2.93899043               -2.59742403               -5.44692164
              25.02566763                7.52054956               85.19323041                0.00010000                0.01905541               -0.26911028               -1.64187008               -3.42964322               -3.23179027               -7.33105274
              26.02916125                6.97852392               84.75725344                0.00010000                0.72973926               -0.03343242               -2.87971200               -3.44553525               -3.31519100               -9.44500133
              27.04026241                6.44029710               84.32501641                0.00010000                1.43046208                0.14013680               -4.14271457               -2.94314133               -2.74382432              -11.74700611
              28.05777049                5.90828858               83.89969667                0.00010000                1.89938658                0.41727442               -5.18287012               -1.90735198               -1.53914047              -13.97439121
              29.07825015                5.38776511               83.48380018                0.37775706                2.04796577                0.71689277               -5.56388585               -0.86821839               -0.47014637              -15.57216907
              19.59742237               11.76139343               87.61729664                1.00000000                0.02613065                0.08749109               -0.23273333               -0.01329864               -0.00273046                0.54037023
              20.59768368               11.22784382               87.19402844                0.65679849               -0.01058050               -0.05198997                0.07686605               -0.05610585               -0.00429314               -0.25286152
              21.59721076               10.69351033               86.77078663                0.00010000               -1.01820552               -0.19213177                0.36650120               -0.73923890               -0.70606266               -1.10593552
              22.57731957               10.14642539               86.33324972                0.00010000               -1.92859632               -0.03001228                0.29500971               -1.61871616               -1.82748017               -2.14941932
              23.55863883                9.60397866               85.89315763                0.00010000               -1.66423800                0.08861554               -0.15224226               -1.89598322               -2.74308716               -3.32354994
              24.54403481                9.06295524               85.44730231                0.00010000               -1.12164134                0.26794436               -1.07938310               -2.39022641               -3.87906182               -4.71389761
              25.53620601                8.52226095               84.99588848                0.00010000               -0.34238393                0.53295262               -2.44156302               -2.76381849               -4.74156996               -6.32374910
              26.53718713                7.98285914               84.54231083                0.00010000                0.57913171                0.83431615               -4.07756899               -2.77424342               -4.91533299               -8.10241990
              27.54778864                7.44702586               84.09212733                0.00010000                1.48515618                1.11656663               -5.72417572               -2.32376367               -4.13715439               -9.95856174
              28.56689025                6.91762366               83.65184080                0.00010000                2.17416485                1.36221707               -7.02186031               -1.37901388               -2.39550755              -11.64614868
              29.59127194                6.39758544               83.22726650                0.37829788                2.43816868                1.38091723               -7.54624694               -0.56590528               -0.90218245              -12.77349601
              20.13159692               12.76229329               87.47818575                1.00000000                0.02215979                0.08964556               -0.22388492               -0.00884783               -0.00556733                0.52462874
              21.13181851               12.22725814               87.05099308                0.69736508               -0.01538289               -0.05733031                0.08772419               -0.04462554               -0.01653857               -0.24083833
              22.13128926               11.69157111               86.62362058                0.00010000               -1.24607234               -0.18715992                0.39164606               -0.51121095               -0.91388614               -0.99694204
              23.10689707               11.14734086               86.17827370                0.00010000               -2.42632724                0.20243498                0.28944026               -1.16635934               -2.29915198               -1.83945306
              24.08276271               10.60727663               85.72950906                0.00010000               -2.21018762                0.53152041               -0.27593283               -1.41094356               -3.40951136               -2.76395370
              25.06269331               10.06882978               85.27303901                0.00010000               -1.61376769                0.84711243               -1.40682984               -1.81898459               -4.78761770               -3.86969736
              26.05048736                9.53120861               84.80909884                0.00010000               -0.68909211                1.18664933               -3.04844889               -2.12117797               -5.83862143               -5.15706852
              27.04891147                8.99521024               84.34182660                0.00010000                0.42676312                1.54818597               -5.00655410               -2.11875785               -6.06881781               -6.57000517
              28.05902262                8.46262843               83.87828688                0.00010000                1.53595779                1.88966290               -6.96697251               -1.72659731               -5.16108841               -7.98891749
              29.07963063                7.93553293               83.42705002                0.00010000                2.39929277                2.13161800               -8.51738059               -0.97342832               -3.03417585               -9.21396973
              30.10700848                7.41538346               82.99658050                0.37856403                2.73778494                2.15224168               -9.18277788               -0.37154913               -1.24706555               -9.95048146
              20.66731573               13.76318634               87.33899016                1.00000000                0.01976188                0.08713188               -0.22299009               -0.00480897               -0.00497337                0.51142732
              21.66751335               13.22669721               86.90805474                0.73466448               -0.02059546               -0.05172955                0.09517623               -0.02881442               -0.01023685               -0.21654735
              22.66690382               12.68976713               86.47703918                0.00010000               -1.46132416               -0.17217415                0.40646387               -0.17801611               -0.98586144               -0.92698526
              23.63828687               12.15047409               86.02639518                0.00010000               -2.89863893                0.43163819                0.30820202               -0.55100479               -2.52260556               -1.47353961
              24.60893104               11.61460907               85.57145340                0.00010000               -2.72818697                0.92272907               -0.32783917               -0.84963204               -3.80378646               -2.13164707
              25.58372313               11.07989749               85.10716894                0.00010000               -2.07645299                1.32009049               -1.60586094               -1.26860153               -5.39388813               -2.93645445
              26.56740198               10.54599394               84.63384753                0.00010000               -1.01654843                1.69454736               -3.45939863               -1.53576157               -6.61546692               -3.88105931
              27.56339216               10.01382286               84.15633037                0.00010000                0.27660161                2.08402998               -5.66872778               -1.52707588               -6.91243043               -4.90811626
              28.57293401                9.48481912               83.68294921                0.00010000                1.56372489                2.44988073               -7.87939032               -1.21264895               -5.91058796               -5.90737899
              29.59466666                8.96025602               83.22400535                0.00010000                2.56029375                2.71632510               -9.63096036               -0.65695103               -3.49236122               -6.70474856
              30.62413989                8.44063028               82.78978061                0.37911086                2.94732339                2.80222183              -10.40432229               -0.23794021               -1.49092016               -7.09489691
              21.20447900               14.76403593               87.19970325                1.00000000                0.01824368                0.08192384               -0.22653434               -0.00064678                0.00337059                0.48605884
              22.20466144               14.22622354               86.76527813                0.78598132               -0.02634725               -0.04359922                0.10213675               -0.01539109                0.00058871               -0.19490351
              23.20395206               13.68812763               86.33080770                0.00010000               -1.68132003               -0.15509481                0.41986202                0.26169823               -0.89626483               -0.77114644
              24.17103504               13.15597362               85.87823053                0.00010000               -3.38026907                0.72426473                0.35970774                0.20221817               -2.46352340               -1.05972623
              25.13634667               12.62573121               85.41975559                0.00010000               -3.25493134                1.31894752               -0.29914337               -0.33716997               -3.95572442               -1.44382343
              26.10593641               12.09523159               84.95038700                0.00010000               -2.52499582                1.68119403               -1.66807310               -0.80132218               -5.76254330               -1.95266923
              27.08584676               11.56509956               84.47053430                0.00010000               -1.31958162                2.04839398               -3.67287533               -1.03238385               -7.16649410               -2.55653634
              28.07954478               11.03689084               83.98567401                0.00010000                0.12448630                2.44447085               -6.07140115               -1.01389976               -7.55423758               -3.20752046
              29.08833648               10.51162604               83.50524371                0.00010000                1.55678358                2.82345480               -8.47402223               -0.78275252               -6.49824623               -3.82006696
              30.11068045                9.98985943               83.04106933                0.00010000                2.65823398                3.10964667              -10.37225677               -0.40604863               -3.85081639               -4.24670109
              31.14150116                9.47142790               82.60494997                0.37943039                3.08207140                3.24086812              -11.19943874               -0.13316440               -1.68835563               -4.29143855
              21.74292757               15.76482482               87.06012447                1.00000000                0.01862624                0.07798723               -0.23389136                0.00210090                0.02983233                0.38513135
              22.74311383               15.22582523               86.62256121                0.67052499               -0.02699288               -0.03971207                0.11325465               -0.00543514                0.12371109               -0.18399763
              23.74238771               14.68666524               86.18687159                0.00010000               -1.91930897               -0.14192061                0.41970415                0.85774178               -0.61544095               -0.58182511
              24.70472765               14.16495939               85.73431051                0.00010000               -3.97290169                1.29485006                0.45545621                0.69545609               -2.20220436               -0.56252416
              25.66292968               13.64098802               85.27496825                0.00010000               -3.81996612                1.60276192               -0.17454516               -0.01592572               -3.90832976               -0.72676775
              26.62832833               13.11352137               84.80294033                0.00010000               -2.89173131                1.89446711               -1.58586790               -0.43532174               -5.96795680               -0.96874512
              27.60509505               12.58696182               84.31899241                0.00010000               -1.58703233                2.24851069               -3.69159069               -0.55742056               -7.58663956               -1.25436274
              28.59658768               12.06271228               83.82909730                0.00010000               -0.03923346                2.65253111               -6.23336874               -0.53545566               -8.11241932               -1.55988906
              29.60431038               11.54128821               83.34356046                0.00010000                1.50780749                3.04322124               -8.79243220               -0.40478937               -7.05994019               -1.84045994
              30.62674383               11.02244895               82.87564646                0.00010000                2.70146427                3.34050936              -10.80829250               -0.20411083               -4.21403798               -2.00575764
              31.65833967               10.50544764               82.43924755                0.37982713                3.15958347                3.47454935              -11.63121248               -0.04583549               -1.89975890               -1.81485429
              22.28252021               16.76559568               86.91895110                1.00000000                0.01921146                0.07708537               -0.24202388               -0.05737344                0.19745378                0.29875723
              23.28271232               16.22542930               86.47981533                0.78268564               -0.02737365               -0.03959254                0.11821517               -0.05547397                0.36390615               -0.17602931
              24.28197273               15.68528922               86.04398876                0.36298336               -2.60454710               -0.13760206                0.41539711                1.78056816               -0.08005638               -0.50709608
              25.23062138               15.18187062               85.59575473                0.36159726               -4.72532782                1.69112337                0.62364059                1.21423421               -1.69541378               -0.26238371
              26.18746618               14.65778645               85.13720958                0.36107797               -3.96826028                1.67984278                0.05856726                0.01616538               -3.74909820               -0.36852784
              27.15125617               14.13312093               84.66456772                0.36111668               -3.09793678                1.95995576               -1.35533614               -0.09304908               -6.08624255               -0.46054032
              28.12550744               13.61006978               84.17850154                0.36264716               -1.83734505                2.31079550               -3.52902344               -0.11773418               -7.97076648               -0.54206321
              29.11450927               13.08994147               83.68530450                0.36550672               -0.25017096                2.72291866               -6.18978950               -0.08680642               -8.69525081               -0.60657029
              30.12050402               12.57249047               83.19584017                0.36944669                1.39647686                3.12022538               -8.89931990               -0.04422854               -7.74340185               -0.64080166
              31.14243881               12.05666961               82.72412978                0.37515854                2.70415325                3.42206595              -11.07127507               -0.00908158               -4.79399015               -0.61141571
              32.17458709               11.54091888               82.28678208                0.69015370                3.21482775                3.54712434              -11.93387771                0.04966878               -2.36404050               -0.26749933
              17.34334216                6.90277824               89.30476091                1.00000000                0.01262789                0.05481978               -0.19101174                0.04362655               -0.51502335                0.46603104
              18.34346844                6.36919698               88.89869405                1.00000000               -0.03512156               -0.00825462                0.03813922                0.04780810               -0.70997103                0.06608676
              19.34263973                5.83514553               88.48898709                1.00000000               -0.11850649               -0.05661931                0.25957842                0.03756459               -0.76593583               -0.05232899
              20.34109831                5.29995845               88.08167880                0.69530328               -0.19112376               -0.13557121                0.48914777               -0.02829317               -0.69823758               -0.27910137
              21.33881726                4.76268163               87.67294014                0.64015933               -0.20537781               -0.21851762                0.66571153               -0.02200503               -0.45022281               -0.17625989
              22.33699075                4.22331460               87.27029980                0.57492553               -0.10706960               -0.31049744                0.83528838               -0.02538915                0.22554372               -0.21739284
              23.33667586                3.68129222               86.87475218                0.50877343                0.18757757               -0.38359585                0.89352221               -0.05502874                1.02797703               -0.29533966
              24.34074231                3.13639818               86.48785505                0.48769229                0.58725144               -0.33987988                0.41988809               -0.33494175                1.40889016               -0.45254311
              25.34842089                2.58838937               86.10500136                0.73912969                0.52719354                0.04351550               -0.23793235               -0.63313729                0.66902511                0.06480537
              26.35128618                2.04428968               85.72470410                1.00000000                0.33858416                0.29626252               -1.22319453               -0.24067273                0.44227761               -0.02757225
              27.35519257                1.50312273               85.33779097                1.00000000                0.39063983                0.36881175               -1.31452448               -0.12467901                0.05360469               -0.12255428
              17.87735969                7.90332644               89.16489499                1.00000000                0.04031876                0.04935090               -0.21083020                0.00964519               -0.12629800                0.61831647
              18.87776288                7.36911443               88.75884619                1.00000000                0.01374758               -0.01324563                0.01745088                0.01519961               -0.18893625                0.09623977
              19.87763464                6.83457934               88.35190679                1.00000000               -0.03577727               -0.06285575                0.21758808               -0.01507766               -0.19011742               -0.15681945
              20.87704733                6.29860274               87.94602635                1.00000000               -0.03577562               -0.15938642                0.40288483               -0.03966634               -0.06506054               -0.19282545
              21.87691913                5.76049645               87.54169210                0.96603989                0.01921177               -0.23392423                0.54132383               -0.04879496                0.18174987               -0.10248876
              22.87743157                5.22020963               87.14150412                0.93258889                0.13323298               -0.32142723                0.66970004               -0.05306048                0.61626686               -0.12247191
              23.87958379                4.67745626               86.74714147                0.92755518                0.32063719               -0.37779852                0.64561232               -0.04996225                1.05248506               -0.15407454
              24.88384431                4.13299938               86.35900327                0.96512605                0.42799904               -0.30315243                0.32467741               -0.11558786                1.17534504               -0.20847219
              25.88814377                3.58882453               85.97587829                1.00000000                0.38342308                0.02479200               -0.26813770               -0.23345497                0.78731934               -0.01281902
              26.89151277                3.04725230               85.59314441                1.00000000                0.34844834                0.24616315               -0.89613349               -0.09394977                0.46039807               -0.09238902
              27.89511274                2.50681085               85.20678109                1.00000000                0.35999636                0.34645921               -1.19830284               -0.08444987                0.21379187               -0.11083741
              18.41195908                8.90376526               89.02840184                1.00000000                0.05604567                0.04720200               -0.23062750               -0.00726449               -0.01913552                0.76842954
              19.41251953                8.36893207               88.61966807                1.00000000                0.04453972               -0.01513373                0.00365140               -0.01703780                0.04532506                0.10058956
              20.41284987                7.83388841               88.21262838                0.00010000                0.09341686               -0.05966492                0.20479472               -0.14624186                0.41128744               -0.46245793
              21.41438787                7.29677072               87.81156940                0.00010000                0.16922966               -0.58421187                0.31500623               -0.81113194                0.65275597               -1.28746379
              22.41623446                6.75800314               87.41063938                0.00010000                0.22909316               -0.77648184                0.41345720               -1.39342877                0.70273667               -2.18076966
              23.41896973                6.21688606               87.01238811                0.00010000                0.33262009               -0.93252704                0.47998850               -1.93273744                0.90741085               -3.36167864
              24.42288687                5.67373625               86.61864670                0.00010000                0.40462723               -1.03406659                0.42711838               -2.28122850                1.06992191               -4.80411281
              25.42706228                5.13033513               86.22987996                0.00010000                0.33060006               -1.02879114                0.20657100               -2.28438596                1.02877302               -6.39176617
              26.42949887                4.58888521               85.84627778                0.00010000                0.21792923               -0.91402647               -0.26143854               -1.84343403                0.71441240               -8.18840833
              27.43142086                4.04921294               85.46261229                0.00010000                0.24438131               -0.77379262               -0.66410718               -1.06213194                0.43640546               -9.80756845
              28.43438649                3.51005191               85.07623863                0.37390367                0.29656303               -0.36119535               -1.05554794               -0.14943659                0.23698386              -10.87583621
              18.94688078                9.90427048               88.89159950                1.00000000                0.04181797                0.05988817               -0.23162772               -0.02206249                0.06176496                0.70967333
              19.94729896                9.36881176               88.47984011                0.71934596               -0.00048182               -0.00942368                0.00668236               -0.03642322                0.10503147               -0.05455873
              20.94687115                8.83338604               88.06921965                0.00010000               -0.52944986               -0.09269242                0.22591456               -0.61706206               -0.10328430               -0.86013083
              21.93670997                8.28691850               87.65296500                0.00010000               -0.89679661               -0.70487647                0.50147034               -1.87475235               -0.54182971               -2.35354085
              22.92893522                7.74496681               87.23611527                0.00010000               -0.68331279               -0.98674223                0.47313427               -2.66348930               -1.07796916               -4.09892220
              23.92304371                7.20155909               86.81588076                0.00010000               -0.42125349               -1.13011437                0.09697226               -3.63257792               -1.81094919               -6.34972995
              24.92051015                6.65677493               86.39316728                0.00010000               -0.00180431               -1.20796463               -0.61067107               -4.26841923               -2.36334851               -9.12967632
              25.92300762                6.11242356               85.97077130                0.00010000                0.59435650               -1.24912215               -1.60064899               -4.28318786               -2.48431984              -12.33550568
              26.93239728                5.57054400               85.55184724                0.00010000                1.30479045               -1.26528770               -2.77234872               -3.53836557               -2.11975750              -15.84350004
              27.94910343                5.03177645               85.13823039                0.00010000                1.90243933               -1.13384318               -3.84363743               -2.05171257               -1.38419359              -18.96370677
              28.97044606                4.49958694               84.73020929                0.37414680                2.13426286               -0.50838295               -4.41235955               -0.49386359               -0.35085475              -21.38986447
              19.48243527               10.90496302               88.75379857                1.00000000                0.02402406                0.07848490               -0.21966013               -0.01143447                0.00406905                0.62276451
              20.48267551               10.36874359               88.33749648                0.67352214               -0.00166904               -0.02259021                0.04109974               -0.04577674                0.03896239               -0.20524585
              21.48240189                9.83203457               87.92202323                0.00010000               -0.86817295               -0.15568737                0.25812661               -0.69912143               -0.49475478               -1.08061771
              22.46531205                9.28267319               87.49478934                0.00010000               -1.70388984               -0.26639258                0.59822441               -1.70530229               -1.49046078               -2.21372225
              23.44832409                8.73826830               87.06318151                0.00010000               -1.54009948               -0.38185189                0.43539043               -2.24351880               -2.56116465               -3.74297747
              24.43451006                8.19428377               86.62369214                0.00010000               -1.08350392               -0.36673546               -0.30279510               -2.99534819               -3.88039074               -5.72864404
              25.42665401                7.64957696               86.17691337                0.00010000               -0.34403054               -0.28141213               -1.57081390               -3.52209152               -4.89576260               -8.16753723
              26.42762945                7.10535269               85.72685075                0.00010000                0.63623244               -0.17943135               -3.21930779               -3.56907782               -5.16311630              -10.98384400
              27.43937866                6.56357946               85.27966121                0.00010000                1.68571111               -0.06786612               -5.01140942               -3.07953874               -4.44338252              -13.96977865
              28.46134367                6.02653608               84.84188386                0.00010000                2.47547932                0.16275311               -6.56287615               -1.94054639               -2.62937928              -16.70079297
              29.48888825                5.49988425               84.42032160                0.37469659                2.75445756                0.54372623               -7.38176010               -0.85876445               -0.96908442              -18.57019901
              20.01909095               11.90584018               88.61508654                1.00000000                0.02209302                0.08783009               -0.20494376               -0.01185594               -0.00504595                0.56329723
              21.01931188               11.36835995               88.19469367                0.70079927               -0.00659173               -0.04274364                0.05714742               -0.04454400               -0.01642032               -0.22702918
              22.01895912               10.83027229               87.77417310                0.00010000               -1.14708464               -0.17346991                0.30801757               -0.61229610               -0.81148447               -1.05150559
              22.99637019               10.28159065               87.33764836                0.00010000               -2.32524294                0.00337982                0.66855611               -1.43427613               -2.20530669               -2.00940857
              23.97245426                9.73732977               86.89371863                0.00010000               -2.22710517                0.12988165                0.38405924               -1.79805847               -3.68026316               -3.28365205
              24.95182809                9.19422438               86.43810560                0.00010000               -1.67274307                0.30347354               -0.64952903               -2.37611035               -5.42838509               -4.96707158
              25.93899940                8.65114669               85.97154570                0.00010000               -0.71022624                0.54045696               -2.36553149               -2.82141165               -6.77532009               -7.04242714
              26.93762356                8.10883493               85.49925031                0.00010000                0.53118551                0.81443739               -4.55731104               -2.90484683               -7.15257759               -9.40952016
              27.94962311                7.56918668               85.02976927                0.00010000                1.81820742                1.11108746               -6.88523666               -2.51124757               -6.16864656              -11.87162482
              28.97398771                7.03503151               84.57359529                0.00010000                2.84756567                1.43088249               -8.88101294               -1.55131129               -3.67735770              -14.07152281
              30.00657442                6.51046146               84.14161259                0.37522281                3.25867110                1.60581529               -9.95267005               -0.64439522               -1.49529644              -15.51906920
              20.55715860               12.90671962               88.47605545                1.00000000                0.01939192                0.08576693               -0.19897055               -0.00791377               -0.00714028                0.53627373
              21.55735251               12.36788872               88.05176675                0.73918280               -0.01166623               -0.04541954                0.06789768               -0.03462699               -0.02216214               -0.21809835
              22.55692527               11.82856517               87.62724588                0.00010000               -1.38917350               -0.16274426                0.33226716               -0.39221429               -1.01388228               -0.95597243
              23.52956904               11.28274079               87.18293119                0.00010000               -2.85980395                0.21648738                0.73645633               -0.97735130               -2.70394797               -1.72405805
              24.49972919               10.74086593               86.72926776                0.00010000               -2.81990505                0.54326864                0.36176037               -1.28844344               -4.45947026               -2.73669432
              25.47317094               10.20035324               86.26088943                0.00010000               -2.20569820                0.87075522               -0.90022877               -1.77076669               -6.53770613               -4.08460863
              26.45561523                9.66038609               85.77868810                0.00010000               -1.08392111                1.23926380               -2.96753826               -2.14903984               -8.14299622               -5.74647841
              27.45149252                9.12164144               85.28899607                0.00010000                0.36709490                1.65444976               -5.59022168               -2.22413691               -8.60591305               -7.62400092
              28.46295713                8.58580121               84.80242843                0.00010000                1.87750690                2.09048793               -8.36387180               -1.89101600               -7.44894589               -9.53241644
              29.48904266                8.05515373               84.33230483                0.00010000                3.10916594                2.47800889              -10.74080475               -1.11972314               -4.46057876              -11.18709511
              30.52514044                7.53200056               83.89263707                0.37531837                3.60977852                2.66090363              -12.06088247               -0.45375654               -1.90410442              -12.21600454
              21.09659449               13.90755551               88.33686608                1.00000000                0.01793124                0.08055323               -0.19925279               -0.00454463               -0.00664719                0.51480376
              22.09677380               13.36745156               87.90890221                0.77406475               -0.01658612               -0.03996536                0.07505286               -0.02205108               -0.01526589               -0.19483927
              23.09626276               12.82701741               87.48081171                0.00010000               -1.61256972               -0.14666370                0.34621948               -0.08035291               -1.07315222               -0.88811164
              24.06452240               12.28592040               87.03150469                0.00010000               -3.35949132                0.42936816                0.81642947               -0.38830852               -2.92361740               -1.38634636
              25.02907294               11.74819515               86.57107279                0.00010000               -3.38149079                0.91442017                0.39678276               -0.73229986               -4.92058558               -2.11874920
              25.99689259               11.21163948               86.09335257                0.00010000               -2.71712647                1.34254052               -1.02500028               -1.20505608               -7.28236729               -3.10878544
              26.97473041               10.67593196               85.59943197                0.00010000               -1.45834396                1.79072900               -3.35326929               -1.53260594               -9.11637518               -4.32923060
              27.96772571               10.14192393               85.09663935                0.00010000                0.17800434                2.29745276               -6.30547863               -1.58725417               -9.67106678               -5.69251472
              28.97829050                9.61099644               84.59732366                0.00010000                1.88340939                2.82263043               -9.42599014               -1.31749964               -8.39606499               -7.04229751
              30.00539390                9.08459169               84.11706129                0.00010000                3.27575670                3.27984660              -12.10659873               -0.75067030               -5.03632630               -8.14230526
              31.04380563                8.56367954               83.67221644                0.37578179                3.84117316                3.55506166              -13.62736738               -0.29581976               -2.20530068               -8.71853887
              21.63727561               14.90833069               88.19754322                1.00000000                0.01739951                0.07442746               -0.20343622               -0.00118291                0.00095766                0.48323352
              22.63744960               14.36708941               87.76618891                0.82143889               -0.02131139               -0.03320697                0.08062566               -0.01164199               -0.00655278               -0.17184063
              23.63684938               13.82563189               87.33470802                0.00010000               -1.84122348               -0.13082304                0.35861099                0.33010830               -0.95756550               -0.73827448
              24.60062513               13.29132815               86.88411923                0.00010000               -3.87426358                0.71147427                0.92786429                0.31904151               -2.82350247               -0.99843902
              25.55936411               12.75915433               86.42007209                0.00010000               -3.96460620                1.29572765                0.51813684               -0.24518623               -5.09104714               -1.44303184
              26.52133301               12.22720405               85.93636412                0.00010000               -3.23427205                1.70327208               -0.99316789               -0.73756710               -7.73616037               -2.07787360
              27.49467867               11.69620067               85.43427113                0.00010000               -1.83250227                2.17662182               -3.50154628               -1.00605510               -9.81461515               -2.85565469
              28.48468296               11.16759049               84.92200986                0.00010000               -0.03696501                2.73223605               -6.69618702               -1.03223767              -10.49575419               -3.71534838
              29.49393937               10.64225382               84.41342867                0.00010000                1.83315947                3.31155146              -10.07791770               -0.83488981               -9.15588430               -4.54074828
              30.52134615               10.12075066               83.92617184                0.00010000                3.35544972                3.81957681              -12.97875640               -0.45575683               -5.50015830               -5.12852910
              31.56104836                9.60310179               83.47864145                0.37631687                3.97022084                4.17014797              -14.62025261               -0.17256138               -2.45989580               -5.20589606
              22.17905338               15.90904406               88.05789182                1.00000000                0.01863725                0.07059436               -0.21114863                0.00104616                0.03059118                0.37801423
              23.17923975               15.36678742               87.62356508                0.69836492               -0.02135947               -0.03006630                0.08785020               -0.00405092                0.10616218               -0.16259017
              24.17862619               14.82440095               87.19075484                0.00010000               -2.09294780               -0.11900085                0.35640641                0.89537398               -0.62971223               -0.55645191
              25.13738080               14.30014988               86.74148770                0.00010000               -4.51664391                1.27307133                1.09907542                0.76116034               -2.46087854               -0.51835437
              26.08829331               13.77410970               86.27707335                0.00010000               -4.61429459                1.56316121                0.76719657                0.03625359               -4.99999477               -0.73985800
              27.04509491               13.24570492               85.79034067                0.00010000               -3.70352224                1.90997712               -0.77279488               -0.39125314               -7.98770330               -1.04110516
              28.01422287               12.71946440               85.28308186                0.00010000               -2.20335463                2.38796217               -3.39545731               -0.53031778              -10.36575740               -1.40446152
              29.00102781               12.19656865               84.76419630                0.00010000               -0.28951698                2.97361309               -6.76862893               -0.53412596              -11.24539630               -1.80340362
              30.00843253               11.67722747               84.24872945                0.00010000                1.72014864                3.58631364              -10.35617875               -0.42635901               -9.92035218               -2.17744079
              31.03543079               11.16098323               83.75634305                0.00010000                3.36098040                4.12175315              -13.42576435               -0.22818997               -5.99620073               -2.39971744
              32.07565214               10.64708250               83.30845849                0.37640910                4.02213514                4.48892968              -15.09609316               -0.07507808               -2.74867174               -2.11841512
              22.72180981               16.90974258               87.91663067                1.00000000                0.02018908                0.06985113               -0.22076863               -0.04980583                0.19515545                0.28983743
              23.72201170               16.36648809               87.48085063                0.79485165               -0.02077057               -0.02993371                0.08866299               -0.04733997                0.33318003               -0.15769720
              24.72139440               15.82325188               87.04781845                0.36249531               -2.79360594               -0.11490676                0.34880035                1.79189551                0.00153805               -0.48247377
              25.66613958               15.31678958               86.60517372                0.36132838               -5.34301322                1.66396967                1.40100194                1.23416260               -1.69466523               -0.32986035
              26.61453414               14.79041756               86.14244528                0.36088067               -4.89931675                1.63078562                1.18983588                0.05478308               -4.73286812               -0.46342283
              27.56815325               14.26540359               85.65516480                0.36135493               -4.06627737                1.96986697               -0.33118802               -0.01704763               -8.14100931               -0.56673852
              28.53320859               13.74395992               85.14507140                0.36251334               -2.59579364                2.44955202               -3.02969239               -0.01847009              -10.91101353               -0.65320628
              29.51623738               13.22706275               84.62156563                0.36434320               -0.61054923                3.04941057               -6.55006956                0.02196496              -12.08412699               -0.71967046
              30.52099760               12.71398009               84.10048143                0.36768688                1.53449728                3.67526257              -10.32878954                0.06265607              -10.91727891               -0.74564789
              31.54692732               12.20318572               83.60253043                0.37240846                3.31753299                4.22024953              -13.60035131                0.09466841               -6.85517126               -0.68210571
              32.58734826               11.69288039               83.15321187                0.68837609                4.04209423                4.57978907              -15.33185255                0.13907898               -3.44742627               -0.14865329
              17.74309534                7.04734898               90.30322234                1.00000000               -0.00133618                0.03708000               -0.11271543                0.02731025               -0.50863589                0.45245528
              18.74308197                6.50980603               89.89917918                1.00000000               -0.03808332               -0.01274011                0.06099495                0.02946498               -0.70478979                0.06538128
              19.74233367                5.97189079               89.49147901                1.00000000               -0.10353245               -0.05340370                0.23966856                0.02112927               -0.75543908               -0.05430738
              20.74101133                5.43319469               89.08620896                0.69322165               -0.17654776               -0.10868989                0.41401186               -0.03930723               -0.70680111               -0.29090180
              21.73880271                4.89283503               88.67898614                0.65796488               -0.20635805               -0.15051518                0.54868791               -0.04650544               -0.50463585               -0.17147872
              22.73688416                4.35099177               88.27751322                0.62785056               -0.13434687               -0.19651423                0.63374652               -0.06041031                0.05906480               -0.17232016
              23.73611578                3.80748489               87.88173660                0.61193483                0.02258190               -0.20661065                0.57723614               -0.12016518                0.54461612               -0.22247406
              24.73733580                3.26278828               87.49098290                0.64693041                0.15338578               -0.13484249                0.25331710               -0.25501010                0.71165496               -0.22808176
              25.73918349                2.71777227               87.10305398                0.91080493                0.17142640                0.04026181               -0.17982506               -0.24118671                0.44347025               -0.03767301
              26.74076433                2.17435970               86.71459371                1.00000000                0.23489093                0.20348977               -0.83711684               -0.09418330                0.25637065                0.02176378
              27.74388131                1.63165315               86.32485041                1.00000000                0.31169809                0.33866038               -1.17851315               -0.10182001                0.10319712               -0.17649372
              18.28091139                8.04771978               90.16313486                1.00000000                0.01943279                0.03935041               -0.13678928                0.00109702               -0.13709568                0.60254492
              19.28110572                7.50967863               89.75909639                1.00000000               -0.00303797               -0.01388002                0.03557049                0.00371792               -0.21365283                0.09653057
              20.28085063                6.97135675               89.35395368                1.00000000               -0.04797922               -0.05641013                0.19426312               -0.01475903               -0.23823293               -0.14950881
              21.28014614                6.43210779               88.94966540                1.00000000               -0.07057581               -0.11811286                0.33619450               -0.03966353               -0.15309689               -0.20559120
              22.27943912                5.89132987               88.54643871                1.00000000               -0.05955045               -0.15690848                0.43338444               -0.04773564                0.03764475               -0.09482913
              23.27895513                5.34902663               88.14710103                1.00000000               -0.02116210               -0.19145934                0.48541940               -0.05239281                0.35139452               -0.08823742
              24.27901587                4.80541879               87.75202021                1.00000000                0.03434425               -0.18407324                0.41286405               -0.06356010                0.61123516               -0.09565459
              25.27964201                4.26143985               87.36116304                1.00000000                0.09850189               -0.10928323                0.17984193               -0.10096763                0.73590188               -0.07484546
              26.28098591                3.71817489               86.97342508                1.00000000                0.16200225                0.04290584               -0.20709356               -0.07838402                0.67530146               -0.02753300
              27.28288206                3.17639460               86.58555260                1.00000000                0.22918732                0.18517506               -0.66857180               -0.00399126                0.42184802               -0.03262508
              28.28556966                2.63503976               86.19520727                1.00000000                0.26876021                0.31739128               -1.05348321               -0.02550347                0.21549980               -0.19703921
              18.81919959                9.04813599               90.02639976                1.00000000                0.03197759                0.05022244               -0.16519297               -0.00999883               -0.03788200                0.76265228
              19.81951936                8.50952843               89.61974094                1.00000000                0.02048710               -0.01199995                0.01398911               -0.01485263                0.00723096                0.11084133
              20.81960933                7.97076259               89.21449430                0.00010000                0.03627864               -0.05813975                0.17139311               -0.08077081                0.30640087               -0.43142502
              21.82024494                7.43083243               88.81432624                0.00010000                0.06599151               -0.47996414                0.25708875               -0.73033576                0.46836748               -1.09623385
              22.82092916                6.88969686               88.41419871                0.00010000                0.07512296               -0.63119982                0.32855400               -1.39748099                0.46816154               -1.99192839
              23.82174739                6.34716259               88.01638749                0.00010000                0.07510989               -0.77989033                0.35474206               -2.01298439                0.57766866               -3.37239700
              24.82243136                5.80380343               87.62199533                0.00010000                0.04064759               -0.93179110                0.29625401               -2.39407330                0.69071428               -5.19346692
              25.82256035                5.26060261               87.23142023                0.00010000                0.01148537               -1.07964830                0.13125520               -2.36680186                0.77608125               -7.34583112
              26.82266106                4.71863039               86.84394506                0.00010000                0.06296462               -1.21025997               -0.20320028               -1.84817115                0.80211065               -9.63604687
              27.82381964                4.17806320               86.45682345                0.00010000                0.17099307               -1.28310642               -0.53670979               -0.85260400                0.57504577              -11.65519116
              28.82608093                3.63800098               86.06615785                0.37132131                0.22612868               -1.18362134               -0.92634044                0.54601829                0.33658615              -13.05147892
              19.35792654               10.04872423               89.88953376                1.00000000                0.02555304                0.06878639               -0.17738305               -0.01607863                0.03930682                0.72256746
              20.35818207                9.50943863               89.47988572                0.75437493                0.00023371               -0.00944884                0.00514266               -0.02187579                0.06911271               -0.02139010
              21.35793122                8.97019396               89.07118302                0.00010000               -0.57884590               -0.09573256                0.16791243               -0.45358989               -0.04482226               -0.81247199
              22.34660515                8.42250851               88.65890857                0.00010000               -1.13859375               -0.59245676                0.74337556               -1.64803997               -0.51590617               -1.94114767
              23.33515934                7.87870588               88.24215784                0.00010000               -1.10081439               -0.83277267                0.81480832               -2.64613512               -1.48215822               -3.72787286
              24.32458887                7.33342883               87.81789618                0.00010000               -0.87324775               -1.02447116                0.38330587               -3.81149218               -2.64565539               -6.41309714
              25.31769439                6.78678297               87.38730427                0.00010000               -0.35549257               -1.24915151               -0.51771148               -4.57097647               -3.54056529               -9.99351367
              26.31747901                6.23984688               86.95371977                0.00010000                0.44337563               -1.51172881               -1.81304007               -4.61112685               -3.86684429              -14.25433882
              27.32656190                5.69396969               86.52163578                0.00010000                1.44901866               -1.78254480               -3.33768888               -3.77069128               -3.45102407              -18.75696289
              28.34645939                5.15073247               86.09582421                0.00010000                2.50262871               -1.95776899               -4.77529175               -2.09497427               -2.19377990              -22.75644249
              29.37661447                4.61136733               85.68023434                0.37142247                3.01550848               -1.65215760               -5.73616078               -0.14091121               -0.63733338              -25.65023197
              19.89744922               11.04951172               89.75180163                1.00000000                0.01629007                0.08391313               -0.17648048               -0.00819415                0.00077292                0.64553429
              20.89761212               10.50933945               89.33782536                0.71853624                0.00092174               -0.02028317                0.02703825               -0.02885716                0.01553301               -0.16453587
              21.89746765                9.96884794               88.92431346                0.00010000               -0.94199512               -0.14681971                0.20110042               -0.51304917               -0.36465572               -1.01501335
              22.87877222                9.41898330               88.50249336                0.00010000               -2.01907585               -0.22065682                1.02922690               -1.43718898               -1.39517842               -1.87929522
              23.85708614                8.87304140               88.07002456                0.00010000               -2.06658775               -0.32432518                1.05541153               -2.14465725               -3.11204106               -3.46683868
              24.83744046                8.32667316               87.62274183                0.00010000               -1.62461846               -0.35061529                0.22702608               -3.05849168               -5.11608670               -5.85584036
              25.82459377                7.77882040               87.16181413                0.00010000               -0.71446899               -0.35726425               -1.37972099               -3.72223085               -6.69925748               -9.00752286
              26.82315108                7.23036803               86.69286728                0.00010000                0.58839422               -0.36617311               -3.57979324               -3.87039549               -7.28658151              -12.73156437
              27.83636165                6.68297949               86.22478822                0.00010000                2.06857155               -0.35717759               -6.06016203               -3.39756892               -6.46177484              -16.65330027
              28.86452251                6.13890782               85.76843914                0.00010000                3.28156647               -0.24801170               -8.33570521               -2.14906420               -3.93830021              -20.22053250
              29.90199298                5.60495783               85.33616498                0.37162326                3.74704677                0.17606299               -9.76253736               -0.95915323               -1.55928804              -22.61167367
              20.43810719               12.05040250               89.61319777                1.00000000                0.01615183                0.08637559               -0.17034891               -0.00783804               -0.00706467                0.58328015
              21.43826871               11.50903297               89.19517139                0.74524908               -0.00404020               -0.03259131                0.04053773               -0.02861039               -0.02346040               -0.19487524
              22.43802639               10.96725757               88.77694698                0.00010000               -1.23004011               -0.15174403                0.24790862               -0.42790411               -0.62840871               -0.98810472
              23.41366791               10.41809537               88.34662084                0.00010000               -2.67250309                0.00100332                1.23351183               -1.15070881               -2.07432973               -1.73441975
              24.38457633                9.87221937               87.90083882                0.00010000               -2.80139366                0.10735881                1.19145127               -1.65749582               -4.34730399               -3.07733210
              25.35764004                9.32641652               87.43431173                0.00010000               -2.25107144                0.26087341                0.03342162               -2.37516563               -6.94939168               -5.11234484
              26.33955490                8.77963768               86.94857785                0.00010000               -1.08640130                0.47861879               -2.13918632               -2.94830324               -9.00285345               -7.78411448
              27.33591201                8.23252342               86.45116461                0.00010000                0.52579167                0.74865725               -5.06529849               -3.14548716               -9.75548327              -10.91903341
              28.35007073                7.68682614               85.95442260                0.00010000                2.27938801                1.07231044               -8.31907182               -2.81889488               -8.62233313              -14.21331811
              29.38149977                7.14577224               85.47422054                0.00010000                3.76303341                1.47085970              -11.28857979               -1.81248217               -5.26323883              -17.18980552
              30.42533140                6.61488859               85.02821310                0.37183388                4.38316295                1.77508486              -13.18297483               -0.77491810               -2.23204274              -19.21914152
              20.98003152               13.05123923               89.47420634                1.00000000                0.01533266                0.07960789               -0.16887660               -0.00499446               -0.00836646                0.54831594
              21.98018484               12.50868763               89.05235103                0.77877983               -0.00921740               -0.03273482                0.05079799               -0.02162430               -0.02437272               -0.18979082
              22.97984717               11.96581306               88.63026593                0.00010000               -1.46943051               -0.13574017                0.27240248               -0.24361756               -0.78663110               -0.90948291
              23.95079623               11.41900336               88.19300283                0.00010000               -3.21160486                0.17318787                1.39986165               -0.73694745               -2.52597422               -1.51396133
              24.91561507               10.87518858               87.73674427                0.00010000               -3.41386946                0.46051878                1.30427124               -1.15088050               -5.19697621               -2.59876206
              25.88251884               10.33189063               87.25503443                0.00010000               -2.80471353                0.79152884               -0.11057292               -1.73596201               -8.24575373               -4.23733061
              26.85952080                9.78839277               86.74974807                0.00010000               -1.47329815                1.20943102               -2.72235834               -2.21583267              -10.64904965               -6.37572129
              27.85305288                9.24534118               86.23002216                0.00010000                0.36070701                1.72176761               -6.21724659               -2.38999764              -11.52686091               -8.86583902
              28.86673494                8.70442570               85.71100944                0.00010000                2.35787696                2.30733940              -10.09026136               -2.12480598              -10.18947205              -11.45234200
              29.90021042                8.16832502               85.21223393                0.00010000                4.07634859                2.88853346              -13.63764543               -1.32092965               -6.21985653              -13.76323544
              30.94826191                7.64045952               84.75536285                0.37210192                4.80514927                3.26832653              -15.96766627               -0.56693975               -2.72313265              -15.32380346
              21.52311051               14.05199465               89.33500510                1.00000000                0.01518859                0.07178120               -0.17140349               -0.00287521               -0.00800731                0.52049470
              22.52326240               13.50837827               88.90955579                0.80927523               -0.01361064               -0.02818789                0.05746330               -0.01355765               -0.01817917               -0.16993373
              23.52283830               12.96454276               88.48396357                0.00010000               -1.68544812               -0.11970258                0.28675067                0.01020547               -0.79975535               -0.84720998
              24.48955344               12.42155913               88.04272377                0.00010000               -3.70834275                0.35092310                1.55833126               -0.23541641               -2.67654968               -1.24462606
              25.44867145               11.88142975               87.57938905                0.00010000               -3.99184192                0.78407165                1.44966196               -0.63231280               -5.67880554               -2.04945032
              26.40971660               11.34224710               87.08666894                0.00010000               -3.34418746                1.23976936               -0.14065278               -1.15540667               -9.09931419               -3.26259493
              27.38178770               10.80382630               86.56678215                0.00010000               -1.88187351                1.79719015               -3.07389232               -1.54502047              -11.80353578               -4.83238620
              28.37207913               10.26695877               86.03022079                0.00010000                0.14015387                2.48428737               -6.99786103               -1.67170514              -12.81099485               -6.63991835
              29.38459078                9.73297293               85.49442941                0.00010000                2.34841129                3.24897949              -11.34802795               -1.45469968              -11.33939998               -8.48265171
              30.41904736                9.20354291               84.98187337                0.00010000                4.25664076                3.98410361              -15.34758910               -0.87318571               -6.91844380              -10.05624729
              31.46972359                8.68025512               84.51723327                0.37262096                5.06762348                4.53042006              -18.03003278               -0.37367240               -3.08535192              -11.00830145
              22.06720678               15.05267486               89.19563452                1.00000000                0.01588032                0.06514984               -0.17703940               -0.00098029               -0.00083746                0.48364229
              23.06736558               14.50812387               88.76689065                0.85238056               -0.01681791               -0.02332869                0.06126999               -0.00720989               -0.01094311               -0.14872853
              24.06687042               13.96341901               88.33797992                0.00010000               -1.90823323               -0.10584970                0.29679720                0.34652454               -0.62355635               -0.70491183
              25.02920092               13.42602182               87.89678781                0.00010000               -4.22947870                0.59893443                1.74413664                0.35445714               -2.46817782               -0.91846269
              25.98228085               12.89087001               87.43011833                0.00010000               -4.60933789                1.11939569                1.68467400               -0.19652176               -5.81448617               -1.43115766
              26.93701416               12.35668602               86.93052364                0.00010000               -3.91860665                1.58257426                0.00668266               -0.68421421               -9.59937882               -2.21838704
              27.90390871               11.82433658               86.40050337                0.00010000               -2.32710041                2.21230105               -3.14217607               -0.97612616              -12.62698193               -3.21307284
              28.89047215               11.29502693               85.85175027                0.00010000               -0.14259484                3.00648321               -7.37582626               -1.04891240              -13.81117577               -4.34676376
              29.90105682               10.76940529               85.30368536                0.00010000                2.24961807                3.88568577              -12.07885997               -0.89270118              -12.27364691               -5.47399043
              30.93546451               10.24800709               84.78149420                0.00010000                4.31536092                4.72765523              -16.40407585               -0.51469716               -7.49126996               -6.33069303
              31.98736404                9.73106793               84.31254492                0.37291849                5.18995223                5.41268958              -19.31398636               -0.22332785               -3.39974675               -6.55406859
              22.61219288               16.05329765               89.05590150                1.00000000                0.01811706                0.06199330               -0.18599796                0.00023534                0.03102699                0.37435308
              23.61237405               15.50791170               88.62431821                0.71748245               -0.01610229               -0.02098124                0.06416764               -0.00246596                0.09345558               -0.14370435
              24.61187084               14.96242577               88.19399972                0.00010000               -2.15912397               -0.09532387                0.29368337                0.82180558               -0.20205128               -0.53458542
              25.56919157               14.43353782               87.75629202                0.00010000               -4.88970106                1.09397846                2.00972544                0.71461088               -1.91862235               -0.46992120
              26.51407682               13.90381766               87.29031218                0.00010000               -5.33129126                1.34520534                2.09060611                0.04488220               -5.60737447               -0.76914656
              27.46256575               13.37389858               86.78748443                0.00010000               -4.50762745                1.77259353                0.40163010               -0.34748167               -9.85544916               -1.13902506
              28.42392427               12.84807232               86.25108326                0.00010000               -2.82667910                2.43449957               -2.87719845               -0.49162547              -13.29512700               -1.59561626
              29.40603217               12.32708844               85.69372472                0.00010000               -0.50838389                3.28912422               -7.33279850               -0.52205643              -14.76014058               -2.11493623
              30.41375659               11.81068664               85.13643688                0.00010000                2.05293059                4.23341269              -12.30471454               -0.44278061              -13.26070276               -2.62233882
              31.44709078               11.29809601               84.60713118                0.00010000                4.26893855                5.13228211              -16.86868205               -0.25186498               -8.13582291               -2.95010057
              32.49913536               10.78850891               84.13732569                0.37339893                5.20445816                5.86855615              -19.86352315               -0.11312701               -3.77596480               -2.61276543
              23.15798339               17.05391472               88.91453573                1.00000000                0.02047521                0.06170719               -0.19741852               -0.04199681                0.19330409                0.28433670
              24.15818815               16.50770424               88.48158859                0.80263302               -0.01514906               -0.02074522                0.06042635               -0.03870058                0.30963223               -0.14315868
              25.15768041               15.96151253               88.05096477                0.36213242               -2.80434531               -0.09132399                0.28418195                1.59081493                0.60915664               -0.46572396
              26.10210124               15.44790139               87.62377477                0.36113730               -5.74313436                1.43635771                2.49276697                1.10404598               -0.71398326               -0.45664733
              27.04281773               14.91777412               87.16100629                0.36099510               -5.81456857                1.39564549                2.76728458                0.08591571               -5.14282251               -0.62446359
              27.98580987               14.39213789               86.65794396                0.36120270               -5.09656890                1.82393085                1.12468856                0.08703438              -10.01623933               -0.73500915
              28.94088635               13.87302657               86.11790769                0.36185375               -3.41965832                2.49542476               -2.23938585                0.12978401              -14.01954806               -0.82136132
              29.91741670               13.36080941               85.55430311                0.36384698               -0.98463570                3.37209726               -6.87566951                0.19080224              -15.90184261               -0.88777396
              30.92119363               12.85407355               84.98926438                0.36620852                1.75941211                4.33869031              -12.08677710                0.23587032              -14.63477943               -0.90604971
              31.95260494               12.35065273               84.45212275                0.37019230                4.15410290                5.25567208              -16.90747376                0.26969158               -9.33302467               -0.80892913
              33.00427569               11.84843905               83.98014503                0.68673019                5.16707472                5.99301361              -19.99362274                0.29266474               -4.76060606               -0.05577255
              18.14125577                7.19200230               91.30250660                1.00000000               -0.01397943                0.01976160               -0.03330068                0.01068316               -0.48775589                0.43425221
              19.14111597                6.65067018               90.89991395                1.00000000               -0.03772964               -0.01868933                0.08516990                0.01089158               -0.67545016                0.06482009
              20.14050117                6.10911006               90.49378046                1.00000000               -0.08304040               -0.05361791                0.21965406                0.00784692               -0.72139651               -0.05173059
              21.13945516                5.56722752               90.08995904                0.69210682               -0.15404482               -0.08538902                0.33704823               -0.03363851               -0.68702665               -0.28164469
              22.13742028                5.02434690               89.68391390                0.67525012               -0.20167870               -0.09596095                0.44138543               -0.04513499               -0.51124559               -0.14815633
              23.13542159                4.48069258               89.28297473                0.67183455               -0.16608846               -0.11219728                0.47130398               -0.05793155               -0.03830192               -0.13435234
              24.13409851                3.93627552               88.88629690                0.69107203               -0.08817809               -0.09910890                0.37731790               -0.09601841                0.30277109               -0.14198498
              25.13365803                3.39147626               88.49292139                0.76209939               -0.02095114               -0.04111273                0.15163635               -0.11914579                0.44962140               -0.12134244
              26.13367948                2.84689371               88.10140486                1.00000000                0.04795673                0.04890746               -0.16344717               -0.07537856                0.33464087               -0.06592280
              27.13461716                2.30280718               87.70796176                1.00000000                0.15318191                0.15628866               -0.55820929               -0.04569201                0.17744633               -0.00310589
              28.13674312                1.75887912               87.31422071                1.00000000                0.21259606                0.26835014               -0.91928516               -0.05578060                0.08087046               -0.15404057
              18.68269472                8.19219992               91.16215920                1.00000000               -0.00237104                0.03085517               -0.06026935               -0.00849708               -0.13597050                0.58269542
              19.68267101                7.65048329               90.75955760                1.00000000               -0.01968733               -0.01553082                0.05661056               -0.00861945               -0.21449317                0.09607861
              20.68230097                7.10857388               90.35579205                1.00000000               -0.05853260               -0.05397414                0.17443871               -0.01091212               -0.24544961               -0.14045678
              21.68150036                6.56637363               89.95275024                1.00000000               -0.10322871               -0.08123231                0.28071452               -0.02954728               -0.18026026               -0.20144249
              22.68023640                6.02338729               89.55035979                1.00000000               -0.13111963               -0.09507295                0.35784970               -0.03434291               -0.02371347               -0.08246026
              23.67887796                5.47957060               89.15121251                1.00000000               -0.12449577               -0.10248074                0.37101525               -0.03989807                0.24693787               -0.06514626
              24.67774648                4.93528443               88.75539875                1.00000000               -0.08602438               -0.08463376                0.29736214               -0.04677841                0.48643730               -0.05586805
              25.67715748                4.39106513               88.36260011                1.00000000               -0.02431214               -0.03072442                0.11876319               -0.04627497                0.64834060               -0.04097884
              26.67726024                3.84738279               87.97173642                1.00000000                0.05050312                0.05299351               -0.15861398               -0.01183408                0.60036426               -0.04992016
              27.67816754                3.30437007               87.57977297                1.00000000                0.14265689                0.15151632               -0.50600536                0.01358328                0.37182937               -0.02935416
              28.68011338                2.76156262               87.18571143                1.00000000                0.19458390                0.25580751               -0.83605323                0.00456997                0.20299768               -0.20150657
              19.22451908                9.19261940               91.02509798                1.00000000                0.00505345                0.05600218               -0.09605768               -0.01256973               -0.04529396                0.74955962
              20.22456962                8.65035956               90.61994785                1.00000000               -0.00632489               -0.00918757                0.02803387               -0.01139341               -0.00859300                0.11603099
              21.22439259                8.10803058               90.21605625                0.00010000               -0.02594076               -0.06282218                0.14313834               -0.00529051                0.25671228               -0.41209366
              22.22405080                7.56560287               89.81671117                0.00010000               -0.04280720               -0.32226028                0.22152784               -0.58342360                0.38778886               -0.73829011
              23.22353644                7.02244544               89.41721046                0.00010000               -0.06621586               -0.44018944                0.27960302               -1.34459335                0.36858225               -1.58608960
              24.22272649                6.47864296               89.01948295                0.00010000               -0.09340157               -0.63138981                0.28922880               -2.08781906                0.47819751               -3.20203915
              25.22166841                5.93458285               88.62457178                0.00010000               -0.10461550               -0.90992888                0.23585857               -2.58262113                0.64399136               -5.52993102
              26.22063418                5.39086177               88.23250506                0.00010000               -0.07652708               -1.25876997                0.09225834               -2.62237550                0.79915994               -8.37600408
              27.22013787                4.84795358               87.84221377                0.00010000                0.00374082               -1.64105997               -0.15819944               -2.05060733                0.84730432              -11.41384158
              28.22070899                4.30583751               87.45187810                0.00010000                0.11557717               -1.96690799               -0.45498758               -0.77482895                0.61144189              -14.10003453
              29.22244941                3.76399527               87.05771182                0.36850003                0.17404201               -2.24937271               -0.75967841                1.25406430                0.37244064              -15.94276858
              19.76696300               10.19331996               90.88805184                1.00000000                0.00689621                0.07951514               -0.11920153               -0.00783337                0.02449759                0.72566608
              20.76703197                9.65029953               90.47994296                0.79240521               -0.00055772               -0.00961768                0.00809418               -0.00489013                0.04321582                0.00431095
              21.76695185                9.10731744               90.07257790                0.00010000               -0.58074758               -0.10301216                0.11491951               -0.21614638                0.22736953               -0.76909681
              22.75541702                8.55992842               89.66783251                0.00010000               -1.33237050               -0.41139256                1.10773523               -1.25436790               -0.09738607               -1.20144581
              23.74030444                8.01458350               89.25241143                0.00010000               -1.52164191               -0.60974486                1.32727604               -2.53436271               -1.63668461               -2.92277681
              24.72498418                7.46694281               88.82354687                0.00010000               -1.32145952               -0.89457705                0.83383869               -3.99126876               -3.36288410               -6.10707563
              25.71387525                6.91708586               88.38281305                0.00010000               -0.68224725               -1.32149678               -0.31259788               -5.00890380               -4.74621107              -10.68900992
              26.71133923                6.36588973               87.93451050                0.00010000                0.36985540               -1.87926036               -1.99804937               -5.21173563               -5.39858343              -16.29605629
              27.72127236                5.81456159               87.48509346                0.00010000                1.76450193               -2.51134730               -4.01007694               -4.32121962               -4.98242614              -22.26991784
              28.74662927                5.26503191               87.04272455                0.00010000                3.38033889               -3.10542016               -5.98255857               -2.37472548               -3.23337087              -27.68159369
              29.78887914                4.71657517               86.61548607                0.36869949                4.22498650               -3.21616227               -7.42863114                0.14439576               -1.04158621              -31.59651620
              20.31040327               11.19420971               90.75026896                1.00000000                0.00710727                0.08905545               -0.12980345               -0.00227918               -0.00171746                0.65859173
              21.31047434               10.65016721               90.33803725                0.76379807                0.00187510               -0.01813801                0.01810251               -0.00889409                0.00089530               -0.12488714
              22.31044077               10.10597033               89.92604524                0.00010000               -0.93884817               -0.13798532                0.14937160               -0.24012720                0.08870265               -0.94146922
              23.29169738                9.55737502               89.51537388                0.00010000               -2.23029831               -0.17678162                1.65182234               -1.00725204               -0.71694052               -1.29003907
              24.26583480                9.01025055               89.08428974                0.00010000               -2.56493089               -0.27600368                1.94403723               -1.95553735               -3.31534736               -2.85237952
              25.24039876                8.46075142               88.62823266                0.00010000               -2.16456963               -0.36289645                1.01457389               -3.09902957               -6.23555435               -5.70579081
              26.22254341                7.90815291               88.14931895                0.00010000               -1.07375124               -0.47777008               -1.01479346               -3.96303302               -8.60614276               -9.73471805
              27.21892373                7.35327656               87.65525488                0.00010000                0.60139469               -0.62951764               -3.91236830               -4.25481762               -9.69050329              -14.63034560
              28.23457130                6.79772664               87.15845797                0.00010000                2.61385846               -0.79312479               -7.29308440               -3.83496503               -8.85118407              -19.87141145
              29.27120090                6.24372910               86.67516976                0.00010000                4.38397520               -0.87956441              -10.56141449               -2.48757248               -5.53551492              -24.75325637
              30.32225081                5.69967202               86.22507085                0.36879482                5.10499048               -0.48471989              -12.85924273               -1.15224227               -2.28744569              -28.17975308
              20.85500242               12.19510107               90.61167957                1.00000000                0.00910432                0.08344510               -0.13272158               -0.00149889               -0.00832858                0.59725274
              21.85509346               11.64993677               90.19550443                0.78729950               -0.00304612               -0.02293551                0.02869573               -0.01061028               -0.02544216               -0.15859210
              22.85494149               11.10455773               89.77913128                0.00010000               -1.20508492               -0.13057039                0.19262356               -0.17219478               -0.04945766               -0.91994883
              23.83099176               10.55639279               89.36231859                0.00010000               -2.85620998               -0.05081929                2.03690553               -0.73102274               -1.21941192               -1.26527941
              24.79781729               10.00906343               88.91754765                0.00010000               -3.29452704                0.00449546                2.33209125               -1.43923268               -4.57867261               -2.62226581
              25.76510122                9.45968488               88.43877403                0.00010000               -2.78639234                0.12489998                1.03519568               -2.33398362               -8.31065907               -5.06448496
              26.74208945                8.90753045               87.92876197                0.00010000               -1.42160312                0.32572319               -1.69959194               -3.06412035              -11.32583527               -8.47932885
              27.73666916                8.35329938               87.39794434                0.00010000                0.60155363                0.59959534               -5.55374824               -3.40305828              -12.66464098              -12.61095943
              28.75412052                7.79869909               86.86338783                0.00010000                2.91316377                0.95104592              -10.01707439               -3.17370736              -11.48896596              -17.05718467
              29.79493243                7.24744062               86.34782369                0.00010000                4.99139643                1.42535406              -14.32760356               -2.13635513               -7.17241296              -21.22196077
              30.85394845                6.70688077               85.87795310                0.36922489                5.90160153                1.84161499              -17.44375527               -0.94752768               -3.12358122              -24.30428800
              21.40070188               13.19587861               90.47267792                1.00000000                0.01035954                0.07180793               -0.13613348               -0.00048397               -0.00901300                0.55830400
              22.40080547               12.64970850               90.05278271                0.81640486               -0.00805108               -0.02117499                0.03782053               -0.00806979               -0.02377514               -0.15787210
              23.40054086               12.10335892               89.63269393                0.00010000               -1.41171267               -0.10992580                0.21624141               -0.05958357               -0.11084657               -0.85776944
              24.37257122               11.55635864               89.21092843                0.00010000               -3.33913979                0.04250486                2.33176186               -0.42221503               -1.51743467               -1.17226118
              25.33375806               11.01034046               88.75535318                0.00010000               -3.86595790                0.23843256                2.61940626               -0.96874253               -5.42061281               -2.30085738
              26.29525206               10.46324942               88.25867797                0.00010000               -3.30557792                0.56067474                1.03262229               -1.66305441               -9.73620090               -4.28163151
              27.26764650                9.91466738               87.72424094                0.00010000               -1.77790645                1.04992404               -2.24735419               -2.24812810              -13.20876015               -7.01566310
              28.25969393                9.36526847               87.16465113                0.00010000                0.46547085                1.70490355               -6.84293446               -2.53652156              -14.72900747              -10.30428520
              29.27695592                8.81674755               86.60062321                0.00010000                3.02990949                2.49841972              -12.15596802               -2.36514456              -13.33634120              -13.82859984
              30.32029212                8.27223618               86.05955192                0.00010000                5.37320172                3.33829271              -17.31878444               -1.54772474               -8.30644278              -17.13331830
              31.38441995                7.73650432               85.57328374                0.36972677                6.41278311                3.97253330              -21.16780265               -0.70166792               -3.70471978              -19.62611962
              21.94733296               14.19653723               90.33343801                1.00000000                0.01187915                0.06142655               -0.14139217               -0.00015893               -0.00845375                0.52651189
              22.94745175               13.64951327               89.91005148                0.83833855               -0.01166355               -0.01780387                0.04371103               -0.00490729               -0.01780863               -0.14347341
              23.94709968               13.10235921               89.48654672                0.00010000               -1.59429092               -0.09307098                0.23221311                0.08349222               -0.03558749               -0.80506137
              24.91556593               12.55724289               89.06267131                0.00010000               -3.77740134                0.15160058                2.58619888               -0.09875906               -1.51319426               -1.03324083
              25.87155166               12.01383208               88.60006603                0.00010000               -4.40263590                0.46337978                2.89782129               -0.53820101               -5.85129763               -1.90619817
              26.82751321               11.47089837               88.09053952                0.00010000               -3.82219115                0.93856964                1.11585150               -1.07974123              -10.63686503               -3.38500535
              27.79510783               10.92852894               87.53795412                0.00010000               -2.18273309                1.64853638               -2.55895372               -1.51175136              -14.49206437               -5.39036996
              28.78385855               10.38739745               86.95668213                0.00010000                0.23710404                2.59414077               -7.70723572               -1.71389611              -16.19270257               -7.77673128
              29.79984992                9.84866748               86.37036310                0.00010000                3.01813094                3.70094932              -13.66635874               -1.57122017              -14.66653964              -10.30354352
              30.84422117                9.31420647               85.81010951                0.00010000                5.57644469                4.83214066              -19.48873187               -0.99834915               -9.12037634              -12.60210226
              31.91137881                8.78633143               85.31161578                0.36987300                6.71576418                5.77118383              -23.92180348               -0.46090199               -4.12589999              -14.23199319
              22.49474661               15.19710714               90.19400243                1.00000000                0.01387363                0.05463478               -0.14893597               -0.00009535               -0.00157992                0.48562479
              23.49488534               14.64935242               89.76741431                0.87401925               -0.01327593               -0.01489393                0.04547745               -0.00253718               -0.01282509               -0.12702316
              24.49448109               14.10149750               89.34064396                0.00010000               -1.78810859               -0.08174133                0.23986775                0.27749524                0.24292559               -0.67393692
              25.45912317               13.55939065               88.91900196                0.00010000               -4.25712663                0.32608075                2.85826867                0.26202550               -1.11145471               -0.82245671
              26.40933855               13.01960805               88.45376557                0.00010000               -5.00813933                0.70033597                3.26368988               -0.19840422               -5.87877869               -1.41516207
              27.35896038               12.48202081               87.93649777                0.00010000               -4.42130780                1.23028652                1.39559690               -0.61341576              -11.11923156               -2.38470766
              28.32091240               11.94763810               87.37142761                0.00010000               -2.68414608                2.08094108               -2.53738905               -0.89486617              -15.39180308               -3.64531755
              29.30527746               11.41715129               86.77449333                0.00010000               -0.10949514                3.21598167               -8.07757451               -1.01293659              -17.33603693               -5.13341003
              30.31872250               10.89076654               86.17185148                0.00010000                2.86918642                4.52670942              -14.50668614               -0.91550933              -15.75853068               -6.68164740
              31.36266119               10.36887900               85.59809032                0.00010000                5.61147473                5.85730981              -20.79858805               -0.56170932               -9.79626235               -7.96455892
              32.43095199                9.85192800               85.09236172                0.36998595                6.82907997                7.04478249              -25.61874152               -0.27684896               -4.49870340               -8.51797612
              23.04284048               16.19762992               90.05417186                1.00000000                0.01701533                0.05268554               -0.15960576               -0.00027468                0.03150610                0.37266978
              24.04301064               15.64921540               89.62484843                0.73046052               -0.01145608               -0.01341296                0.04380381               -0.00077879                0.08537039               -0.12798414
              25.04261136               15.10072439               89.19662851                0.00010000               -2.01573727               -0.07451007                0.23494784                0.57296876                0.81395622               -0.51421055
              26.00269589               14.56376450               88.78168221                0.00010000               -4.88289779                0.66502410                3.23574166                0.49048196               -0.26910118               -0.42598613
              26.94495341               14.02783880               88.31888547                0.00010000               -5.77405249                0.84660036                3.85681914               -0.00452304               -5.46002894               -0.83155779
              27.88721484               13.49550410               87.79837327                0.00010000               -5.14366841                1.38817705                1.99904103               -0.28621801              -11.31873985               -1.27890390
              28.84208004               12.97014776               87.22553789                0.00010000               -3.33717307                2.31228649               -2.08199384               -0.41204694              -16.14625433               -1.84465091
              29.82047138               12.45171708               86.61754033                0.00010000               -0.61340101                3.54996068               -7.89568584               -0.46898543              -18.47838017               -2.51691211
              30.82981202               11.93920167               86.00263516                0.00010000                2.56770700                4.97187834              -14.67112915               -0.43022703              -16.97815183               -3.21114949
              31.87182552               11.43135267               85.41896941                0.00010000                5.49659025                6.40724968              -21.29359369               -0.26248012              -10.59996447               -3.71619867
              32.93974382               10.92722708               84.91118802                0.37045911                6.79183025                7.70991284              -26.28457907               -0.15557810               -4.96961545               -3.39044808
              23.59157017               17.19816085               89.91268230                1.00000000                0.02051360                0.05309271               -0.17279050               -0.03470061                0.19180707                0.28097991
              24.59177530               16.64908416               89.48205916                0.80761148               -0.00894058               -0.01312336                0.03579729               -0.03121088                0.29467198               -0.13219584
              25.59139135               16.10000730               89.05350209                0.36137368               -2.49784538               -0.07170831                0.22471848                1.05834755                1.91343673               -0.45050957
              26.54181839               15.57269113               88.65502905                0.36108259               -5.69414313                0.89266264                3.95515193                0.73888797                1.60774773               -0.67543906
              27.47750849               15.03654006               88.19779097                0.36099555               -6.54456638                0.87012570                4.86001149                0.11016975               -4.68345734               -0.88360987
              28.41092707               14.50978435               87.67765857                0.36112372               -6.05250062                1.42802501                3.08044583                0.23841123              -11.45128363               -0.99371671
              29.35645848               13.99388383               87.10028368                0.36160635               -4.20416148                2.37360764               -1.09792537                0.35615131              -17.06682429               -1.07181549
              30.32684384               13.48815050               86.48405224                0.36278598               -1.29880540                3.64334152               -7.13103264                0.45325927              -19.97101572               -1.13601791
              31.33048237               12.99020411               85.85874589                0.36483217                2.12711698                5.10024335              -14.20028488                0.51070979              -18.79448359               -1.14997545
              32.36938618               12.49702399               85.26438096                0.36793795                5.28046127                6.56713221              -21.14256392                0.55217311              -12.19634367               -1.02528198
              33.43609160               12.00612626               84.75333941                0.68501195                6.67054198                7.88991729              -26.26532263                0.54500396               -6.29284379               -0.02852994
              18.53852552                7.33672882               92.30255633                1.00000000               -0.02264110                0.00534932                0.03578993               -0.00440274               -0.45643117                0.41332935
              19.53829911                6.79181512               91.90088258                1.00000000               -0.03324389               -0.02488305                0.10498499               -0.00640240               -0.62903518                0.06297609
              20.53786065                6.24683298               91.49587209                1.00000000               -0.05808828               -0.05611536                0.19888886               -0.00295128               -0.66994710               -0.04605704
              21.53713735                5.70197939               91.09294992                0.69446902               -0.11492703               -0.06525871                0.26134501               -0.00905901               -0.64192841               -0.25797711
              22.53556211                5.15698011               90.68781385                0.69185004               -0.17011126               -0.05960070                0.34465952               -0.01346333               -0.48490734               -0.11956922
              23.53373512                4.61182918               90.28693930                0.70533720               -0.16687808               -0.06136847                0.34075668               -0.01495026               -0.07965490               -0.08991868
              24.53222454                4.06644150               89.88928296                0.74483708               -0.12574239               -0.04149550                0.24665337               -0.02801275                0.20124234               -0.08490398
              25.53122028                3.52100398               89.49401562                0.82891501               -0.06943041                0.00326238                0.07867446               -0.02745274                0.34585997               -0.07932586
              26.53083594                2.97579069               89.09978504                1.00000000                0.01385672                0.05768833               -0.16153234               -0.01800118                0.27555765               -0.06765829
              27.53149741                2.43067516               88.70342952                1.00000000                0.10724477                0.12160227               -0.39816799               -0.02536654                0.11644118               -0.02084612
              28.53298083                1.88559090               88.30646470                1.00000000                0.14834224                0.19276093               -0.65172867               -0.03123790                0.03036270               -0.13340198
              19.08339519                8.33678231               92.16192948                1.00000000               -0.02121844                0.02528650                0.00777623               -0.01817995               -0.12530736                0.55974340
              20.08318301                7.79156629               91.76022860                1.00000000               -0.03230953               -0.01757182                0.07541591               -0.02101785               -0.19584867                0.09343537
              21.08274900                7.24627183               91.35744245                1.00000000               -0.06049073               -0.05490556                0.15496517               -0.00599414               -0.22172918               -0.13290374
              22.08197319                6.70132680               90.95527969                1.00000000               -0.11232109               -0.04975140                0.22460291               -0.00892870               -0.15944510               -0.18475552
              23.08050258                6.15638411               90.55359571                1.00000000               -0.15591326               -0.05283449                0.28742007               -0.00721923               -0.01299957               -0.06990702
              24.07885493                5.61121549               90.15452133                1.00000000               -0.15727808               -0.05208692                0.28765906               -0.00713310                0.23150396               -0.04566249
              25.07735702                5.06602655               89.75796745                1.00000000               -0.12918873               -0.03254959                0.21568852               -0.00571824                0.44523612               -0.03631017
              26.07627115                4.52103660               89.36353830                1.00000000               -0.07683409                0.00840809                0.06884050                0.00111553                0.58077310               -0.03700002
              27.07582034                3.97636757               88.97025280                1.00000000                0.00362433                0.06029150               -0.14748927                0.01263768                0.53167718               -0.06056629
              28.07634364                3.43189118               88.57543249                1.00000000                0.09661869                0.12178891               -0.38627061                0.01019766                0.32097270               -0.03776286
              29.07775271                2.88751851               88.17848621                1.00000000                0.14090701                0.18900310               -0.61899057                0.00680593                0.16701288               -0.17866897
              19.62859396                9.33723455               92.02447861                1.00000000               -0.02047232                0.06421320               -0.03284457               -0.01513302               -0.04333128                0.72920019
              20.62838924                8.79146369               91.62030161                1.00000000               -0.03068537               -0.00654178                0.04166171               -0.00811755               -0.00534215                0.11555085
              21.62798025                8.24573487               91.21735706                0.00010000               -0.07713708               -0.07243979                0.11799456                0.06803682                0.25312453               -0.40578707
              22.62684650                7.70098436               90.81875680                0.00010000               -0.12256115               -0.07549591                0.18544361               -0.34803705                0.38433109               -0.14832529
              23.62552903                7.15592342               90.41979077                0.00010000               -0.14482369               -0.16065232                0.23089022               -1.19941095                0.36987174               -0.87162270
              24.62395002                6.61078744               90.02217207                0.00010000               -0.16199796               -0.43389473                0.23808390               -2.10291384                0.49071663               -2.76125444
              25.62228907                6.06579051               89.62671251                0.00010000               -0.15242326               -0.88854735                0.18436468               -2.75828906                0.66248371               -5.71431741
              26.62090156                5.52117214               89.23326540                0.00010000               -0.10274794               -1.49303337                0.05683451               -2.89191015                0.79501486               -9.46220228
              27.62023411                4.97699652               88.84078107                0.00010000               -0.01755652               -2.20202185               -0.13810883               -2.25911076                0.80776180              -13.54827029
              28.62055043                4.43311094               88.44772369                0.00010000                0.08140886               -2.90411209               -0.37660771               -0.62849199                0.57671476              -17.24000906
              29.62186229                3.88937096               88.05096428                0.36582867                0.13118631               -3.77202667               -0.59293982                2.25135273                0.35423852              -19.80026625
              20.17463425               10.33806657               91.88714973                1.00000000               -0.01139202                0.09106419               -0.06473882                0.00110521                0.01653397                0.71798106
              21.17452033                9.79143546               91.48004761                0.83432274               -0.00225950               -0.00917213                0.01348249                0.01104866                0.02626288                0.02242097
              22.17458906                9.24482303               91.07348141                0.00010000               -0.48482165               -0.11348485                0.07099017                0.11531236                0.77385797               -0.73138196
              23.16482390                8.69981689               90.68106328                0.00010000               -1.39388899               -0.11439669                1.61350348               -0.61547841                0.83069654                0.00040494
              24.14671128                8.15317106               90.26870336                0.00010000               -1.89471663               -0.25329172                2.03387224               -2.24439534               -1.47399557               -1.49491195
              25.12692957                7.60253760               89.83457296                0.00010000               -1.74523729               -0.67286260                1.47982019               -4.05826594               -3.92599484               -5.23837073
              26.11180654                7.04825560               89.38105231                0.00010000               -0.98513142               -1.38066964                0.05775522               -5.41010229               -5.95539687              -11.05070331
              27.10722694                6.49117594               88.91375879                0.00010000                0.34463947               -2.34224276               -2.09276482               -5.83140089               -7.09124032              -18.40958818
              28.11869933                5.93232714               88.44143424                0.00010000                2.20862100               -3.48698136               -4.74105690               -4.90890054               -6.82251715              -26.45806648
              29.15139936                5.37380894               87.97617304                0.00010000                4.57801918               -4.71836905               -7.46833653               -2.68001267               -4.61173333              -33.98028102
              30.21025971                4.81207798               87.53166172                0.36628822                5.88603515               -5.52376117               -9.61878707                0.55588329               -1.61270149              -39.76561828
              20.72187830               11.33905583               91.74920556                1.00000000               -0.00245482                0.09360081               -0.08503315                0.00527354               -0.00293105                0.66071660
              21.72185375               10.79128024               91.33818741                0.80966045                0.00133865               -0.01598978                0.01427026                0.00985845               -0.00555766               -0.08843053
              22.72190507               10.24346517               90.92730089                0.00010000               -0.78324257               -0.13065701                0.10646838                0.15250966                0.96384139               -0.86276657
              23.70618890                9.69869643               90.53552981                0.00010000               -2.19923319               -0.12908247                2.49967743               -0.32840950                0.74996158               -0.34153264
              24.67792041                9.15085759               90.10890531                0.00010000               -2.92443676               -0.22302207                3.14340844               -1.57650437               -2.99945382               -1.75047290
              25.64770017                8.59733019               89.64303331                0.00010000               -2.62358596               -0.39280451                2.11221738               -2.96987516               -7.07773008               -5.11933995
              26.62544869                8.03817712               89.14151826                0.00010000               -1.37490825               -0.65632400               -0.40560162               -4.04707760              -10.46745202              -10.22282152
              27.62020200                7.47432729               88.61461992                0.00010000                0.69872043               -1.01339754               -4.14214313               -4.50769131              -12.27423227              -16.63388457
              28.63942310                6.90725689               88.07892653                0.00010000                3.34986665               -1.44049646               -8.67169644               -4.19354985              -11.59114879              -23.69388619
              29.68719933                6.33874355               87.55721085                0.00010000                5.85093897               -1.84290406              -13.29277841               -2.81371343               -7.45354359              -30.54859873
              30.75644188                5.77889574               87.07898013                0.36649219                6.92425445               -1.57440187              -16.86953855               -1.36771863               -3.17670513              -35.82540158
              21.27029090               12.33993859               91.61054333                1.00000000                0.00172608                0.07955187               -0.09558621                0.00587604               -0.00843019                0.60384643
              22.27030816               11.79111566               91.19574530                0.82760721               -0.00339127               -0.01485561                0.02180722                0.00554406               -0.02295608               -0.12146437
              23.27022307               11.24220989               90.78079945                0.00010000               -0.97224319               -0.11114766                0.14488224                0.18495101                1.05072369               -0.84953066
              24.25086329               10.69723524               90.38735895                0.00010000               -2.68378180               -0.17455056                3.11757589               -0.09499424                0.62816163               -0.52662961
              25.21654743               10.14871062               89.94748064                0.00010000               -3.53253782               -0.21022666                3.85194027               -1.05104330               -4.13114328               -1.81399116
              26.18021254                9.59468151               89.45501564                0.00010000               -3.13397737               -0.14188351                2.40894301               -2.11872987               -9.26191281               -4.71774969
              27.15386789                9.03512912               88.91458602                0.00010000               -1.61096016                0.03551225               -0.98003743               -2.99248895              -13.49483849               -9.04400336
              28.14799333                8.47090798               88.34008965                0.00010000                0.82720860                0.30951979               -5.95285536               -3.48617251              -15.67353103              -14.45615814
              29.17041206                7.90351721               87.75408111                0.00010000                3.77464548                0.68107685              -11.94954529               -3.41364478              -14.64797676              -20.47528014
              30.22348624                7.33695086               87.18766847                0.00010000                6.60944536                1.23146383              -18.07438263               -2.43527863               -9.36725243              -26.40444575
              31.30260097                6.78058994               86.67933799                0.36701954                7.91147234                1.76893537              -22.99654116               -1.12299196               -4.16008632              -31.28301449
              21.81964168               13.34064687               91.47148367                1.00000000                0.00516513                0.06308952               -0.10326094                0.00480638               -0.00876294                0.56465776
              22.81969333               12.79098313               91.05310744                0.84912515               -0.00785799               -0.01192282                0.02926748                0.00423551               -0.02080876               -0.12518704
              23.81948452               12.24124222               90.63459075                0.00010000               -1.09525204               -0.08591957                0.16742382                0.17529663                1.15545556               -0.80284598
              24.79778829               11.69520542               90.23963806                0.00010000               -3.00156250               -0.22072310                3.56939366                0.01588948                0.63041296               -0.65488837
              25.75945327               11.14665306               89.78913239                0.00010000               -3.94406104               -0.19086111                4.34801753               -0.67415213               -4.83929906               -1.78424506
              26.71890707               10.59449252               89.27568688                0.00010000               -3.50404166                0.10228415                2.57400090               -1.44435144              -10.69562165               -4.15994391
              27.68937244               10.03888736               88.70480099                0.00010000               -1.84083039                0.68515543               -1.48580306               -2.10194650              -15.49682631               -7.62424112
              28.68209046                9.48051768               88.09316348                0.00010000                0.78674469                1.53369829               -7.40763088               -2.50930827              -17.92531208              -11.93566128
              29.70510733                8.92087843               87.46789008                0.00010000                3.96652843                2.60782902              -14.54163116               -2.48621527              -16.69692978              -16.73337564
              30.76142103                8.36337283               86.86585824                0.00010000                7.07982720                3.80058007              -21.88444072               -1.73515381              -10.63783408              -21.50312917
              31.84670387                7.81427445               86.33200680                0.36718177                8.52828444                4.79736705              -27.97555206               -0.83023415               -4.81532403              -25.53691961
              22.36971450               14.34120038               91.33217726                1.00000000                0.00830177                0.05033142               -0.11102778                0.00316991               -0.00773692                0.53108408
              23.36979751               13.79087721               90.91043001                0.86025765               -0.01038892               -0.00983378                0.03383780                0.00326692               -0.01498098               -0.11743397
              24.36950672               13.24049150               90.48860783                0.00010000               -1.20136334               -0.06918710                0.18334245                0.13001613                1.37009453               -0.76157297
              25.34577025               12.69282077               90.09444774                0.00010000               -3.28647136               -0.23218129                3.93232133                0.02319111                0.89884843               -0.73807814
              26.30377729               12.14489340               89.63734548                0.00010000               -4.33395219               -0.14528641                4.77209863               -0.41686919               -5.11605965               -1.67181938
              27.25909120               11.59672719               89.10898597                0.00010000               -3.89867484                0.33327976                2.77684932               -0.90003764              -11.53787354               -3.46035516
              28.22580379               11.04883223               88.51560307                0.00010000               -2.16375528                1.24795491               -1.76404507               -1.32202951              -16.80309289               -5.99589557
              29.21581610               10.50158195               87.87607608                0.00010000                0.60144048                2.54914231               -8.38540733               -1.59606760              -19.47375563               -9.11945721
              30.23783260                9.95567379               87.22110224                0.00010000                3.97855263                4.13109297              -16.37448127               -1.57188042              -18.13772600              -12.57329893
              31.29538715                9.41296246               86.59209874                0.00010000                7.31802239                5.82415912              -24.64905461               -1.07642576              -11.53251916              -15.94105949
              32.38419305                8.87653728               86.03879720                0.36746032                8.88059009                7.34308575              -31.65384260               -0.53535277               -5.28111153              -18.69460269
              22.92035143               15.34165350               91.19265580                1.00000000                0.01161187                0.04353959               -0.12065055                0.00106480               -0.00081309                0.48744791
              23.92046755               14.79078646               90.76780020                0.88641872               -0.01050778               -0.00850236                0.03353725                0.00161419               -0.01145084               -0.10805500
              24.92014127               14.23985848               90.34277727                0.00010000               -1.33086657               -0.06040354                0.19017873                0.07923974                1.79736503               -0.64521670
              25.89385022               13.69056179               89.95395319                0.00010000               -3.64659034               -0.19148850                4.29468783               -0.01644036                1.59239120               -0.72046382
              26.84720947               13.14374733               89.49539212                0.00010000               -4.84413652               -0.08661477                5.27403835               -0.24978945               -4.93925926               -1.40931973
              27.79696749               12.60115811               88.95843558                0.00010000               -4.45661892                0.52162536                3.19264306               -0.47267711              -11.90723743               -2.59103791
              28.75807709               12.06384646               88.34975559                0.00010000               -2.68199692                1.67455016               -1.65518493               -0.68146310              -17.69383038               -4.16750146
              29.74332755               11.53150053               87.69019878                0.00010000                0.21060624                3.28046722               -8.76374715               -0.83974847              -20.69137258               -6.10166054
              30.76228921               11.00350029               87.01355164                0.00010000                3.78507374                5.19477257              -17.36413870               -0.83563207              -19.34110276               -8.21987876
              31.81902902               10.47985601               86.36552244                0.00010000                7.32789808                7.22594705              -26.29297417               -0.56063274              -12.28954495              -10.14247336
              32.90884718                9.96113616               85.80017009                0.36764248                8.98181523                9.15924868              -33.90621391               -0.31634647               -5.70331494              -11.29769101
              23.47146987               16.34207117               91.05270938                1.00000000                0.01549422                0.04299723               -0.13315410               -0.00068200                0.03221239                0.37161430
              24.47162482               15.79070716               90.62519429                0.73394172               -0.00768476               -0.00737960                0.02738525                0.00032553                0.08153731               -0.11614267
              25.47131618               15.23928343               90.19869868                0.00010000               -1.50361122               -0.05516494                0.18300088                0.05609126                2.58109927               -0.49736302
              26.44155259               14.68899100               89.82100685                0.00010000               -4.15654991               -0.14314304                4.79430823               -0.00026193                2.85176171               -0.40208644
              27.38818518               14.14316110               89.36744856                0.00010000               -5.60070301               -0.07282083                6.07477417               -0.12608565               -4.18940675               -0.95296096
              28.32953853               13.60715970               88.82746525                0.00010000               -5.31765308                0.62674180                4.02745989               -0.17569361              -11.96692919               -1.48243996
              29.28183212               13.08232323               88.20944338                0.00010000               -3.50856167                1.91261076               -0.98806638               -0.24446469              -18.48233479               -2.16985748
              30.25936730               12.56719129               87.53581101                0.00010000               -0.45338210                3.67823608               -8.42761465               -0.32736781              -22.00091724               -3.03051982
              31.27276448               12.05956924               86.84301430                0.00010000                3.35856633                5.76761423              -17.46377775               -0.35119358              -20.78685776               -3.97791507
              32.32653862               11.55748140               86.18125930                0.00010000                7.12706745                7.97339889              -26.83603946               -0.23957324              -13.25377966               -4.75753003
              33.41530583               11.05972225               85.61163411                0.36762774                8.87672010               10.12147516              -34.73946930               -0.19317807               -6.27116303               -4.55233977
              24.02306582               17.34251344               90.91107992                1.00000000                0.01959816                0.04422687               -0.14752770               -0.02786314                0.19014228                0.27868465
              25.02326180               16.79063886               90.48230453                0.80870122               -0.00432827               -0.00682935                0.01550305               -0.02421456                0.28551016               -0.12483563
              26.02297925               16.23875518               90.05545914                0.36161921               -1.66472465               -0.05282505                0.17118577                0.01931084                4.10493355               -0.43847115
              26.98996731               15.68769893               89.70287781                0.36081783               -4.82300977               -0.12920731                5.80938983                0.01825820                5.69784332               -1.02934103
              27.92651906               15.14229091               89.25820652                0.36100341               -6.78379110               -0.08701898                7.47792508                0.13308876               -2.96444439               -1.28330696
              28.85429149               14.61369295               88.71955288                0.36079116               -6.66814291                0.65332500                5.54160668                0.46568358              -12.03029670               -1.37859538
              29.79315620               14.10209867               88.09594918                0.36148943               -4.73786517                1.97754440                0.41258204                0.70102313              -19.61492230               -1.43553084
              30.75953418               13.60506525               87.41168246                0.36195324               -1.40904817                3.78739546               -7.28895081                0.85438347              -23.88987170               -1.49498333
              31.76497524               13.11885257               86.70525868                0.36319424                2.72751808                5.92833350              -16.67732566                0.93401314              -23.10707932               -1.51153397
              32.81408454               12.63932399               86.02927147                0.36564695                6.77633340                8.18425915              -26.43853928                0.99024646              -15.30809151               -1.37198520
              33.90050190               12.16356567               85.45483857                0.68389725                8.64173610               10.38434111              -34.52496499                0.94377534               -7.98363826               -0.11768104
              18.93547464                7.48152259               93.30322240                1.00000000               -0.02551413               -0.00500844                0.08863360               -0.01692617               -0.42106558                0.39152168
              19.93521950                6.93323765               92.90201365                1.00000000               -0.02198762               -0.03046936                0.11663251               -0.02156282               -0.57497682                0.06020452
              20.93503489                6.38504821               92.49775823                0.97666963               -0.02723285               -0.06173706                0.18026588               -0.01341988               -0.61987280               -0.04421217
              21.93467484                5.83740843               92.09518594                0.70162671               -0.06510677               -0.05367892                0.19741193                0.01551496               -0.59025963               -0.22545777
              22.93373275                5.29039180               91.69080709                0.70889521               -0.11577310               -0.03795717                0.26017737                0.01628623               -0.44180498               -0.10032758
              23.93235938                4.74373013               91.28978987                0.72978224               -0.13428623               -0.03055477                0.24085406                0.01852504               -0.09707037               -0.06853303
              24.93104703                4.19720846               90.89122997                0.77177469               -0.11431148               -0.00797767                0.15621767                0.01443356                0.14780933               -0.05890472
              25.93007315                3.65084438               90.49449488                0.84807911               -0.06351452                0.02309688                0.02405959                0.01127140                0.27440434               -0.06169832
              26.92977674                3.10460501               90.09817421                1.00000000                0.00965836                0.05704074               -0.14616315               -0.00071735                0.21132067               -0.05375022
              27.93026632                2.55838432               89.69999840                1.00000000                0.07516393                0.09363138               -0.29351876               -0.01312087                0.07194037               -0.02091574
              28.93128002                2.01216807               89.30118613                1.00000000                0.10136986                0.13215975               -0.43960889               -0.01500781                0.00068001               -0.12489115
              19.48359032                8.48147250               93.16231473                1.00000000               -0.03492563                0.02302813                0.06120589               -0.02736459               -0.10899679                0.53498191
              20.48324106                7.93293295               92.76106592                1.00000000               -0.03875095               -0.01930359                0.08858973               -0.03384220               -0.16669811                0.08893685
              21.48281530                7.38443084               92.35889136                1.00000000               -0.05414322               -0.05861646                0.13515175               -0.00481529               -0.18417192               -0.12993903
              22.48215820                6.83687164               91.95724230                1.00000000               -0.10402664               -0.02778247                0.17239317                0.01051312               -0.11856927               -0.16055937
              23.48073476                6.29001223               91.55610819                1.00000000               -0.15109483               -0.02432328                0.21702740                0.01693967                0.01876317               -0.06377778
              24.47913630                5.74342458               91.15696569                1.00000000               -0.15502644               -0.01819406                0.20511342                0.01880817                0.22640540               -0.03955677
              25.47763424                5.19712868               90.75971252                1.00000000               -0.13243561                0.00015893                0.13903174                0.02142482                0.40604861               -0.03034713
              26.47648759                4.65107535               90.36397692                1.00000000               -0.08173207                0.02764279                0.02161329                0.02197469                0.51296254               -0.03785272
              27.47599959                4.10517542               89.96878664                1.00000000               -0.00670023                0.06008624               -0.13946166                0.01516790                0.46287068               -0.05543040
              28.47635358                3.55932064               89.57204756                1.00000000                0.06733000                0.09562258               -0.29609662                0.00540027                0.27239916               -0.03558659
              29.47734619                3.01348966               89.17333162                1.00000000                0.09926120                0.13231849               -0.43485779                0.00555249                0.13746375               -0.15886636
              20.03200644                9.48198315               93.02444109                1.00000000               -0.04221227                0.07400625                0.01843287               -0.01777610               -0.03562329                0.70294026
              21.03158432                8.93285158               92.62078109                1.00000000               -0.05032741               -0.00353980                0.05229261               -0.00613896                0.00976337                0.10995334
              22.03099989                8.38387588               92.21841614                0.00010000               -0.11403033               -0.08424346                0.09437625                0.12996218                0.27821017               -0.40951628
              23.02930371                7.83685278               91.82042005                0.00010000               -0.17406452                0.31459337                0.14478647                0.03401234                0.41941113                0.74988324
              24.02751860                7.28990533               91.42182827                0.00010000               -0.18423138                0.27792515                0.17393747               -0.84532240                0.40296868                0.26487481
              25.02561909                6.74336625               91.02424463                0.00010000               -0.18469259               -0.10552137                0.17349073               -1.88573301                0.51232868               -1.92199132
              26.02382475                6.19721164               90.62825908                0.00010000               -0.15765902               -0.79313254                0.12328731               -2.70108802                0.65649735               -5.64258012
              27.02246591                5.65139724               90.23364175                0.00010000               -0.09949705               -1.73659496                0.01813318               -2.93799933                0.75387233              -10.54660319
              28.02183481                5.10580674               89.83945160                0.00010000               -0.02029127               -2.89603109               -0.13158856               -2.23461488                0.73524501              -16.04708978
              29.02206008                4.56029677               89.44434594                0.00010000                0.06091000               -4.16907549               -0.30339359               -0.15893811                0.51172636              -21.21101937
              30.02305301                4.01481444               89.04585302                0.36381817                0.09929313               -6.01213555               -0.43896808                3.86684392                0.31236844              -24.95119953
              20.58149794               10.48295263               92.88675707                1.00000000               -0.02723877                0.10236438               -0.01908276                0.00967838                0.01319838                0.70056712
              21.58122555                9.93286216               92.48021261                0.87962141               -0.00423019               -0.00753380                0.01927186                0.02384379                0.01559741                0.03377368
              22.58141334                9.38274597               92.07399770                0.00010000               -0.22082823               -0.12394630                0.03759233                0.58383256                1.65846368               -0.69859868
              23.57680899                8.84316351               91.70010258                0.00010000               -1.20492436                0.36979577                2.27356685                0.43066191                2.40930920                1.82650838
              24.55731485                8.29557073               91.29308888                0.00010000               -2.13468273                0.32792374                2.94505843               -1.55128649               -0.86620505                0.77681722
              25.53411533                7.74131416               90.85314328                0.00010000               -2.08666825               -0.27221543                2.34299358               -3.68462903               -4.18567868               -3.57555777
              26.51558148                7.18126603               90.38396815                0.00010000               -1.24914163               -1.35244308                0.63643972               -5.35938462               -7.00782385              -10.89064530
              27.50913250                6.61634345               89.89265521                0.00010000                0.34131394               -2.85646129               -2.03621294               -6.02231587               -8.82756777              -20.49600752
              28.52240776                6.04725480               89.39027232                0.00010000                2.75173114               -4.73023493               -5.47394880               -5.10408741               -8.93471355              -31.35208358
              29.56416712                5.47593913               88.89335782                0.00010000                6.16199936               -6.95175368               -9.23160541               -2.69957473               -6.35858866              -41.93412514
              30.64564775                4.89324695               88.42311033                0.36407128                8.14806267               -8.96633594              -12.44616820                1.33703979               -2.37995572              -50.83834139
              21.13238095               11.48403044               92.74856830                1.00000000               -0.01130917                0.09736295               -0.04609264                0.01364307               -0.00278810                0.65282395
              22.13226786               10.93270090               92.33832265                0.85433039               -0.00028759               -0.01373539                0.01414212                0.02595898               -0.00595817               -0.05690316
              23.13237520               10.38139695               91.92817460                0.00010000               -0.35878331               -0.12343580                0.07274262                0.72383895                2.37047317               -0.78294886
              24.12509219                9.84424870               91.56536743                0.00010000               -1.70164837               -0.07057817                3.58842650                0.75658351                3.25934051                1.08619430
              25.09834223                9.29646381               91.14715791                0.00010000               -2.94304937               -0.15071026                4.66104344               -0.80519339               -1.90220821               -0.00071652
              26.06623120                8.73792194               90.67047701                0.00010000               -2.83672337               -0.43189200                3.53583622               -2.38293856               -7.32301652               -3.93783810
              27.04160776                8.17016278               90.14120692                0.00010000               -1.51001904               -0.89491856                0.49903529               -3.60583688              -11.92313712              -10.34259410
              28.03603082                7.59426801               89.57241202                0.00010000                0.92748150               -1.53553978               -4.18166414               -4.21948961              -14.71884836              -18.67429234
              29.06015739                7.01120204               88.98502404                0.00010000                4.30228057               -2.35124324              -10.11656370               -4.09159566              -14.49047303              -28.16570356
              30.12207643                6.42126170               88.40931419                0.00010000                7.75103824               -3.26174058              -16.54949603               -2.87754736               -9.63326387              -37.86560964
              31.21517816                5.83548772               87.88768008                0.36444185                9.31017231               -3.25265710              -22.02120881               -1.48940238               -4.21432536              -46.19827315
              21.68442987               12.48489989               92.60976784                1.00000000               -0.00516573                0.07537016               -0.06184739                0.01366263               -0.00730859                0.60317373
              22.68437822               11.93258745               92.19594057                0.86401690               -0.00437777               -0.00904269                0.01883050                0.01958614               -0.01783625               -0.08677302
              23.68434232               11.38027725               91.78202892                0.00010000               -0.37522073               -0.09516624                0.10561796                0.69543237                2.80998307               -0.77906088
              24.67687380               10.84175195               91.42467011                0.00010000               -1.84022906               -0.40383107                4.48389958                0.89124627                3.79297775                0.56106347
              25.64753774               10.29255652               90.99458646                0.00010000               -3.20581051               -0.58365432                5.74103583               -0.32472973               -2.65282301               -0.54690507
              26.61275759                9.73267632               90.48695289                0.00010000               -3.02095328               -0.59208614                4.14883851               -1.48745169               -9.35980423               -3.96631672
              27.58711867                9.16336766               89.90916122                0.00010000               -1.45270737               -0.44986400                0.05369933               -2.42090194              -14.99698727               -9.38893331
              28.58370344                8.58563266               89.27888723                0.00010000                1.32317456               -0.18496018               -6.18144525               -3.05349752              -18.29626644              -16.40714125
              29.61358216                8.00022994               88.62439692                0.00010000                4.93135271                0.19284357              -14.04072933               -3.23815882              -17.75221141              -24.51021379
              30.68233050                7.41070432               87.98633604                0.00010000                8.69127531                0.82408143              -22.57010482               -2.53469148              -11.68693686              -32.96461165
              31.78740767                6.82819381               87.41802227                0.36445128               10.50771705                1.54095054              -30.14117787               -1.21914008               -5.27662389              -40.72274128
              22.23727907               13.48553784               92.47061270                1.00000000                0.00031428                0.05434449               -0.07250546                0.01036209               -0.00733954                0.56673309
              23.23728221               12.93252005               92.05336806                0.87516420               -0.00798612               -0.00578046                0.02441672                0.01495612               -0.01581835               -0.09467854
              24.23711935               12.37949363               91.63604241                0.00010000               -0.33221858               -0.06680091                0.12717717                0.48967772                3.16444660               -0.74728168
              25.23063784               11.83617208               91.28231630                0.00010000               -1.80980422               -0.67928718                5.10947478                0.66142712                4.28050804                0.07951455
              26.20092326               11.28479072               90.84231353                0.00010000               -3.24834055               -0.92102811                6.45789318               -0.14686766               -3.04641521               -0.99467606
              27.16567103               10.72608022               90.31015799                0.00010000               -3.03449427               -0.68668733                4.48104014               -0.89423355              -10.59849442               -3.81614994
              28.14023338               10.16116550               89.69452488                0.00010000               -1.37862167                0.01443792               -0.42721541               -1.53371079              -16.89286990               -8.15110371
              29.13809860                9.59056881               89.01649852                0.00010000                1.50445896                1.11701709               -7.84605519               -2.04628790              -20.50973667              -13.73418757
              30.17032256                9.01505891               88.30979058                0.00010000                5.26600648                2.56550081              -17.18117645               -2.26674533              -19.81343035              -20.20688030
              31.24341873                8.43774333               87.62186311                0.00010000                9.27469028                4.25083822              -27.39044657               -1.76034287              -12.98339881              -27.05310901
              32.35581636                7.86630673               87.01377270                0.36488590               11.23976362                5.80411366              -36.73403243               -0.89606054               -5.95538573              -33.48709027
              22.79067270               14.48598678               92.33121745                1.00000000                0.00488491                0.03930667               -0.08211988                0.00663071               -0.00575614                0.53302637
              23.79072155               13.93247184               91.91072824                0.87421490               -0.00944293               -0.00465009                0.02731070                0.01035477               -0.01017321               -0.09392480
              24.79048384               13.37894123               91.49021357                0.00010000               -0.29581508               -0.04956524                0.14182870                0.14252045                3.57448997               -0.71921869
              25.78480525               12.82816620               91.14131774                0.00010000               -1.78958012               -0.88749052                5.57952500                0.14565160                4.94028830               -0.35262347
              26.75469224               12.27413596               90.69550800                0.00010000               -3.31535529               -1.17360752                7.01752830               -0.20379615               -3.03493690               -1.33792453
              27.71849815               11.71894257               90.14607650                0.00010000               -3.13681898               -0.71797251                4.78435129               -0.48492044              -11.22483026               -3.47531483
              28.69195586               11.16365642               89.50267322                0.00010000               -1.48069364                0.46411331               -0.70109712               -0.79651788              -18.04715966               -6.63254609
              29.68888427               10.60797300               88.78897399                0.00010000                1.45584378                2.24071690               -8.98281418               -1.12805505              -21.97192645              -10.66220281
              30.72107274               10.05153995               88.04287348                0.00010000                5.34957765                4.46989959              -19.41490795               -1.29988503              -21.22753407              -15.32713310
              31.79587583                9.49572108               87.31712842                0.00010000                9.56434616                6.95628163              -30.89123825               -1.02153795              -13.88439937              -20.20088276
              32.91235966                8.94427608               86.67853893                0.36491424               11.64838365                9.34152709              -41.58508396               -0.55579810               -6.43236647              -24.68590536
              23.34444155               15.48632397               92.19158942                1.00000000                0.00932981                0.03256598               -0.09360993                0.00241762                0.00155074                0.48758376
              24.34453485               14.93242704               91.76808505                0.88819650               -0.00830782               -0.00418188                0.02489745                0.00544404               -0.00727892               -0.09290495
              25.34427540               14.37850232               91.34444754                0.00010000               -0.30893535               -0.04229861                0.14777335               -0.30339183                4.19659353               -0.61885573
              26.33835615               13.81842227               91.00489572                0.00010000               -1.91022116               -1.06840238                6.02179661               -0.55038801                6.03069970               -0.63467938
              27.30607097               13.26131857               90.55924634                0.00010000               -3.59519903               -1.40853905                7.63856081               -0.33434363               -2.53765699               -1.44000839
              28.26645216               12.71172077               90.00035063                0.00010000               -3.53991927               -0.71022803                5.31658181               -0.17437571              -11.35151021               -2.85580160
              29.23527259               12.17044776               89.33832391                0.00010000               -1.93990995                0.84502995               -0.52726565               -0.21029452              -18.80029564               -4.78802642
              30.22765397               11.63538315               88.59921839                0.00010000                1.06520946                3.08250064               -9.39812838               -0.39965049              -23.14897834               -7.26004701
              31.25657678               11.10445690               87.82456870                0.00010000                5.12989350                5.81981898              -20.59963907               -0.54801801              -22.45632545              -10.11776141
              32.33025184               10.57686896               87.07223084                0.00010000                9.55068076                8.83659782              -32.94974961               -0.45326695              -14.67813622              -12.94507838
              33.44759039               10.05313727               86.41423744                0.36549164               11.73385578               11.86178615              -44.53428035               -0.31260427               -6.88427194              -15.06719251
              23.89851491               16.48663810               92.05150878                1.00000000                0.01371713                0.03347495               -0.10778614               -0.00087824                0.03320274                0.37017186
              24.89865208               15.93238820               91.62539614                0.72800610               -0.00470626               -0.00300429                0.01473198                0.00142968                0.08168170               -0.10878071
              25.89842079               15.37809526               91.20028853                0.00010000               -0.38354210               -0.03926813                0.13915351               -0.84743470                5.25856090               -0.48367897
              26.89098124               14.80679815               90.87756838                0.00010000               -2.18569603               -1.50299346                6.63928268               -0.87291744                7.84044935               -0.42650363
              27.85470687               14.24596518               90.44038095                0.00010000               -4.25499022               -1.59802865                8.64687807               -0.32932946               -1.31635039               -1.17033030
              28.80588144               13.70473801               89.87892247                0.00010000               -4.53096385               -0.68417844                6.38382499                0.03590740              -11.16610981               -1.77585613
              29.76408759               13.18055702               89.20577656                0.00010000               -2.94996579                1.08569286                0.35387323                0.08214353              -19.54564963               -2.58669617
              30.74688212               12.66962301               88.44898804                0.00010000                0.22694874                3.55623915               -8.90524445               -0.02688735              -24.57301028               -3.66770113
              31.76862657               12.16793633               87.65335960                0.00010000                4.56239987                6.55138815              -20.63602133               -0.14974948              -24.09819758               -4.94189672
              32.83813012               11.67245304               86.88224862                0.00010000                9.24721977                9.83454913              -33.55612745               -0.15159547              -15.79013855               -6.11488649
              33.95357096               11.18151181               86.21639864                0.36504164               11.54408409               13.21132147              -45.57997211               -0.20941092               -7.54363551               -6.18156459
              24.45292377               17.48699347               91.90973175                1.00000000                0.01825082                0.03553768               -0.12251522               -0.02176542                0.18758960                0.27693713
              25.45310628               16.93236696               91.48236922                0.80445030               -0.00035093               -0.00212453               -0.00027221               -0.01840601                0.28206590               -0.12167415
              26.45291675               16.37771696               91.05692580                0.36099417               -0.00392020               -0.03783011                0.12662255               -1.75063157                7.37388937               -0.43072774
              27.45302788               15.78836240               90.77121685                0.36059514               -2.56861111               -1.84357585                8.00541006               -1.21328469               12.01162559               -1.57648324
              28.40154453               15.22935800               90.34734948                0.36061779               -6.02247009               -1.66071835               10.51179252                0.16750655                0.50610059               -1.87643695
              29.33257847               14.69803720               89.78849071                0.36099810               -6.47570385               -0.67008095                8.38702436                0.80988482              -11.12110829               -1.93123010
              30.27203045               14.19216162               89.10853532                0.36102046               -4.64207839                1.16046015                2.22254910                1.21782309              -20.90462226               -1.94665446
              31.23973691               13.70650793               88.33827322                0.36143514               -1.06393441                3.68849188               -7.34002626                1.45163077              -26.89486423               -1.99805397
              32.25075177               13.23548467               87.52519938                0.36227361                3.69537717                6.75483356              -19.47786089                1.56512074              -26.97304870               -2.02795666
              33.31364445               12.77355994               86.73561017                0.36377988                8.72664338               10.11069087              -32.85633988                1.64538472              -18.35422924               -1.89238464
              34.42528463               12.31736370               86.06284012                0.68271816               11.16401835               13.58518925              -45.12292022                1.55174279               -9.69145792               -0.37717907
              19.33252172                7.62637459               94.30432900                1.00000000               -0.02579759               -0.01113313                0.12413656               -0.02687594               -0.38605442                0.36905710
              20.33226374                7.07491467               93.90321523                1.00000000               -0.01154095               -0.03370814                0.12059782               -0.03373740               -0.51709695                0.05735698
              21.33229090                6.52368249               93.49947741                0.95238185                0.00097785               -0.06673450                0.15884284               -0.01802930               -0.57083358               -0.05092081
              22.33228330                5.97335751               93.09689816                0.71654918               -0.00844106               -0.04760073                0.15147205                0.04461049               -0.54231979               -0.19723425
              23.33212208                5.42437136               92.69301740                0.72754284               -0.04562314               -0.02839793                0.19000051                0.04070533               -0.40175911               -0.08750396
              24.33137084                4.87610687               92.29175638                0.74498860               -0.08231776               -0.01372729                0.16306035                0.03713492               -0.11362732               -0.05828856
              25.33047572                4.32829831               91.89240731                0.77529039               -0.08033573                0.00921894                0.09037325                0.03405596                0.09763127               -0.04676941
              26.32976412                3.78080592               91.49449682                0.83024880               -0.04584480                0.03267533               -0.01346024                0.02884329                0.20963334               -0.05154669
              27.32955883                3.23349084               91.09686177                0.97019454                0.00800877                0.04907444               -0.12077311                0.01245826                0.14895542               -0.04776804
              28.32992430                2.68615852               90.69755915                1.00000000                0.05300724                0.06733857               -0.20756013               -0.00220159                0.02791273               -0.02132123
              29.33061897                2.13880211               90.29767253                1.00000000                0.06946744                0.08721777               -0.28909274               -0.00414998               -0.02863318               -0.11560598
              19.88371288                8.62626326               94.16315359                1.00000000               -0.04404614                0.02382142                0.09876441               -0.03457794               -0.09087559                0.50855299
              20.88327242                8.07457759               93.76200040                1.00000000               -0.04118476               -0.01993044                0.09497223               -0.04511971               -0.13326920                0.08351636
              21.88288918                7.52301515               93.36014548                1.00000000               -0.04437226               -0.06221441                0.11475543               -0.00407397               -0.14162270               -0.13260088
              22.88238497                6.97288151               92.95872756                1.00000000               -0.08673658               -0.01178827                0.12940383                0.03057611               -0.07329833               -0.13814495
              23.88115445                6.42408738               92.55793626                1.00000000               -0.13031308               -0.00655588                0.15359294                0.03649215                0.05190315               -0.06015862
              24.87977871                5.87596960               92.15862360                1.00000000               -0.13438467                0.00315764                0.13310912                0.03490345                0.22171076               -0.03843276
              25.87846676                5.32839050               91.76074809                1.00000000               -0.11612105                0.01924828                0.07547993                0.03546234                0.36987222               -0.02989538
              26.87745629                4.78113268               91.36397057                1.00000000               -0.07298240                0.03779358               -0.01498793                0.03067259                0.45254737               -0.03601888
              27.87700711                4.23398158               90.96746357                1.00000000               -0.01048225                0.05391013               -0.12492944                0.01876124                0.39575339               -0.04999780
              28.87724664                3.68683191               90.56951056                1.00000000                0.04633850                0.07108843               -0.21859885                0.00759678                0.22296426               -0.03415702
              29.87793388                3.13967429               90.16978905                1.00000000                0.06872360                0.08830724               -0.29375885                0.00806459                0.10742177               -0.14047967
              20.43520150                9.62685102               94.02484726                1.00000000               -0.05920396                0.08437261                0.05573839               -0.01978324               -0.02549267                0.67176252
              21.43460946                9.07451606               93.62134747                1.00000000               -0.06479995               -0.00041095                0.05889289               -0.00467931                0.02954739                0.10069107
              22.43390550                8.52243820               93.21924459                0.00010000               -0.13934342               -0.09612758                0.07284877                0.17924393                0.31487488               -0.41875535
              23.43182259                7.97312175               92.82165253                0.00010000               -0.20708364                0.92590818                0.10165590                0.66679862                0.46736764                2.03783859
              24.42976383                7.42424024               92.42326952                0.00010000               -0.20284026                0.96451921                0.11491031               -0.08798461                0.44298605                1.93384052
              25.42776578                6.87617003               92.02564188                0.00010000               -0.18709660                0.44122299                0.10688835               -1.14994798                0.53230853               -0.56924043
              26.42602189                6.32868327               91.62917825                0.00010000               -0.14896492               -0.54478229                0.06329922               -2.04684294                0.64178530               -5.19835450
              27.42478649                5.78156179               91.23362807                0.00010000               -0.08935372               -1.93235812               -0.01606139               -2.35995516                0.70007522              -11.53040487
              28.42423482                5.23456904               90.83814930                0.00010000               -0.02014809               -3.71342810               -0.12250306               -1.58430874                0.65587359              -18.89495063
              29.42438352                4.68758029               90.44165582                0.00010000                0.04303377               -5.83368580               -0.23569181                1.00710741                0.44506374              -26.15853493
              30.42509550                4.14056826               90.04218492                0.36176788                0.07119708               -9.30950981               -0.30681971                6.55988168                0.26850953              -31.75624548
              20.98798713               10.62795071               93.88676808                1.00000000               -0.03954823                0.11252591                0.01556614                0.01748263                0.01206708                0.67521312
              21.98759164               10.07456937               93.48043304                0.92636439               -0.00593773               -0.00509194                0.02420223                0.03303557                0.00847958                0.03935529
              22.98786837                9.52109259               93.07423325                0.00010000                0.31636319               -0.13316123                0.01454482                1.25972818                2.94793285               -0.66997765
              23.99391891                8.99139967               92.72653462                0.00010000               -0.57609454                1.13655156                3.08038080                2.14274900                4.80976402                4.44802466
              24.97634648                8.44337776               92.32760453                0.00010000               -2.07910963                1.25527195                4.02534740               -0.08013851                0.39208506                4.10138410
              25.95233671                7.88479406               91.88143283                0.00010000               -2.21041747                0.42968915                3.38564215               -2.32289342               -3.83619568               -0.90576689
              26.93213813                7.31749485               91.39378111                0.00010000               -1.39826493               -1.12755538                1.42946224               -4.16397530               -7.51480263               -9.99656151
              27.92437142                6.74248551               90.87303453                0.00010000                0.35821539               -3.34761913               -1.75349034               -5.02802012              -10.23320172              -22.37249745
              28.93930244                6.15971302               90.33195526                0.00010000                3.35090792               -6.23754108               -6.10059159               -4.19253355              -11.08811607              -36.89512869
              29.99138957                5.57015819               89.79154093                0.00010000                8.19265690               -9.95635734              -11.23605200               -1.93672171               -8.43950698              -51.79252361
              31.10315558                4.95348409               89.28273835                0.36226148               11.17660021              -14.02749625              -16.06129618                2.84899493               -3.36651057              -65.65433318
              21.54231383               11.62910153               93.74828371                1.00000000               -0.01855477                0.10034764               -0.01505071                0.02187545               -0.00177316                0.63682244
              22.54212828               11.07441422               93.33847025                0.89580886               -0.00220361               -0.01172870                0.01567303                0.03860760               -0.00302653               -0.03180026
              23.54226976               10.51977498               92.92875574                0.00010000                0.51320594               -0.11658611                0.04689774                1.56316911                4.41778550               -0.70797324
              24.55239240                9.99585278               92.60729834                0.00010000               -0.37515471                0.00539815                4.88621977                2.49085509                7.10271323                3.10754937
              25.53476667                9.44934568               92.20212618                0.00010000               -2.26007883               -0.03804311                6.41161294                0.68863706                0.35495000                2.53597330
              26.50719083                8.88476381               91.71375003                0.00010000               -2.48578649               -0.45599339                5.19523373               -0.85542692               -6.40727265               -2.02337314
              27.48505094                8.30613217               91.15149897                0.00010000               -1.25914565               -1.17311769                1.68052697               -2.01493630              -12.25518674               -9.95705792
              28.48200791                7.71460941               90.53098663                0.00010000                1.38302679               -2.19034247               -3.93985009               -2.69265284              -16.31069089              -20.63152326
              29.51271147                7.10981822               89.87659526                0.00010000                5.49350516               -3.55833160              -11.48174023               -2.87698421              -17.03558196              -33.25255191
              30.59187802                6.48845314               89.22622093                0.00010000               10.13560577               -5.25242424              -20.28819001               -2.25336531              -11.84466221              -46.91751154
              31.71542359                5.86001833               88.63855595                0.36241753               12.35455702               -5.67208004              -28.56584233               -1.31645881               -5.31744067              -60.04717531
              22.09779926               12.62995766               93.60930639                1.00000000               -0.01089100                0.07151919               -0.03354519                0.02123040               -0.00514789                0.59623398
              23.09769035               12.07433479               93.19612191                0.89375646               -0.00530340               -0.00561618                0.01810200                0.03110926               -0.01135742               -0.05753836
              24.09769319               11.51876087               92.78291181                0.00010000                0.82374790               -0.08315202                0.07494743                1.43641453                5.35792440               -0.71400326
              25.11416531               10.99150763               92.47703694                0.00010000                0.17574989               -0.78523512                6.07575366                2.42954754                8.63091202                2.06430083
              26.10120819               10.44261690               92.06230136                0.00010000               -1.78618109               -1.17538415                7.86079024                1.00415848                0.33973273                1.25851859
              27.07844169                9.87567419               91.53799241                0.00010000               -1.96071942               -1.28589505                6.10412793               -0.05246962               -7.86868787               -2.72770821
              28.06199380                9.29403250               90.91566000                0.00010000               -0.58046917               -1.18894387                1.33780900               -0.84359759              -14.88188136               -9.42357912
              29.06683231                8.69867866               90.21646074                0.00010000                2.29626099               -0.94311187               -6.16511456               -1.54320009              -19.55662182              -18.37500962
              30.10791902                8.08854639               89.47326652                0.00010000                6.46449252               -0.57769749              -16.13928854               -2.14031480              -20.04178643              -29.12922981
              31.19612216                7.46510971               88.73626637                0.00010000               11.28884990                0.15325638              -27.77097231               -2.13054875              -13.73954492              -41.05575956
              32.33369602                6.84004249               88.07651443                0.36243403               13.75738657                1.19988264              -39.19364098               -1.08905207               -6.30492039              -53.19708196
              22.65398418               13.63053192               93.47003356                1.00000000               -0.00369159                0.04632647               -0.04575821                0.01592521               -0.00470376                0.56441279
              23.65394726               13.07430190               93.05359578                0.89231488               -0.00794823               -0.00265385                0.02199936                0.02437996               -0.00929659               -0.06901987
              24.65382521               12.51811194               92.63713430                0.00010000                1.15900340               -0.05294369                0.09521410                0.92799999                6.05127467               -0.69567722
              25.67712733               11.98014808               92.34182756                0.00010000                0.84290325               -1.41593752                6.86402431                1.64211657                9.81463145                1.05552762
              26.67068328               11.42583799               91.91829025                0.00010000               -1.12007457               -2.07073985                8.76273365                0.80047149                0.49604128                0.09895370
              27.65472584               10.85904591               91.36530768                0.00010000               -1.27543813               -1.93229691                6.55054961                0.27514913               -8.60984762               -3.20833338
              28.64517451               10.28235329               90.69625668                0.00010000                0.09520920               -1.08251138                0.82179237               -0.16647101              -16.30627003               -8.53590463
              29.65663002                9.69574717               89.93624237                0.00010000                2.91498104                0.34696779               -8.10773450               -0.73720049              -21.34295885              -15.62953049
              30.70347413                9.09826427               89.12426655                0.00010000                7.05704587                2.29033101              -19.92706240               -1.35102186              -21.77242034              -24.20986828
              31.79777094                8.49151827               88.31804931                0.00010000               12.01514186                4.67336822              -33.78660885               -1.41683638              -14.85368221              -33.86703222
              32.94377697                7.88401599               87.59732615                0.36295660               14.60060336                7.11559702              -47.76773754               -0.79879440               -6.90817248              -43.83091642
              23.21057781               14.63088419               93.33053486                1.00000000                0.00201240                0.02909628               -0.05650036                0.01010292               -0.00240869                0.53150847
              24.21059793               14.07428172               92.91097623                0.87902560               -0.00853974               -0.00207191                0.02337391                0.01672002               -0.00347625               -0.07491187
              25.21040701               13.51770200               92.49144441                0.00010000                1.43418264               -0.03527641                0.10904245                0.11722153                6.70841142               -0.68016096
              26.23928158               12.96318888               92.20603824                0.00010000                1.39563886               -1.92652554                7.41470524                0.30190943               10.99487380                0.11251588
              27.23831979               12.40120210               91.77769604                0.00010000               -0.59261037               -2.78818929                9.40940189                0.20787569                0.95430250               -0.91357463
              28.22742938               11.83702826               91.20467299                0.00010000               -0.81783362               -2.39248961                6.89561710                0.36570189               -8.81007279               -3.42048095
              29.22196312               11.27238227               90.50158113                0.00010000                0.43739680               -0.86853492                0.49202241                0.33093345              -17.05782657               -7.26463579
              30.23617731               10.70561802               89.69641980                0.00010000                3.15821859                1.52691800               -9.46603669               -0.02780441              -22.46117005              -12.35097807
              31.28512749               10.13435301               88.83280408                0.00010000                7.29281994                4.61973340              -22.63998494               -0.51824139              -22.94346004              -18.52215983
              32.38203371                9.55857707               87.97427397                0.00010000               12.37986067                8.21579875              -38.14767247               -0.69859761              -15.63983363              -25.40630378
              33.53272470                8.98235443               87.20709552                0.36318322               15.06909912               11.89583097              -54.00923220               -0.45368548               -7.34123092              -32.38166116
              23.76739118               15.63111384               93.19078360                1.00000000                0.00726710                0.02240445               -0.06930531                0.00373228                0.00538491                0.48487805
              24.76746385               15.07426046               92.76829815                0.88013476               -0.00643534               -0.00171722                0.01881157                0.00866690               -0.00041099               -0.08273234
              25.76726247               14.51740641               92.34573274                0.00010000                1.61007798               -0.02852063                0.11329011               -0.93673760                7.56194410               -0.59533793
              26.79966541               13.94161757               92.07438912                0.00010000                1.68694714               -2.45245412                7.90405647               -1.41723164               12.57804991               -0.60449391
              27.80100142               13.37007421               91.64816334                0.00010000               -0.44028531               -3.47753729               10.10043513               -0.41185795                1.89973807               -1.54718167
              28.79085971               12.81119612               91.06476722                0.00010000               -0.88990002               -2.67628776                7.49350511                0.41498642               -8.53420233               -3.19593374
              29.78320342               12.26498259               90.33921028                0.00010000                0.16217429               -0.60021873                0.68499555                0.69899271              -17.50322388               -5.49409590
              30.79410319               11.72628553               89.50223621                0.00010000                2.84734192                2.45822112               -9.95869505                0.49115443              -23.43656843               -8.57484478
              31.84015026               11.19065894               88.60155886                0.00010000                7.08471841                6.28738114              -24.06113868                0.09805830              -24.07029174              -12.33961201
              32.93579756               10.65583425               87.70652745                0.00010000               12.34991394               10.66136322              -40.67853142               -0.15316129              -16.40220362              -16.36584429
              34.08714853               10.12193260               86.90948449                0.36312188               15.13509744               15.25669267              -57.75439286               -0.21974510               -7.79184977              -19.89554019
              24.32435922               16.63133228               93.05055366                1.00000000                0.01194816                0.02462028               -0.08453560               -0.00091653                0.03432580                0.36735226
              25.32447870               16.07424737               92.62548893                0.71347820               -0.00220346               -0.00006259                0.00515833                0.00222589                0.08544195               -0.10624585
              26.32431515               15.51713159               92.20148175                0.00010000                1.68952242               -0.02701672                0.10362145               -2.28803168                8.96033531               -0.47280425
              27.35826915               14.91413980               91.95379250                0.00010000                1.80944642               -3.63726236                8.61225085               -2.26847474               15.06432058               -0.54215873
              28.36050408               14.33165136               91.54038612                0.00010000               -0.87242140               -3.96245401               11.28442084               -0.61357526                3.74449872               -1.53116977
              29.34082072               13.78350250               90.95514175                0.00010000               -1.98252635               -2.76321237                8.76173374                0.42751521               -7.98123036               -2.18337659
              30.32085355               13.26037789               90.21652085                0.00010000               -1.02483357               -0.36672630                1.75602234                0.66788846              -18.10345336               -3.09659590
              31.32032405               12.75478244               89.35770612                0.00010000                1.83431950                3.01241385               -9.32109422                0.52961961              -24.89179053               -4.41537904
              32.35753994               12.26010063               88.43029387                0.00010000                6.36863830                7.19774791              -24.03441108                0.25244724              -25.84821569               -6.08548177
              33.44769682               11.77180433               87.51013676                0.00010000               11.92965689               11.94594725              -41.34430264                0.04746574              -17.62969514               -7.77832367
              34.59613308               11.28748829               86.70003466                0.36354854               14.84362632               17.06032608              -59.02322973               -0.17838825               -8.52662065               -8.29891144
              24.88154267               17.63160625               92.90862961                1.00000000                0.01663993                0.02739692               -0.09861394               -0.01635990                0.18380766                0.27498980
              25.88170907               17.07425921               92.48229909                0.79762765                0.00333734                0.00118347               -0.01173174               -0.01397266                0.28320743               -0.12253861
              26.88160941               16.51686607               92.05799159                0.36063526                2.90335411               -0.02655106                0.09146809               -4.53991846               11.85838684               -0.42609603
              27.93977615               15.86887232               91.86298601                0.36077834                1.88789004               -4.52674812               10.36905302               -3.15134790               20.95968638               -2.39068576
              28.91936721               15.29082513               91.46844237                0.36076802               -3.45463378               -4.08262276               13.64105748                0.23929064                6.30550526               -2.72329412
              29.87068347               14.75593187               90.88729337                0.36086285               -4.70429848               -2.75706306               11.26830802                1.32742143               -7.80207828               -2.69234512
              30.82528124               14.25764806               90.14040016                0.36089684               -3.28553122               -0.27298312                4.10369296                1.97286600              -19.69825580               -2.63471046
              31.80497285               13.78653381               89.26488193                0.36033460                0.14480321                3.17513688               -7.30468861                2.31317098              -27.66060762               -2.67471949
              32.82817731               13.33461390               88.31570146                0.36121670                5.21931862                7.45132645              -22.45932010                2.47470528              -29.30340913               -2.73296923
              33.90935922               12.89475319               87.37214468                0.36216432               11.20177782               12.29488559              -40.28407388                2.59250151              -20.74146300               -2.62345821
              35.05221286               12.46313913               86.55238017                0.68166057               14.28536451               17.56508394              -58.26748787                2.44657177              -11.15047359               -0.84818399
              19.72998109                7.77125454               95.30570513                1.00000000               -0.02519480               -0.01292419                0.14270737               -0.03419863               -0.34906133                0.34496212
              20.72972915                7.21681445               94.90442560                1.00000000               -0.00229044               -0.03434053                0.11781031               -0.04258055               -0.45727639                0.05295956
              21.72993528                6.66269365               94.50093509                0.94810416                0.02796589               -0.06820022                0.12896323               -0.01843486               -0.51152411               -0.05552131
              22.73028846                6.10980495               94.09821538                0.74240770                0.04520327               -0.04505751                0.11560531                0.06681713               -0.48532827               -0.16882809
              23.73083935                5.55880400               93.69460710                0.74780280                0.02042266               -0.02470719                0.13684762                0.05499120               -0.36642673               -0.07748969
              24.73069692                5.00882991               93.29305107                0.75153071               -0.02900668               -0.00594889                0.10719063                0.04555322               -0.13417519               -0.05402371
              25.73025922                4.45959153               92.89303744                0.76050068               -0.04427797                0.01683099                0.04743154                0.04435157                0.04308249               -0.04311245
              26.72981136                3.91086595               92.49422567                0.78551213               -0.02828517                0.03577807               -0.03163300                0.04389637                0.14237418               -0.04459135
              27.72969351                3.36244606               92.09575875                0.87589055                0.01012307                0.04418728               -0.11122461                0.02757266                0.09393127               -0.05176613
              28.73001382                2.81405508               91.69584720                1.00000000                0.03935418                0.04857423               -0.15303273                0.00619764               -0.00741086               -0.02565878
              29.73048060                2.26562289               91.29540428                1.00000000                0.04667782                0.05447871               -0.18404937                0.00248517               -0.04571804               -0.10128620
              20.28407920                8.77112530               95.16429002                1.00000000               -0.04954119                0.02746889                0.12094499               -0.03967077               -0.07214867                0.47943244
              21.28358379                8.21647104               94.76296536                1.00000000               -0.04117562               -0.01908472                0.09468555               -0.05324254               -0.09855413                0.07611704
              22.28325568                7.66201164               94.36118647                1.00000000               -0.03411634               -0.06403215                0.09318823               -0.00298092               -0.09485665               -0.13352892
              23.28290146                7.10935437               93.95983038                1.00000000               -0.06894516               -0.00012280                0.09476271                0.04414752               -0.02559525               -0.11533253
              24.28187678                6.55855693               93.55918005                1.00000000               -0.10713869                0.00549337                0.10148214                0.04828325                0.08106995               -0.05520522
              25.28075868                6.00877042               93.15962787                1.00000000               -0.10960334                0.01711509                0.07521447                0.04312603                0.21436661               -0.03870074
              26.27968471                5.45975984               92.76122212                1.00000000               -0.09678163                0.03100010                0.02741346                0.04341827                0.33336772               -0.03155695
              27.27882305                4.91122373               92.36367716                1.00000000               -0.06550211                0.04296187               -0.03479854                0.04065516                0.39417115               -0.03356271
              28.27837467                4.36288794               91.96628805                1.00000000               -0.01678354                0.04849850               -0.10806250                0.02740541                0.33686126               -0.04635926
              29.27848738                3.81454082               91.56767559                1.00000000                0.02814823                0.05203116               -0.15826303                0.00958307                0.17909646               -0.03293855
              30.27893764                3.26616768               91.16745644                1.00000000                0.04502560                0.05586684               -0.19010362                0.00690629                0.07842968               -0.11699359
              20.83849619                9.77180392               95.02555586                1.00000000               -0.07182392                0.09475757                0.07929281               -0.02060847               -0.01475393                0.63568977
              21.83777795                9.21643275               94.62195895                1.00000000               -0.07519258                0.00277190                0.06149114               -0.00223634                0.05008068                0.08893039
              22.83699233                8.66141300               94.21987311                0.00010000               -0.15759074               -0.10881929                0.05481660                0.21922383                0.35163946               -0.42733627
              23.83462613                8.10980249               93.82245316                0.00010000               -0.23016827                1.85619067                0.06179851                1.71161957                0.51375428                3.78557905
              24.83238897                7.55891387               93.42412647                0.00010000               -0.21348017                2.00924152                0.06035692                1.38756364                0.48065684                4.20878867
              25.83035653                7.00917221               93.02638239                0.00010000               -0.18573452                1.31601235                0.04491846                0.58769119                0.54816353                1.37561225
              26.82867428                6.46021153               92.62952506                0.00010000               -0.14300837               -0.03728751                0.01026154               -0.17240059                0.62548793               -4.27352208
              27.82749636                5.91172518               92.23332052                0.00010000               -0.08748760               -1.98443946               -0.03829903               -0.46621182                0.65096315              -12.28718319
              28.82692453                5.36341603               91.83700153                0.00010000               -0.02853109               -4.59908319               -0.09764919                0.35674427                0.58064577              -22.01625976
              29.82692574                4.81509570               91.43963211                0.00010000                0.02202424               -7.95086382               -0.16534511                3.47153516                0.37952023              -32.19283261
              30.82736501                4.26674023               91.03971663                0.36061543                0.04392722              -14.11892105               -0.19626818               11.01370533                0.22459004              -40.64224087
              21.39440935               10.77302045               94.88706839                1.00000000               -0.04793826                0.12123312                0.03899717                0.02441385                0.01165543                0.64360278
              22.39392997               10.21652648               94.48069666                0.97344197               -0.00694661               -0.00283638                0.02797240                0.03860778                0.00327808                0.03991824
              23.39427042                9.65983526               94.07428860                0.00010000                1.28515086               -0.14270389                0.00278492                2.24310961                4.69823772               -0.64310090
              24.41963299                9.14647819               93.76171019                0.00010000                0.79939576                2.30474319                3.97986861                4.90281938                8.20985630                8.00770887
              25.41025834                8.59874176               93.37359582                0.00010000               -1.42090705                2.67862893                5.13555910                2.76065246                2.59363606                8.61121710
              26.39121485                8.03509067               92.92085612                0.00010000               -1.82873013                1.58613422                4.44518627                0.93143796               -2.33730360                2.90420770
              27.37368373                7.45901409               92.41255740                0.00010000               -1.24602677               -0.55344030                2.36178479               -0.64812924               -6.70084179               -8.17275628
              28.36629431                6.87153494               91.85758540                0.00010000                0.42276526               -3.67569225               -1.15544766               -1.54417285              -10.49788577              -23.77385977
              29.38213904                6.27090627               91.26826049                0.00010000                3.91497899               -7.92881454               -6.41489133               -0.93622323              -12.71867351              -42.88039444
              30.44459389                5.65552354               90.66863678                0.00010000               10.68918280              -13.84548352              -13.35301298                0.45898691              -10.69490403              -63.69144329
              31.59592269                4.98378926               90.10188441                0.36019049               15.13288037              -21.29860486              -20.64337874                5.66628583               -4.57789478              -85.22690871
              21.95197240               11.77422858               94.74826728                1.00000000               -0.02371061                0.10271326                0.00775621                0.02907028               -0.00061546                0.61466725
              22.95173529               11.21637603               94.33863611                0.93300722               -0.00347892               -0.01076616                0.01699591                0.04730097                0.00066027               -0.01400446
              23.95190282               10.65855893               93.92911256                0.00010000                2.10203652               -0.11083136                0.02577794                2.79183448                7.18429572               -0.64140516
              24.99377602               10.15589736               93.66309182                0.00010000                2.35433594                0.10152777                6.27104713                5.21985131               12.56501845                5.79785605
              25.99898954                9.61248644               93.27539017                0.00010000               -0.25315311                0.14105309                8.11992953                3.40580637                4.28268050                5.91804739
              26.98871296                9.04089490               92.77438168                0.00010000               -0.98610558               -0.42630833                6.77134297                2.37333124               -3.39519215                0.68050973
              27.97926743                8.44914272               92.17481746                0.00010000               -0.19961206               -1.44378593                2.95631854                1.73227114              -10.13498961               -8.95706988
              28.98472072                7.83821134               91.49361502                0.00010000                2.24720141               -2.93291041               -3.34123737                1.21835996              -15.62471732              -22.32360141
              30.02421145                7.20483974               90.75538924                0.00010000                6.92508879               -5.04661155              -12.49689308                0.53882305              -18.11896611              -38.77550083
              31.12322249                6.53818603               90.00355039                0.00010000               12.99739258               -7.88813986              -24.32797340               -0.21869084              -13.54306613              -57.76513662
              32.28415930                5.84076813               89.31636323                0.36105134               16.09368120               -8.91536398              -36.78566439               -0.49726833               -6.27545288              -78.15883208
              22.51069586               12.77507471               94.60909694                1.00000000               -0.01502220                0.06845226               -0.01176108                0.02805269               -0.00232258                0.58399684
              23.51054564               12.21631116               94.19630261                0.91646033               -0.00550430               -0.00453454                0.01797216                0.04020872               -0.00457455               -0.03543145
              24.51058578               11.65761863               93.78352787                0.00010000                2.97784265               -0.07557176                0.05167041                2.51039157                8.77209307               -0.65758077
              25.57010249               11.14850874               93.54618518                0.00010000                4.13955731               -1.38080157                7.70632167                4.79713408               15.46380411                4.00502529
              26.59337692               10.60156282               93.15180226                0.00010000                1.59613496               -2.05556660                9.82182432                3.32150949                5.47162197                3.61014027
              27.60202519               10.02656450               92.60903545                0.00010000                0.88178957               -2.28309638                7.82932801                2.76851219               -3.62504107               -0.98273860
              28.61101272                9.43013837               91.93591740                0.00010000                1.64696482               -2.23082226                2.59027859                2.51090445              -11.49007332               -9.07171667
              29.63496449                8.81287673               91.15558494                0.00010000                4.09640450               -2.00960959               -5.87491126                1.91722528              -17.64360843              -20.20692067
              30.69294081                8.16997404               90.30161115                0.00010000                8.46635980               -1.67578763              -17.96657584                0.68698898              -20.03245479              -34.15076838
              31.80429169                7.49776075               89.43091659                0.00010000               14.39361633               -0.78954742              -33.45760914               -0.72145340              -14.72277371              -50.63163137
              32.98081313                6.80548198               88.63414945                0.36093139               17.65214455                0.91695943              -50.45120851               -0.48088041               -6.89400893              -69.13129345
              23.07006056               13.77559762               94.46969754                1.00000000               -0.00650154                0.03960953               -0.02448672                0.02106761               -0.00105878                0.55758831
              24.06999555               13.21628533               94.05380805                0.90150943               -0.00737493               -0.00199598                0.02070773                0.03233538               -0.00172307               -0.04978668
              25.06991306               12.65704749               93.63794669                0.00010000                3.78894846               -0.04395305                0.07073380                1.55001357                9.87941450               -0.65095259
              26.14577451               12.12828133               93.41959679                0.00010000                5.87254527               -2.53268919                8.59249729                3.13381081               17.54866559                2.25880313
              27.18736397               11.57137511               93.01756820                0.00010000                3.48665694               -3.77857168               10.78926224                2.43591320                6.45336334                1.47698142
              28.21550765               10.99523297               92.44116898                0.00010000                2.79046601               -3.77455441                8.25107615                2.47687867               -3.46342823               -2.32547232
              29.24317329               10.40452628               91.71096072                0.00010000                3.38609477               -2.73641311                1.91361703                2.54129939              -11.92245556               -8.70299662
              30.28322955                9.79801915               90.85434383                0.00010000                5.49469629               -0.89585658               -8.19711232                2.01355732              -18.42924827              -17.47013928
              31.35306721                9.17132399               89.91124934                0.00010000                9.50279704                1.69152055              -22.49480299                0.78922471              -20.91094246              -28.54595653
              32.47328549                8.52239508               88.94613093                0.00010000               15.30160128                5.06780574              -40.80473256               -0.38603220              -15.33094683              -41.80039332
              33.65909924                7.85910732               88.05841795                0.36134312               18.58137496                8.95012731              -61.28918168               -0.37483536               -7.26614941              -56.64816836
              23.62974179               14.77586690               94.33008745                1.00000000                0.00006885                0.02025567               -0.03578676                0.01341381                0.00226196                0.52603327
              24.62974248               14.21627124               93.91119571                0.87113720               -0.00758679               -0.00128189                0.02109039                0.02273084                0.00535387               -0.06206838
              25.62959006               13.65673957               93.49239442                0.00010000                4.43543037               -0.02446355                0.08535081                0.05469838               10.81463605               -0.64832591
              26.71845109               13.09785496               93.28961185                0.00010000                7.27767438               -3.48515994                9.15793588                0.54819231               19.35064571                0.61861882
              27.77514354               12.52599139               92.88369604                0.00010000                4.99802571               -5.18451282               11.41992055                0.97710621                7.52080086               -0.43353485
              28.81841160               11.95107341               92.28398885                0.00010000                4.19544911               -4.89498195                8.52993896                1.93161222               -2.99249492               -3.28645281
              29.85905253               11.37541011               91.51251367                0.00010000                4.50131605               -2.94500749                1.43528329                2.42260048              -11.96472195               -7.81595681
              30.90843792               10.79495960               90.59965325                0.00010000                6.26484176                0.22903934               -9.84858323                2.08694101              -18.88122378              -14.04037590
              31.98434936               10.20380445               89.59007378                0.00010000               10.01748948                4.44254401              -25.74447189                1.09848794              -21.56417597              -21.96412402
              33.10878771                9.59911686               88.55417497                0.00010000               15.77712962                9.56471048              -46.08850865                0.08383574              -15.85032880              -31.36443882
              34.29989195                8.98448452               87.59835429                0.36125576               19.11042408               15.15900003              -69.01553383               -0.12622941               -7.58810002              -41.66812186
              24.18952017               15.77600274               94.19020331                1.00000000                0.00573264                0.01361156               -0.04923243                0.00515067                0.01034213                0.47896994
              25.18957749               15.21625970               93.76846128                0.85698832               -0.00484305               -0.00044472                0.01457125                0.01229165                0.00888713               -0.07910510
              26.18942331               14.65655822               93.34671334                0.00010000                4.89545256               -0.01796216                0.08803613               -1.89738531               11.91355880               -0.57898009
              27.28748655               14.05857813               93.16297685                0.00010000                8.21321651               -4.52484344                9.63237728               -2.69805863               21.48989747               -0.68835379
              28.35368764               13.46768486               92.76125504                0.00010000                5.86173158               -6.54643170               12.09485960               -0.40703751                9.03612575               -1.77908055
              29.40472118               12.89733333               92.15022073                0.00010000                4.70257384               -5.62645429                9.11193285                1.48258876               -2.14185559               -3.60968045
              30.44773911               12.34562613               91.35202382                0.00010000                4.59264221               -2.89874439                1.58370036                2.28341175              -11.91234979               -6.22415261
              31.49657402               11.80259993               90.40004449                0.00010000                6.15702961                1.18550592              -10.45868634                2.06920539              -19.47061941               -9.93078538
              32.57087971               11.26017487               89.34334593                0.00010000                9.88540561                6.41398194              -27.41889227                1.29858059              -22.43974455              -14.72941131
              33.69428213               10.71368929               88.25866021                0.00010000               15.74798120               12.60762371              -49.09085324                0.45600800              -16.50147601              -20.22966382
              34.88583933               10.16228732               87.25914958                0.36147253               19.15571968               19.40766856              -73.55098448                0.02734149               -8.00048957              -25.63137030
              24.74933089               16.77613913               94.04981807                1.00000000                0.01019453                0.01693127               -0.06436371               -0.00063923                0.03508940                0.36297163
              25.74943283               16.21626234               93.62549930                0.68796665               -0.00034829                0.00180838               -0.00207281                0.00360740                0.09259944               -0.10929880
              26.74932392               15.65638033               93.20236096                0.00010000                5.19652240               -0.01914310                0.07728514               -4.44649927               13.68647004               -0.46692958
              27.85336328               15.00735809               93.04981340                0.00010000                8.94618356               -6.82082274               10.37401236               -4.35166506               24.74743476               -0.80840551
              28.92824759               14.39506275               92.66606937                0.00010000                5.83794140               -7.44526201               13.38294276               -0.95770609               11.65227898               -2.08461143
              29.97012211               13.83854433               92.05415714                0.00010000                3.56032842               -5.87231287               10.51178325                1.11152041               -1.09349957               -2.71065284
              30.99945416               13.31743522               91.24089701                0.00010000                3.25755909               -2.69586735                2.79237628                1.64315225              -12.24826376               -3.66547355
              32.03527329               12.81866972               90.26256616                0.00010000                4.98887269                1.80309906               -9.69967622                1.46491552              -20.84418787               -5.21083774
              33.09923161               12.33208409               89.17267138                0.00010000                9.02610675                7.49176169              -27.31482685                0.95703763              -24.25825533               -7.32356784
              34.21579542               11.85126934               88.05536257                0.00010000               15.20055591               14.16928217              -49.76738604                0.42040750              -17.78523649               -9.64525235
              35.40324273               11.37263789               87.03593404                0.36149862               18.74473073               21.67108442              -74.98130277               -0.06490190               -8.77739665              -10.80487160
              25.30926097               17.77634136               93.90775947                1.00000000                0.01474832                0.02022278               -0.07634378               -0.01154173                0.17864591                0.27266868
              26.30940845               17.21629586               93.48213459                0.78487804                0.00683037                0.00335213               -0.01944298               -0.01073837                0.28897916               -0.12766726
              27.30939757               16.65617536               93.05875517                0.36012308                7.61811856               -0.02049696                0.06667836               -8.69934422               17.57243443               -0.42595789
              28.46177082               15.92216167               92.97859791                0.36063475                9.69748525               -8.51964185               12.52767885               -6.02903293               32.77200037               -3.55987110
              29.50334728               15.31877962               92.62017063                0.36106184                2.14041494               -7.62831350               16.20089452                0.39623876               15.04727862               -3.88108753
              30.50457912               14.77988707               92.01385687                0.36066371               -0.14352533               -5.86572552               13.46100482                2.09215943               -0.78331795               -3.68467627
              31.50047677               14.29170878               91.19060918                0.36056019                0.33221694               -2.57264372                5.56173071                3.04100328              -14.07163382               -3.50897798
              32.51122346               13.83866191               90.19217945                0.36015459                2.84720328                1.99921984               -7.25002177                3.51008310              -24.01948175               -3.53782376
              33.55742084               13.41001010               89.07601297                0.35981799                7.54565113                7.79260125              -25.28448604                3.73957356              -28.26178525               -3.64924810
              34.66213648               12.99707494               87.92992870                0.36074885               14.21916703               14.58055996              -48.26527424                3.91905087              -21.45135050               -3.58581099
              35.84180418               12.59570901               86.89749036                0.68084181               17.96676974               22.30711136              -73.83486533                3.71955180              -11.91205356               -1.54255527
              20.12809954                7.91610405               96.30718315                1.00000000               -0.02112923               -0.01028763                0.14371243               -0.03900463               -0.30863424                0.31859948
              21.12788825                7.35889434               95.90557143                1.00000000                0.00855474               -0.03277542                0.10652126               -0.05007382               -0.39673585                0.04647995
              22.12827064                6.80206931               95.50205668                0.97853287                0.05082352               -0.06627667                0.09741090               -0.02152905               -0.43802522               -0.04891211
              23.12890472                6.24675096               95.09921026                0.78183386                0.08436038               -0.04138899                0.08380754                0.07779294               -0.41080822               -0.13586778
              24.12995785                5.69367566               94.69575435                0.76745868                0.06761372               -0.02117568                0.10086422                0.05814276               -0.32784361               -0.06724830
              25.13025700                5.14187281               94.29390019                0.74888930                0.01024637               -0.00085359                0.07404315                0.04624954               -0.14916998               -0.05406060
              26.13016277                4.59106669               93.89335594                0.73095661               -0.01833529                0.02050398                0.02926842                0.04912006               -0.00566297               -0.04716688
              27.12989029                4.04101111               93.49386416                0.72529508               -0.01734246                0.03554588               -0.03227600                0.05486071                0.07187594               -0.04232749
              28.12981592                3.49139692               93.09463728                0.77234518                0.01201300                0.04146925               -0.10802151                0.04187177                0.03533986               -0.04469864
              29.13013055                2.94198857               92.69449849                0.85301207                0.03872640                0.03996551               -0.15435136                0.01672045               -0.03334283               -0.04373105
              30.13059045                2.39267207               92.29399154                0.98822122                0.04599019                0.03499973               -0.17774844                0.00338107               -0.04035760               -0.12896494
              20.68491921                8.91600118               96.16557249                1.00000000               -0.05143290                0.03411939                0.12761777               -0.04342445               -0.05347008                0.44709577
              21.68440488                8.35856658               95.76389411                1.00000000               -0.03960881               -0.01654823                0.08799496               -0.05945331               -0.06385482                0.06685211
              22.68412704                7.80140655               95.36200925                1.00000000               -0.02627025               -0.06399834                0.07254976               -0.00280411               -0.04433042               -0.12842165
              23.68387948                7.24633707               94.96062281                1.00000000               -0.05743424                0.01012760                0.06630186                0.04984742                0.02511068               -0.09019948
              24.68297835                6.69346390               94.55996590                1.00000000               -0.09277519                0.01622911                0.06220930                0.05085435                0.10965694               -0.04699540
              25.68202398                6.14186427               94.16012789                1.00000000               -0.09467659                0.02906097                0.03207386                0.04406496                0.20913315               -0.03930976
              26.68108482                5.59127173               93.76129635                1.00000000               -0.08750960                0.04054298               -0.00190842                0.04665260                0.29859604               -0.03575090
              27.68027378                5.04136657               93.36327460                1.00000000               -0.06694538                0.04493912               -0.03492190                0.04894342                0.32585690               -0.03319827
              28.67974591                4.49181161               92.96530232                1.00000000               -0.03068008                0.04372419               -0.08000981                0.03709406                0.26415744               -0.03556941
              29.67966018                3.94238823               92.56634530                1.00000000                0.00974275                0.03869347               -0.11669692                0.01693667                0.13522047               -0.03664386
              30.67994077                3.39302207               92.16598698                0.97115804                0.02805862                0.03117019               -0.13663796                0.00477355                0.05928253               -0.11408597
              21.24210024                9.91678644               96.02643312                1.00000000               -0.08064246                0.10550805                0.08981381               -0.02008255               -0.00421384                0.59510171
              22.24129382                9.35856337               95.62257729                1.00000000               -0.08280860                0.00619919                0.06037562                0.00175078                0.06968135                0.07563235
              23.24044407                8.80078935               95.22034092                0.00010000               -0.17247508               -0.12077073                0.04081425                0.25413463                0.38345215               -0.43078142
              24.23784432                8.24695351               94.82288850                0.00010000               -0.24981670                3.22890591                0.03133132                3.40701111                0.55268858                6.01550397
              25.23544774                7.69400024               94.42447666                0.00010000               -0.22569249                3.54372523                0.01643180                4.07977168                0.51278796                7.05143360
              26.23333047                7.14245402               94.02654025                0.00010000               -0.19271063                2.65073276               -0.00845987                4.12412024                0.56199752                3.86020746
              27.23159352                6.59187755               93.62938348                0.00010000               -0.15005942                0.87377982               -0.03012222                3.98815343                0.61191396               -2.83193277
              28.23032928                6.04190990               93.23286208                0.00010000               -0.10286863               -1.73263757               -0.04126167                3.94153411                0.59818457              -12.64073054
              29.22953615                5.49227140               92.83619632                0.00010000               -0.05352226               -5.40470914               -0.05936186                4.74921099                0.49986994              -25.20097663
              30.22925883                4.94276244               92.43834892                0.00010000               -0.00589509              -10.49885917               -0.09219104                8.26157313                0.30697051              -39.33664383
              31.22941825                4.39329547               92.03825956                0.35903406                0.01594164              -21.03613740               -0.10738613               18.31138615                0.17676988              -52.15029916
              21.80096370               10.91811134               95.88754802                1.00000000               -0.05267020                0.12899446                0.05183396                0.03110420                0.01187171                0.60794969
              22.80043700               10.35869057               95.48099249                1.00000000               -0.00720535               -0.00175986                0.03093438                0.04410960                0.00071198                0.03507083
              23.80081959                9.79899113               95.07428895                0.00010000                2.91859058               -0.15408712                0.00281412                3.66402571                6.92498025               -0.61934904
              24.85880881                9.31091519               94.80613199                0.00010000                3.41268420                4.01906985                4.84174513                9.24590596               12.76020553               12.56207076
              25.86907327                8.76433841               94.43031571                0.00010000                0.39101310                4.77499728                5.92962208                7.88232081                6.11804829               14.22157256
              26.86662907                8.19487892               93.97033656                0.00010000               -0.38406285                3.38703241                5.09116421                7.54690753                1.23435138                7.73836403
              27.86139202                7.60874733               93.44101680                0.00010000               -0.39592285                0.58766062                3.16141380                7.16795904               -3.12101474               -5.36109344
              28.85871061                7.00671382               92.84992558                0.00010000                0.62427845               -3.58860276               -0.17601722                6.67913084               -7.96897388              -24.34578174
              29.87387759                6.38371743               92.20365743                0.00010000                4.25784824               -9.56569328               -6.02769962                6.82789272              -12.55206112              -48.81032704
              30.94386758                5.73241104               91.52448067                0.00010000               13.56124223              -18.59459223              -15.25264929                5.96828757              -12.66203124              -77.46787757
              32.14510243                4.97229932               90.86987078                0.35897211               20.12348542              -31.43594146              -26.48260637               10.73235678               -5.95290431             -110.75672260
              22.36156387               11.91936633               95.74843883                1.00000000               -0.02676508                0.10480034                0.02250649                0.03507277               -0.00005519                0.58857747
              23.36129622               11.35852818               95.33881017                0.96822933               -0.00319524               -0.01181681                0.01747291                0.05361032                0.00279550               -0.00443449
              24.36149996               10.79770760               94.92927130                0.00010000                4.80594721               -0.11080028                0.00883158                4.56198139               10.66051434               -0.59077595
              25.45741516               10.32733491               94.73271928                0.00010000                7.38152272                0.20939942                7.46872527                9.40753870               19.85110447                9.13068260
              26.50913042                9.78950019               94.36452477                0.00010000                4.12222668                0.41516323                9.15168701                8.07884259               10.53577067               10.01200456
              27.53985969                9.21019467               93.84917689                0.00010000                2.69936954               -0.28234012                7.49584423                8.46636187                3.23516927                4.02448822
              28.56311781                8.60363076               93.21062534                0.00010000                2.45410486               -1.61462140                3.79254333                9.20969999               -3.21173494               -7.34761521
              29.58894179                7.97013784               92.46416189                0.00010000                3.86394870               -3.64511885               -2.40685503                9.34412758               -9.96319679              -23.51389002
              30.64039678                7.30095754               91.62665739                0.00010000                8.55504527               -6.70232549              -12.68401248                7.93967228              -15.49794256              -44.30565944
              31.76004270                6.57087060               90.73966146                0.00010000               16.19460285              -11.12572536              -28.20083208                4.44399536              -13.55831420              -70.10797898
              32.96428884                5.76457664               89.90284266                0.35954654               20.42461416              -12.84687048              -47.04141175                1.58298910               -6.60822281             -101.14087341
              22.92334146               12.92020734               95.60907116                1.00000000               -0.01735319                0.06634227                0.00315474                0.03359448                0.00105946                0.56720180
              23.92316793               12.35845423               95.19648136                0.93588425               -0.00444883               -0.00575573                0.01708483                0.04676059                0.00232931               -0.02066228
              24.92325248               11.79677513               94.78394522                0.00010000                6.59995347               -0.07406341                0.03318807                4.03868723               12.99765029               -0.61039277
              26.05516700               11.31510318               94.63116338                0.00010000               11.22689396               -2.27187158                8.97583376                8.34652543               24.47262084                6.30705588
              27.14779036               10.77264167               94.25873785                0.00010000                8.33293650               -3.30081686               10.78216395                7.15884370               13.50179417                6.36486883
              28.22182573               10.18923212               93.69457897                0.00010000                6.89262427               -3.63058019                8.33543830                7.80091439                5.16904982                1.15911365
              29.28564285                9.57645490               92.96746557                0.00010000                6.32203298               -3.59668376                3.10683007                8.75060365               -2.06163943               -8.30103298
              30.34826639                8.93381144               92.09896252                0.00010000                7.31477131               -3.39308825               -5.42798128                8.60153358               -9.37789109              -21.65691134
              31.43193827                8.24967092               91.11393500                0.00010000               11.04309960               -3.10375136              -19.05401853                6.45782470              -14.99007495              -39.12825594
              32.56912838                7.50989654               90.06711419                0.00010000               17.87059235               -1.93092853              -39.06925893                2.48158388              -13.10538876              -61.20683268
              33.78935012                6.71536191               89.06749026                0.35974481               22.02217420                1.11355718              -64.12359422                1.02609224               -6.36041032              -88.41803076
              23.48574198               13.92069318               95.46954383                1.00000000               -0.00783364                0.03458682               -0.00963637                0.02524108                0.00332211                0.54623962
              24.48566365               13.35841306               95.05400993                0.90657692               -0.00586117               -0.00335591                0.01936689                0.03816327                0.00649062               -0.03690821
              25.48562476               12.79622633               94.63854897                0.00010000                8.14077385               -0.04031481                0.05242405                2.42577678               14.54434290               -0.61290196
              26.64847912               12.28189748               94.51367750                0.00010000               14.62767929               -4.14609910                9.80091794                5.35416984               27.59417757                3.59442267
              27.77817835               11.72348385               94.13407550                0.00010000               12.17928139               -6.18985501               11.56661437                5.11270176               15.58215146                3.02694348
              28.89206475               11.13758307               93.53032920                0.00010000               10.76861060               -6.34923367                8.48260007                6.25746796                6.70107698               -1.20997410
              29.99355056               10.53169709               92.73452902                0.00010000                9.78458449               -5.07274334                2.07226885                7.30272151               -0.88134006               -8.54966628
              31.08775644                9.90227608               91.77230013                0.00010000                9.99588118               -2.73508024               -8.25572077                6.99558823               -8.47441566              -18.96180765
              32.19346818                9.23888251               90.67437049                0.00010000               12.81134726                0.66515079              -24.38344491                4.86799649              -14.38542954              -32.72694995
              33.34398339                8.53225203               89.50195466                0.00010000               19.02058798                5.44312375              -47.76014531                1.77917626              -12.81907475              -50.24091328
              34.57387994                7.78684779               88.37154251                0.35985292               22.98965545               11.64492276              -77.21466551                0.62227354               -6.31850465              -71.34017208
              24.04840651               14.92089908               95.32981912                1.00000000               -0.00084754                0.01347216               -0.02103100                0.01580831                0.00795500                0.51627339
              25.04839804               14.35838711               94.91139804                0.85615917               -0.00614538               -0.00191456                0.01941092                0.02688351                0.01638999               -0.05552979
              26.04828360               13.79596883               94.49315142                0.00010000                9.32974232               -0.01830315                0.06890760               -0.04062973               15.74382187               -0.62241805
              27.23499288               13.23218120               94.38919696                0.00010000               17.30376025               -5.71242679               10.25790532                0.96591397               30.04475514                1.08485839
              28.39435881               12.64884457               94.00609445                0.00010000               15.18844829               -8.56822912               12.01380210                2.31839784               17.38221333                0.03441889
              29.53876185               12.06224745               93.37527177                0.00010000               13.63227319               -8.43744292                8.54393836                4.56722604                8.06704848               -3.05217420
              30.66700427               11.47500003               92.53028680                0.00010000               12.11154407               -5.97904455                1.33980830                5.92222492                0.06911969               -8.13637480
              31.78099273               10.87910984               91.49944813                0.00010000               11.61589909               -1.87595757              -10.24832267                5.67930805               -7.96862096              -15.42745533
              32.89932225               10.26297394               90.31791464                0.00010000               13.78769507                3.72952992              -28.15506494                3.94603171              -14.28324943              -25.19239049
              34.05674663                9.61875901               89.05250380                0.00010000               19.66409099               10.89006726              -53.88300140                1.56337124              -12.95973612              -37.47997321
              35.29260407                8.94826036               87.82678484                0.35988176               23.58574430               19.24388277              -86.24131205                0.56413796               -6.48990966              -51.85654655
              24.61108209               15.92096262               95.18979896                1.00000000                0.00494833                0.00682370               -0.03448022                0.00581702                0.01586147                0.46988682
              25.61113157               15.35837477               94.76858957                0.82204094               -0.00320015                0.00004893                0.01143916                0.01437123                0.02116263               -0.08257424
              26.61101808               14.79586027               94.34749346                0.00010000               10.18950468               -0.01088307                0.07221371               -3.26394850               17.06305113               -0.56990969
              27.81492166               14.16764894               94.26703666                0.00010000               19.17309835               -7.49152829               10.62606975               -4.46122263               32.73917843               -0.96216681
              28.99448005               13.55211927               93.89006053                0.00010000               17.11660734              -10.89005149               12.55899226               -0.19838135               19.55615643               -2.17247263
              30.15725381               12.96883421               93.24700587                0.00010000               15.03263079               -9.82970703                9.01527121                3.26790887                9.63674404               -4.04525787
              31.29513267               12.41211620               92.37088429                0.00010000               12.80574447               -6.32584849                1.38412743                4.81988552                0.77301136               -6.82699515
              32.41336870               11.86475692               91.29306249                0.00010000               11.88034885               -1.03395549              -10.99111045                4.60150549               -8.02579811              -11.07958591
              33.53273964               11.31347311               90.05318101                0.00010000               13.82978429                5.89941463              -30.04286132                3.27763104              -14.78890855              -16.93892955
              34.68996438               10.75005337               88.72471039                0.00010000               19.67101779               14.44358947              -57.25145376                1.51175651              -13.44039432              -24.09267245
              35.92616000               10.17172544               87.43846480                0.35988013               23.61956137               24.23948585              -91.37949504                0.50911336               -6.83418227              -31.76101234
              25.17369855               16.92103556               95.04926638                1.00000000                0.00892589                0.01071014               -0.04800464               -0.00058312                0.03461336                0.35753357
              26.17378781               16.35838809               94.62544747                0.64971230                0.00159566                0.00302600               -0.00742504                0.00384988                0.10336931               -0.11834241
              27.17373046               15.79575117               94.20302745                0.00010000               10.78608141               -0.01508859                0.06051401               -7.52303835               19.21203762               -0.46714473
              28.38950943               15.08235063               94.16127275                0.00010000               20.77377261              -11.37715386               11.31353607               -7.29142981               36.80524156               -1.29258171
              29.58920591               14.43104354               93.80804498                0.00010000               17.73068292              -12.35591994               13.84675840               -1.30617714               23.06846887               -2.85850040
              30.74412309               13.86565331               93.16537742                0.00010000               13.91366774              -10.29976579               10.45024410                2.23821338               11.29047086               -3.31139382
              31.86747927               13.34848306               92.27236837                0.00010000               11.37714162               -6.20360200                2.65768552                3.15853724                0.81764398               -4.19079632
              32.97166593               12.85843073               91.16371259                0.00010000               10.60495794               -0.41030855              -10.13665895                2.91449447               -9.18729309               -5.91190901
              34.07957843               12.38096223               89.88399733                0.00010000               12.85317515                7.07363195              -29.82436315                2.08263916              -16.51408952               -8.47412216
              35.22872943               11.90763080               88.51478903                0.00010000               18.99318869               16.19256701              -57.82605890                1.04891456              -14.67758199              -11.48294625
              36.45944220               11.43305008               87.20040861                0.35995109               23.07127719               26.87249738              -92.81815130                0.17635147               -7.58430602              -13.44626880
              25.73636535               17.92117682               94.90710274                1.00000000                0.01276035                0.01412665               -0.05595855               -0.00747285                0.17187108                0.27061549
              26.73649295               17.35843529               94.48191023                0.76611485                0.01147135                0.00471988               -0.02332156               -0.01040134                0.30004227               -0.13746629
              27.73659478               16.79555850               94.05932516                0.35995680               14.86538702               -0.01926679                0.05369058              -14.63003960               24.28525386               -0.43308780
              29.03380069               15.94010587               94.11353958                0.36097482               22.42295258              -14.22447647               13.81671753              -10.09875569               47.29851441               -5.18208923
              30.18505383               15.30500087               93.79246026                0.36055257               12.53889299              -12.60426732               16.99934725                0.72144308               27.29474071               -5.37445615
              31.28457855               14.76283889               93.15651346                0.36042649                9.02360799              -10.28144134               13.67057617                3.19771062               11.67898000               -4.88379738
              32.36552599               14.28804416               92.25163478                0.36004898                7.73004340               -6.04389057                5.69370469                4.49026507               -1.18086426               -4.52746772
              33.43917942               13.85655075               91.11988150                0.35955914                7.98331823               -0.18799759               -7.33227266                5.09642927              -12.60976305               -4.56903688
              34.52519235               13.45494575               89.81001174                0.35935896               10.98377014                7.39835201              -27.29613536                5.42909065              -20.89785774               -4.78343334
              35.65885483               13.07390471               88.40683919                0.35889495               17.68280588               16.62739106              -55.72958277                5.72402167              -18.82165701               -4.79546791
              36.87884847               12.70917539               87.07568286                0.67989571               21.99936461               27.61253096              -91.09944970                5.46769481              -11.23797572               -2.43996255
              20.52703183                8.06084783               97.30857938                1.00000000               -0.01109360               -0.00305955                0.12614471               -0.04144019               -0.26651107                0.29064091
              21.52692090                7.50109870               96.90655603                1.00000000                0.02520581               -0.02964684                0.08523420               -0.05697495               -0.33709863                0.04000595
              22.52753595                6.94181026               96.50288331                1.00000000                0.07268656               -0.06512905                0.07364130               -0.03136715               -0.36406344               -0.03485786
              23.52837463                6.38426250               96.09989153                0.83082144                0.10283012               -0.03903491                0.05877163                0.06852309               -0.32489952               -0.09600599
              24.52959255                5.82903593               95.69662439                0.77929093                0.08686467               -0.01412259                0.07693397                0.04876849               -0.27293809               -0.05465349
              25.53011192                5.27529330               95.29453194                0.73053822                0.02947207                0.00508676                0.06143005                0.03646874               -0.13811858               -0.05502897
              26.53018199                4.72276737               94.89362280                0.68787078               -0.00721915                0.02499123                0.03554738                0.02805447               -0.02186133               -0.04821325
              27.52996754                4.17119851               94.49358015                0.65774734               -0.02080105                0.03633196               -0.00878091                0.00940133                0.02405819               -0.02616835
              28.52976597                3.62022202               94.09359832                0.67434186                0.00125825                0.03954938               -0.08930778               -0.00346808               -0.03311481               -0.01947433
              29.52999270                3.06948685               93.69276017                0.72106694                0.04606913                0.04706661               -0.20086801               -0.00702328               -0.09418477               -0.04675691
              30.53068735                2.51905270               93.29184931                0.90300030                0.06946510                0.05652363               -0.30483032               -0.02815821               -0.07286253               -0.18704581
              21.08636657                9.06081724               97.16684237                1.00000000               -0.04966327                0.04412953                0.11883198               -0.04691391               -0.03565840                0.41258639
              22.08586993                8.50080223               96.76472526                1.00000000               -0.03630958               -0.01258392                0.07566337               -0.06576945               -0.03103861                0.05787286
              23.08564037                7.94115897               96.36263746                1.00000000               -0.02114550               -0.06462926                0.05565322               -0.00579268                0.00548476               -0.11948716
              24.08544702                7.38387215               95.96115641                1.00000000               -0.05377676                0.01704468                0.04445553                0.04526345                0.07689022               -0.06155909
              25.08456484                6.82889471               95.56042424                1.00000000               -0.09180657                0.02783953                0.03330323                0.04362150                0.14580748               -0.03462781
              26.08361089                6.27534416               95.16026935                0.96980588               -0.10274543                0.04372006                0.00057245                0.03501538                0.22630843               -0.03975021
              27.08250993                5.72301728               94.76118395                0.89784886               -0.11383324                0.05425299               -0.01037521                0.03131995                0.29906101               -0.03682687
              28.08133423                5.17156183               94.36297873                0.84783878               -0.09614044                0.05305411               -0.02502385                0.01399545                0.30476506               -0.02143278
              29.08058712                4.62061751               93.96468785                0.83194980               -0.04135503                0.04096841               -0.05577563                0.00324010                0.23122827               -0.01918839
              30.08050713                4.06995752               93.56534165                0.77464994                0.01263984                0.03703002               -0.10149309                0.00048197                0.12236754               -0.03988816
              31.08083992                3.51961794               93.16472368                0.82685977                0.03327921                0.03988711               -0.16483428               -0.01436835                0.07627577               -0.15015465
              21.64612357               10.06173042               97.02735213                1.00000000               -0.08597958                0.11782472                0.08770582               -0.01877623                0.00553995                0.55183344
              22.64526377                9.50084702               96.62316646                1.00000000               -0.08867002                0.00963943                0.05606272                0.00603001                0.08701801                0.06155159
              23.64435017                8.94051767               96.22068940                0.00010000               -0.18598069               -0.13205370                0.03211673                0.28732659                0.40974176               -0.42799944
              24.64154416                8.38460340               95.82307979                0.00010000               -0.26785997                5.20083319                0.01224964                6.12191791                0.58297720                8.65773537
              25.63899297                7.82959272               95.42445511                0.00010000               -0.24272522                5.71151980               -0.01460437                8.77070983                0.54050756               10.17551562
              26.63668966                7.27616770               95.02621319                0.00010000               -0.22011224                4.59385731               -0.05542358               10.79247996                0.59730003                6.51900571
              27.63459073                6.72385243               94.62892262                0.00010000               -0.20212200                2.37665409               -0.04830358               12.26281918                0.63603171               -1.04805156
              28.63264722                6.17225959               94.23249529                0.00010000               -0.15778185               -0.91211655               -0.03964077               13.00644658                0.60900433              -12.39698594
              29.63143509                5.62104138               93.83581430                0.00010000               -0.08226524               -5.81894269               -0.03476263               13.69617275                0.49833525              -27.97951913
              30.63100191                5.07022745               93.43778829                0.00010000               -0.01779747              -13.25520337               -0.05198656               17.17209290                0.31844893              -47.38394679
              31.63107914                4.51985045               93.03756891                0.35814966                0.00772276              -30.77731228               -0.10337896               30.22452338                0.22937220              -67.05741361
              22.20775785               11.06317373               96.88810507                1.00000000               -0.05545680                0.13732812                0.05431337                0.03738091                0.01398396                0.57065727
              23.20720328               10.50099502               96.48131534                1.00000000               -0.00636604               -0.00242739                0.03293650                0.05195603                0.00312345                0.02488126
              24.20763053                9.93851790               96.07434488                0.00010000                5.58035264               -0.17152692                0.00928366                5.68738112                9.55731159               -0.60588036
              25.31881033                9.48788882               95.85854510                0.00010000                8.03921028                6.44381130                5.38832367               15.93038444               18.47817316               17.97810717
              26.36841473                8.94312510               95.49218827                0.00010000                4.31952267                7.73558404                5.64306475               16.67934320               11.59234494               20.37217373
              27.40520079                8.36722131               95.02267940                0.00010000                3.16298425                6.04872739                4.39004873               19.90256870                8.44651744               12.89255283
              28.43167442                7.77055036               94.47578568                0.00010000                1.95367068                2.59446097                3.10175097               22.57775977                5.90026709               -1.89343035
              29.44427420                7.15331950               93.85406505                0.00010000                1.24341504               -2.66814982                1.09392716               23.52329029                0.62594354              -23.71894337
              30.45654272                6.50423866               93.14770650                0.00010000                4.04328603              -10.62962000               -4.26360793               22.94259420               -7.69752935              -53.65156741
              31.52513992                5.80485345               92.36358379                0.00010000               16.47708375              -23.84172571              -16.10203472               17.23510334              -13.02701970              -92.23926899
              32.78608439                4.90407170               91.57223228                0.35828278               26.09444731              -44.97596356              -34.25806906               19.64949015               -7.20251366             -143.53617443
              22.77122862               12.06447698               96.74871741                1.00000000               -0.02698857                0.10700115                0.02847130                0.03908965                0.00036603                0.56121739
              23.77095873               11.50079847               96.33898557                1.00000000               -0.00123120               -0.01484344                0.01779664                0.05625208                0.00306194               -0.00331430
              24.77120399               10.93708714               95.92928919                0.00010000                9.22929568               -0.11923957                0.00350934                7.04536938               14.65197674               -0.55870431
              25.95554464               10.51347962               95.81246633                0.00010000               16.10216746                0.29014111                7.91842261               15.65846092               28.97915352               12.88043304
              27.09324734                9.98430440               95.45842391                0.00010000               12.58855642                0.80921811                8.20118852               15.76225509               20.11064662               14.29910771
              28.20731577                9.39714225               94.92429857                0.00010000               10.34001954                0.06865760                5.81254813               19.14574595               15.97567372                7.47730885
              29.30004773                8.77574165               94.25066833                0.00010000                8.10544774               -1.51681670                2.97822540               22.77381574               12.53910711               -5.37362845
              30.36942473                8.11889660               93.44547792                0.00010000                6.93526459               -4.08596186               -1.50314109               24.46851882                5.53200952              -23.93447720
              31.43875302                7.40844898               92.50170899                0.00010000               10.32231061               -8.22714162              -11.38646027               22.14706272               -4.72427463              -49.01363227
              32.57587094                6.59339294               91.43953375                0.00010000               19.34397132              -14.67612743              -30.86159343               13.76854604               -9.26135518              -82.86844211
              33.82563245                5.62033118               90.37553500                0.35838129               24.97615112              -16.78250918              -59.81513901                6.03224268               -5.18943326             -128.77113494
              23.33589667               13.06531375               96.60916003                1.00000000               -0.01784992                0.06487360                0.01107732                0.03674815                0.00445212                0.54754830
              24.33571817               12.50069815               96.19664431                0.96079175               -0.00199531               -0.00839896                0.01456979                0.04904157                0.00841840               -0.01217469
              25.33585676               11.93613310               95.78419163                0.00010000               12.45220572               -0.07519422                0.01623359                6.14609247               17.71533077               -0.57194542
              26.58476229               11.49369164               95.72570186                0.00010000               23.20702239               -3.56717141                9.08927072               13.48816282               35.52046148                8.67878224
              27.79999721               10.95930946               95.36744554                0.00010000               20.59580892               -4.98735136                9.09949624               13.20053899               25.49658322                9.11463755
              28.99667846               10.36859446               94.77574422                0.00010000               18.26995853               -5.34007792                5.79430976               16.13322309               21.24586282                3.37672706
              30.16539638                9.74021403               93.99805400                0.00010000               15.21293875               -5.25149578                1.48502375               19.32668169               17.74278305               -7.14660066
              31.30093724                9.07160026               93.04702532                0.00010000               12.97956260               -5.02996104               -5.30371956               20.19784169               10.41059909              -22.31599772
              32.42498763                8.33969582               91.92053078                0.00010000               14.38457057               -4.78218143              -18.79545996               16.83408520               -0.14157486              -43.12729885
              33.58862865                7.51133090               90.64953141                0.00010000               21.39325681               -3.06028653              -43.43726075                8.62933622               -5.99807025              -71.39340629
              34.85285277                6.56842151               89.35167757                0.35873634               26.42241202                2.63390632              -80.08183383                4.10511038               -3.41094981             -109.50448306
              23.90119479               14.06577446               96.46950481                1.00000000               -0.00745789                0.03117447               -0.00123118                0.02792349                0.00789323                0.53126346
              24.90112021               13.50063049               96.05419538                0.91117044               -0.00312201               -0.00585718                0.01696999                0.04143040                0.01443502               -0.02892876
              25.90113235               12.93558325               95.63899517                0.00010000               15.05056647               -0.03931924                0.03733006                3.61582539               19.61721152               -0.58089931
              27.20213154               12.44213619               95.61561515                0.00010000               29.06114739               -6.37493356                9.53244117                8.53074987               39.63566379                4.83058757
              28.48235530               11.88455738               95.24890049                0.00010000               27.34720656               -9.43073661                9.30092921                9.24601419               28.84305224                4.48861852
              29.74907567               11.29034069               94.61082098                0.00010000               25.06101341               -9.76206014                5.32958209               12.25180609               24.52475358                0.02666842
              30.98357557               10.67071173               93.75240610                0.00010000               21.24120460               -8.19433413               -0.11560191               14.94094330               21.01484168               -7.91857339
              32.17389976               10.01829738               92.68922941                0.00010000               17.60642622               -5.29760673               -8.69933935               15.12970238               13.48746728              -19.56316882
              33.33570409                9.31280536               91.42358044                0.00010000               17.29161057               -0.92748486              -24.83387414               11.72654508                2.33862067              -35.73596538
              34.51973197                8.53218721               89.99092802                0.00010000               22.89246729                5.77153848              -53.19658561                5.61490438               -4.65515674              -57.66996888
              35.79355344                7.67300930               88.51412464                0.35846559               27.38214611               15.60048990              -94.78309884                2.51615505               -2.91818577              -85.88985216
              24.46674307               15.06593724               96.32966683                1.00000000               -0.00050864                0.00893788               -0.01235618                0.01744500                0.01372005                0.50288206
              25.46673798               14.50058100               95.91158393                0.83406040               -0.00377508               -0.00358584                0.01754927                0.02977521                0.02855342               -0.05466489
              26.46666757               13.93534672               95.49377257                0.00010000               16.98325874               -0.01496282                0.05688057               -0.16415742               20.98857016               -0.60167277
              27.80640316               13.36619297               95.49476995                0.00010000               33.50227166               -8.74385959                9.68837003                1.64597598               42.60830724                1.35915965
              29.13671300               12.77069473               95.12397208                0.00010000               32.45785365              -13.11362485                9.34249466                4.48232755               31.37593793                0.38345363
              30.45556023               12.17335326               94.45486761                0.00010000               29.97727790              -13.20090811                5.01399268                8.65946217               26.85940118               -2.67584440
              31.73625856               11.57632734               93.53930984                0.00010000               25.29387148              -10.18535417               -1.16875523               11.29310154               23.04719632               -7.97087222
              32.96143766               10.96564813               92.39468680                0.00010000               20.46850732               -5.07768115              -10.99046525               11.23401780               15.02235874              -15.97353699
              34.14562871               10.32114613               91.02697248                0.00010000               18.96425649                2.12541148              -28.94280809                8.44315443                3.22074459              -27.30869696
              35.34072279                9.62676167               89.47651494                0.00010000               23.79514867               11.86817012              -59.77014903                3.98718355               -4.46254568              -42.45877476
              36.62153168                8.88043131               87.87352804                0.35849816               28.08088887               24.02170010             -104.40768864                1.77163552               -2.98769719              -61.24864554
              25.03225617               16.06595321               96.18951371                1.00000000                0.00500720                0.00243916               -0.02493708                0.00645122                0.02101937                0.45804902
              26.03230624               15.50055877               95.76869007                0.76989482               -0.00094647               -0.00030847                0.00866463                0.01659730                0.03608333               -0.09322925
              27.03223724               14.93528400               95.34815761                0.00010000               18.36984046               -0.00704899                0.06333754               -5.11139726               22.45104525               -0.56845913
              28.39970305               14.26725900               95.37549825                0.00010000               36.63021597              -11.55947157                9.83800422               -6.74758458               45.77142989               -1.49543675
              29.76484156               13.62228488               95.01243488                0.00010000               35.84646275              -16.76008606                9.64398843                0.39314110               34.23493513               -2.71504565
              31.11663230               13.02632253               94.33052616                0.00010000               32.61505859              -15.52721979                5.30747747                6.03838334               29.19697771               -4.35314430
              32.41714273               12.46700465               93.37970637                0.00010000               26.85645171              -11.17292715               -1.25134589                8.58172667               24.42674070               -7.02735834
              33.65376134               11.91674375               92.18022228                0.00010000               21.31554542               -4.60178009              -11.82724640                8.33848724               15.50864928              -11.59487092
              34.84345364               11.35531358               90.74248870                0.00010000               19.32145626                4.23123965              -30.90878088                6.25257651                3.09219128              -18.35552219
              36.04019046               10.76955061               89.11363114                0.00010000               23.90966153               15.63599676              -63.23847647                3.16197193               -4.77499547              -27.13658173
              37.32164687               10.15344330               87.43155968                0.35881185               28.14564052               29.30315706             -109.72011782                1.32855881               -3.25575619              -37.30521680
              25.59766097               17.06598603               96.04885798                1.00000000                0.00781748                0.00638770               -0.03539515                0.00024243                0.03182430                0.35135726
              26.59773915               16.50057483               95.62535080                0.59295044                0.00392109                0.00311243               -0.01096927                0.00501739                0.11727883               -0.13320750
              27.59773940               15.93520574               95.20357124                0.00010000               19.33557175               -0.01829019                0.05062085              -11.71676186               24.92799321               -0.47433365
              28.98445058               15.13500354               95.27608412                0.00010000               39.38864526              -17.66363911               10.37666397              -11.24048871               50.61400823               -2.05628786
              30.38551230               14.43549301               94.94300454                0.00010000               37.35787737              -18.99124773               10.84412861               -1.53840066               38.72803757               -3.79730948
              31.73160813               13.86280886               94.26316203                0.00010000               31.59797823              -16.31917430                6.69418668                3.98638470               31.51590574               -3.83327097
              33.01747187               13.35286880               93.29405072                0.00010000               25.41451684              -11.21890144                0.02407069                5.35761932               24.91248334               -4.47186910
              34.23989847               12.87361253               92.05983298                0.00010000               20.02007581               -4.09001920              -10.90973741                4.98960090               14.67257801               -6.26959361
              35.41787338               12.40577092               90.57618412                0.00010000               18.29670213                5.34995206              -30.53039537                3.74607144                1.62700879               -9.24786929
              36.60583251               11.93948161               88.89884139                0.00010000               23.12220415               17.37573266              -63.58851549                2.02826435               -5.80567222              -12.94640752
              37.88031746               11.46649445               87.17957102                0.35891254               27.44849542               32.14589714             -110.98507510                0.58680738               -3.83482240              -15.84824090
              26.16308340               18.06608097               95.90664030                1.00000000                0.01034760                0.00949420               -0.03768229               -0.00375217                0.16303269                0.26889673
              27.16318687               17.50062102               95.48166816                0.73652000                0.01949505                0.00461880               -0.02134697               -0.01336639                0.31713062               -0.15169868
              28.16347330               16.93491819               95.05982898                0.35932114               25.57095649               -0.02875481                0.05510430              -22.75834991               31.35615996               -0.45509637
              29.67460600               15.91398622               95.25493226                0.36042774               42.13974591              -22.10173167               13.11394114              -15.60737144               63.77741757               -7.34256385
              31.00626822               15.24245992               94.96015757                0.36120234               30.21891019              -19.30330862               14.08714457                1.37323248               43.58739699               -7.14824469
              32.27898421               14.69993904               94.28726839                0.36089184               25.36116184              -16.28698249                9.88632691                4.74594223               31.88426182               -6.14125284
              33.51349145               14.24262662               93.30448328                0.36029705               21.08335150              -11.02421830                3.06176044                6.35217523               22.86978554               -5.57842989
              34.70065124               13.83494337               92.04553399                0.35927004               16.95072670               -3.86691570               -7.91626007                7.05957731               11.37309322               -5.68084493
              35.85250599               13.46231263               90.53009027                0.35838869               15.96904904                5.65417069              -27.48733869                7.56935511               -2.67458195               -6.14800901
              37.02003222               13.11706526               88.81533704                0.35827036               21.34256688               17.75836561              -60.61741912                8.12240174              -10.12174035               -6.31086512
              38.27935732               12.79636125               87.07550136                0.67917620               25.93251070               32.98667960             -108.36027297                7.83358450               -7.90838570               -3.64667010
              20.92681602                8.20539088               98.30970604                1.00000000                0.00263252                0.00892683                0.09082336               -0.04106487               -0.22375411                0.25942733
              21.92684235                7.64335599               97.90727612                1.00000000                0.04189223               -0.02423780                0.05479143               -0.06168408               -0.27595973                0.03585717
              22.92765387                7.08186385               97.50352950                1.00000000                0.09116535               -0.06531349                0.05543733               -0.03757411               -0.29583046               -0.02179098
              23.92866565                6.52230108               97.10038570                0.87464680                0.11024046               -0.03834483                0.04437509                0.05243668               -0.24890594               -0.05901848
              24.92985868                5.96498288               96.69729303                0.76633446                0.09152756               -0.00422584                0.05822098                0.04210510               -0.20144444               -0.03875790
              25.93049621                5.40929740               96.29512879                0.68680878                0.04093280                0.00906058                0.05970195                0.02928527               -0.08253390               -0.05420113
              26.93067733                4.85498013               95.89406689                0.62925102               -0.00501333                0.02552471                0.06189142               -0.01240693                0.02924150               -0.02114825
              27.93039594                4.30169060               95.49368854                0.58675199               -0.03518616                0.03321803                0.04451401               -0.06066363                0.04917195                0.01827639
              28.92997361                3.74882837               95.09285112                0.58534415               -0.02000369                0.03834969               -0.04064222               -0.08661104               -0.06665445                0.02161278
              29.92999587                3.19589048               94.69048113                0.61308566                0.04906594                0.06718660               -0.23796948               -0.07471408               -0.18625388               -0.05048754
              30.93095493                2.64318241               94.28789493                0.83412260                0.09590622                0.11169608               -0.49410599               -0.09607804               -0.17990785               -0.34682195
              21.48844027                9.20548015               98.16794913                1.00000000               -0.04512438                0.05847675                0.09627553               -0.04833553               -0.01959017                0.37424116
              22.48798902                8.64311361               97.76540738                1.00000000               -0.03173425               -0.00758324                0.05900430               -0.07074345               -0.00175962                0.05058505
              23.48780558                8.08121071               97.36312231                1.00000000               -0.01792585               -0.06709554                0.04365422               -0.00621383                0.04987918               -0.10856165
              24.48763051                7.52191763               96.96151192                1.00000000               -0.05120087                0.02092306                0.03112708                0.04012007                0.12286497               -0.03327841
              25.48678156                6.96494062               96.56063196                0.99513548               -0.09200368                0.03818224                0.00687124                0.03680934                0.18410821               -0.02075010
              26.48579043                6.40938801               96.16013934                0.80822970               -0.12124501                0.05633408               -0.02228887                0.03037548                0.27975364               -0.04015354
              27.48435666                5.85523538               95.76108885                0.68616458               -0.14626240                0.06673310               -0.01520602               -0.00052483                0.37809925               -0.01469992
              28.48286518                5.30202278               95.36277412                0.60049567               -0.11745537                0.05966244               -0.03364608               -0.04008838                0.41379469                0.01284653
              29.48200756                4.74921187               94.96418680                0.55359621               -0.03967399                0.04170028               -0.06934427               -0.06120910                0.38486566                0.00548854
              30.48207170                4.19656235               94.56431544                0.49739504                0.03473314                0.04754369               -0.11221650               -0.05175809                0.29301851               -0.08758502
              31.48270222                3.64429937               94.16269030                0.68355885                0.06305151                0.07280938               -0.28539961               -0.05182169                0.26444576               -0.39393868
              22.05058239               10.20656042               98.02818724                1.00000000               -0.08854765                0.13395275                0.07151747               -0.01648147                0.01451026                0.50591890
              23.04969691                9.64320432               97.62369854                1.00000000               -0.09284089                0.01277360                0.04942428                0.01160753                0.10178094                0.04678602
              24.04872557                9.08052194               97.22098325                0.00010000               -0.19793827               -0.14684909                0.03139798                0.32228521                0.42819154               -0.42112061
              25.04573815                8.52271954               96.82313349                0.00010000               -0.28005447                7.95865832                0.00489185               10.40614828                0.60243121               11.45243547
              26.04312448                7.96574653               96.42418457                0.00010000               -0.24645956                8.64362283               -0.04137993               16.88544230                0.55994029               12.77109000
              27.04080896                7.41042408               96.02543178                0.00010000               -0.25462099                7.26283000               -0.09006993               22.83699235                0.66856770                8.35482021
              28.03803206                6.85631480               95.62841741                0.00010000               -0.25956363                4.69488158               -0.06164269               27.80574053                0.75061970                0.38332268
              29.03561768                6.30288385               95.23206927                0.00010000               -0.19111028                0.86647715               -0.05907784               30.48955295                0.77448894              -11.45541681
              30.03420986                5.74966238               94.83550107                0.00010000               -0.08722427               -5.22102375               -0.05907368               31.11791050                0.73700670              -29.43588984
              31.03387320                5.19684136               94.43730919                0.00010000                0.01172954              -15.53410727               -0.10521552               33.58529593                0.60905938              -55.53966790
              32.03444445                4.64463860               94.03619198                0.35734925                0.05712494              -44.03448172               -0.49982189               49.83237272                0.75235966              -86.79648460
              22.61482282               11.20815920               97.88863429                1.00000000               -0.05631713                0.14876490                0.04434428                0.04361202                0.01875643                0.53336544
              23.61425965               10.64336908               97.48165122                1.00000000               -0.00433754               -0.00356987                0.03244559                0.06016471                0.00947863                0.01096834
              24.61473607               10.07827373               97.07447462                0.00010000                9.81346167               -0.19175858                0.02001371                8.50274389               12.33420204               -0.59888591
              25.81052888                9.68109079               96.91389846                0.00010000               16.10248962                9.75336346                5.05725559               26.08323540               25.88151328               23.81577834
              26.93678586                9.13781308               96.54317701                0.00010000               12.07165624               11.72392689                2.63906683               31.49702208               20.21319040               25.50930320
              28.05196201                8.55464461               96.05813753                0.00010000               10.56129229                9.81259758                0.44781758               41.88198645               22.79819280               16.65681569
              29.14801171                7.94913301               95.50305182                0.00010000                7.36733265                5.87875348                0.84678919               50.96981254               25.07408215                1.07708350
              30.19930866                7.31935232               94.87180412                0.00010000                3.11982741               -0.21979070                1.74525864               55.42910091               21.51668435              -21.66284950
              31.21040826                6.64479139               94.11838528                0.00010000                2.97463690              -10.09008844               -0.55861303               54.20867424                8.85684893              -55.61373954
              32.25880140                5.88588021               93.20243998                0.00010000               18.66734663              -28.46436114              -13.88358689               39.29673634               -7.30060676             -105.42464170
              33.58375519                4.76360974               92.18470940                0.35744053               32.49537905              -61.74649733              -45.79642826               35.47561436               -6.22211614             -184.58804630
              23.18103487               12.20953571               97.74900826                1.00000000               -0.02491953                0.11058553                0.02432375                0.04167759                0.00269842                0.53566565
              24.18078568               11.64313293               97.33916610                1.00000000                0.00119314               -0.01840789                0.01754802                0.05980500                0.00631641               -0.00884972
              25.18105874               11.07668677               96.92934149                0.00010000               16.35389152               -0.13217478                0.01023648               10.42096797               18.58835202               -0.54362391
              26.50786351               10.71778681               96.89108773                0.00010000               30.92261867                0.22196063                6.39473463               24.76658644               40.24392274               16.29034494
              27.79951111               10.20022506               96.52854854                0.00010000               27.96326212                1.33223809                2.57249586               27.98915170               35.07745995               17.62422597
              29.06712875                9.60667604               95.96542785                0.00010000               24.66047439                0.77998194               -0.91339482               36.89186582               39.70498272                9.90279851
              30.29272060                8.97388987               95.27018985                0.00010000               19.07062847               -0.86739498               -1.45541174               45.65088515               43.37294167               -3.67664786
              31.44854132                8.29848804               94.43409906                0.00010000               12.95674313               -3.78061631               -2.16834001               50.43318370               38.71621579              -23.29891646
              32.55185546                7.54786061               93.39892819                0.00010000               12.62241293               -8.97689506               -8.55817602               47.26292603               22.98251879              -51.32663709
              33.70098958                6.62755414               92.12242960                0.00010000               21.83211034              -17.76230351              -30.49470983               31.05334163                5.68147899              -93.35666994
              34.98849767                5.40970865               90.70653988                0.35766917               28.75080878              -18.84635665              -75.06199546               14.86963309                1.47477872             -157.70349550
              23.74846195               13.21037091               97.60929271                1.00000000               -0.01572515                0.06379689                0.01176860                0.03719231                0.00718064                0.52847152
              24.74830470               12.64300092               97.19677275                1.00000000                0.00198001               -0.01190314                0.01104061                0.04678157                0.01095527               -0.00778926
              25.74850155               12.07563024               96.78426989                0.00010000               21.70088091               -0.08296794                0.00701722                8.90097876               22.07574549               -0.54158418
              27.18232232               11.68553001               96.81294879                0.00010000               42.95890596               -5.41728351                6.29368812               20.61255864               48.64988072               10.50215332
              28.60767967               11.16445784               96.44072777                0.00010000               41.69061036               -7.17476908                1.77110516               22.25183408               43.45088165               11.08838720
              30.01613452               10.57024425               95.81046517                0.00010000               38.07688720               -7.38414967               -2.52322003               28.96263674               49.37402241                5.16708258
              31.36921741                9.93178511               94.99716605                0.00010000               30.89335348               -7.09100381               -4.18230727               35.81070584               53.69137944               -5.64471812
              32.63400159                9.24374000               93.99288812                0.00010000               22.86916327               -6.75684104               -6.86286316               38.56292537               48.65469455              -21.44481251
              33.82660068                8.46525349               92.73802580                0.00010000               19.20092971               -6.50695516              -16.85299162               33.67903297               32.02090887              -44.26090931
              35.01802019                7.53063413               91.19836897                0.00010000               24.51190692               -3.78425071              -44.39588246               19.03877918               11.56366081              -77.94281948
              36.31683882                6.38668261               89.46585359                0.35787371               29.88186294                6.87458074              -97.11200746                9.63611333                4.51399094             -127.46302843
              24.31651870               14.21081165               97.46951920                1.00000000               -0.00567133                0.02884550                0.00227434                0.02755860                0.01191247                0.51393342
              25.31646199               13.64289486               97.05434933                0.93120638                0.00152639               -0.01008952                0.01247152                0.03872078                0.02054828               -0.02170403
              26.31654923               13.07502741               96.63929558                0.00010000               25.74125453               -0.04286531                0.02119380                5.14568556               24.03895041               -0.54665101
              27.83128708               12.60944114               96.70432633                0.00010000               52.16421613               -9.30243592                5.90364542               12.81697383               53.24403452                5.46840651
              29.35983355               12.05672968               96.32009408                0.00010000               52.38835679              -13.57392951                0.91036073               15.18260715               47.76264075                5.39369430
              30.87905421               11.45899304               95.63692085                0.00010000               48.78027064              -14.06094301               -3.86939036               20.99088497               54.15747275                1.18295314
              32.33543896               10.83206979               94.73221698                0.00010000               40.36386175              -12.17513978               -6.38501555               26.16348857               58.75124880               -6.58283045
              33.68633145               10.16335121               93.59831334                0.00010000               30.15515092               -8.75468837              -10.63560257               27.27136915               53.52905583              -18.37065049
              34.93854198                9.41772151               92.17769301                0.00010000               23.70023003               -3.36808793              -23.12473407               22.19131159               35.93611126              -35.63907059
              36.16033605                8.55186912               90.43802295                0.00010000               26.52905046                5.81231348              -54.29850325               11.61993646               13.56473731              -60.88721266
              37.46912299                7.54720027               88.47588054                0.35812732               30.87869424               20.95849021             -111.71506682                5.63237015                5.21689415              -95.73569155
              24.88484670               15.21094782               97.32957200                1.00000000                0.00166591                0.00603988               -0.00739912                0.01668382                0.01799155                0.48625812
              25.88486336               14.64279913               96.91174902                0.81229924                0.00111445               -0.00757724                0.01445929                0.02862246                0.03889309               -0.05572396
              26.88486899               14.07477293               96.49428903                0.00010000               28.60480808               -0.01674911                0.04621079               -0.33181328               25.37480736               -0.58671580
              28.45695952               13.49948129               96.58296436                0.00010000               58.84554595              -12.65075464                5.46735555                2.64961159               56.38877328                1.22162852
              30.06177991               12.89297925               96.19294435                0.00010000               60.18262983              -18.89718930                0.27683052                7.69306936               50.80656457                0.45883793
              31.66061212               12.28902539               95.47555162                0.00010000               56.31745528              -19.27580650               -4.69746921               14.50853641               57.23082739               -2.09975115
              33.18812901               11.68828232               94.50691169                0.00010000               46.65825721              -15.76208212               -7.74191390               18.90766180               61.56254416               -6.98980075
              34.59377726               11.06864623               93.27963883                0.00010000               34.68899957               -9.78189425              -13.02508374               19.20186611               55.76061176              -14.90270135
              35.88190900               10.39789173               91.73905848                0.00010000               26.35814468               -1.02852380              -27.10158181               15.04334018               37.29173073              -26.82616488
              37.12094015                9.64688040               89.85710082                0.00010000               27.84574614               11.65630846              -60.42674820                7.65090606               13.86768291              -43.93154735
              38.43882393                8.80585241               87.73863107                0.35774940               31.78837728               28.61889331             -120.46796237                3.70044002                5.13689668              -66.62334306
              25.45314976               16.21093245               97.18930021                1.00000000                0.00595717               -0.00058573               -0.01735653                0.00622139                0.02384014                0.44304652
              26.45320933               15.64274332               96.76876286                0.70150964                0.00405245               -0.00266411                0.00544622                0.01583717                0.05236215               -0.10876095
              27.45323081               15.07469243               96.34876021                0.00010000               30.64318298               -0.00898992                0.05232659               -7.48146258               26.84683917               -0.58271995
              29.06607299               14.35642604               96.46379675                0.00010000               63.54600161              -16.88452163                5.26718805               -9.52548749               59.83397137               -2.34199426
              30.72415084               13.67878590               96.08294030                0.00010000               65.39244426              -24.28022932                0.29503916                1.59798591               54.28351086               -3.26455311
              32.37392188               13.07347691               95.35315542                0.00010000               60.49102585              -22.83898664               -4.57673536               10.04125806               60.20837038               -4.26481152
              33.93397136               12.51682815               94.34585737                0.00010000               49.34187396              -17.70067708               -7.92296147               13.75826948               63.40973912               -6.44293328
              35.36075935               11.96771333               93.05651756                0.00010000               36.36016276              -10.04595435              -13.86545145               13.47648560               56.59658277              -10.92128608
              36.66117461               11.39715103               91.43500539                0.00010000               27.23170699                0.52557725              -28.91564383               10.42415741               37.39392991              -18.07623293
              37.90539349               10.78499529               89.45994086                0.00010000               28.20065844               15.00581706              -63.53965410                5.53580193               13.59699196              -28.07063350
              39.22518778               10.11957813               87.24406244                0.35789445               31.97942868               33.31455852             -125.19372005                2.58141304                4.86169772              -40.64540082
              26.02134939               17.21093611               97.04855848                1.00000000                0.00707368                0.00288315               -0.02604706                0.00200076                0.02558977                0.34146595
              27.02142012               16.64274585               96.62522809                0.51128834                0.01038113                0.00116439               -0.01132513                0.00472907                0.13325790               -0.15116526
              28.02155701               16.07459313               96.20403987                0.00010000               32.04680873               -0.03756659                0.03192302              -17.18659662               29.57098089               -0.50006500
              29.66235630               15.16179086               96.36880603                0.00010000               67.75658730              -26.04338732                5.63885965              -16.21355033               65.42090236               -3.04914155
              31.37668876               14.40737466               96.02492755                0.00010000               68.05193635              -27.55279936                1.44161410               -1.46152015               59.84961410               -4.66652275
              33.02339503               13.83224565               95.29926115                0.00010000               59.61846140              -24.08379034               -3.16437287                6.54551599               63.06899403               -3.96266571
              34.56905798               13.33426878               94.27284979                0.00010000               47.97945316              -18.06088501               -6.68462392                8.30831148               64.24711547               -4.18379030
              35.98298409               12.86772714               92.94551784                0.00010000               35.20261031               -9.80907545              -12.95541101                7.72047233               56.10597177               -5.97081795
              37.27311019               12.40840328               91.27338943                0.00010000               26.31224987                1.35111219              -28.40017767                5.99963285               36.30276660               -9.23846328
              38.50922909               11.94699675               89.24301872                0.00010000               27.40881547               16.48504079              -63.63203035                3.46778637               12.95706690              -13.60224438
              39.82128650               11.47214358               86.98070711                0.35791251               31.20574131               36.24015791             -126.40663033                1.27290000                4.68233769              -17.84127223
              26.58957029               18.21099011               96.90634909                1.00000000                0.00765987                0.00540020               -0.02135781               -0.00026015                0.14903919                0.26293238
              27.58964689               17.64276661               96.48148329                0.68963210                0.04417900                0.00207546               -0.01191368               -0.02977429                0.33885333               -0.16628950
              28.59045387               17.07394109               96.06042724                0.35904401               40.96867811               -0.06520385                0.06735289              -33.47072926               37.49289089               -0.53349604
              30.40902045               15.83555830               96.37581841                0.36010987               71.70058841              -32.62325587                8.42036584              -22.64414387               81.03475759              -10.12851479
              32.02446564               15.12772991               96.07420316                0.36085693               58.44588159              -27.96447552                4.46407914                2.58982877               65.03982241               -8.80591979
              33.57793808               14.59180111               95.35424000                0.36071622               52.00952293              -24.04445489               -0.30835410                6.84833275               63.21705267               -7.22559488
              35.06465610               14.15561045               94.31286999                0.36009660               43.15481071              -17.86583290               -3.99435571                8.54634720               62.36656219               -6.38396741
              36.44103430               13.77153182               92.96155629                0.35893032               31.86207847               -9.61953227              -10.04171541                9.23316229               53.53611956               -6.73849801
              37.70189767               13.42417327               91.26026497                0.35796014               23.49873112                1.57699943              -24.98518093               10.03696207               33.01303341               -7.70644494
              38.91100892               13.11469611               89.19449081                0.35754985               24.92272223               16.76993610              -59.60138715               11.18838443                9.34462696               -8.50794317
              40.20035211               12.84438129               86.90847740                0.67871388               28.93431914               37.22377123             -122.44969112               10.87507988                0.85556404               -5.56555461
              21.32741660                8.34955019               99.31039584                1.00000000                0.01616436                0.02706707                0.04471776               -0.03551857               -0.17199661                0.21271093
              22.32757824                7.78555332               98.90765186                1.00000000                0.05465824               -0.01618209                0.01881427               -0.05973650               -0.20959730                0.03016893
              23.32850976                7.22218882               98.50399206                1.00000000                0.10273732               -0.06548329                0.03229998               -0.03381662               -0.22807962               -0.00759876
              24.32963299                6.66082969               98.10077903                0.87744092                0.11554039               -0.03708922                0.02929565                0.04587298               -0.19097789               -0.02575289
              25.33082057                6.10158290               97.69778881                0.71157487                0.10271974                0.00052555                0.04002112                0.04782615               -0.12686331               -0.02384199
              26.33168738                5.54418818               97.29572598                0.60981489                0.06932552                0.00499274                0.05715776                0.04204873                0.03143317               -0.03376317
              27.33220708                4.98830048               96.89486063                0.55146136                0.02396817                0.00722775                0.10059639               -0.01675942                0.19445933                0.06019677
              28.33216674                4.43339287               96.49447043                0.51491794               -0.02833957                0.00451568                0.11528331               -0.08133628                0.20939692                0.12573570
              29.33164029                3.87798291               96.09278548                0.50807750               -0.04714625                0.00944284                0.03386753               -0.11893558               -0.01107968                0.09460839
              30.33122382                3.32080850               95.68800078                0.52087086                0.03106565                0.05692643               -0.20542336               -0.10885000               -0.27195397               -0.01552327
              31.33226160                2.76252554               95.28196719                0.77496291                0.10377813                0.09165859               -0.60008006               -0.11654458               -0.34799093               -0.60106175
              21.89105828                9.34982086               99.16876788                1.00000000               -0.03967173                0.08067266                0.06078407               -0.04420761               -0.00518175                0.31887714
              22.89066156                8.78539150               98.76590535                1.00000000               -0.02624323               -0.00072147                0.03963174               -0.06808690                0.02161723                0.04159723
              23.89053341                8.22153399               98.36351055                1.00000000               -0.01334433               -0.07229330                0.03704164                0.00182933                0.08103524               -0.08933268
              24.89039467                7.66045879               97.96177895                1.00000000               -0.04569146                0.02179401                0.02347073                0.04063256                0.14724912               -0.00087689
              25.88961958                7.10158816               97.56056166                0.84364700               -0.08227981                0.04432869               -0.01755324                0.04261137                0.21349469               -0.01207711
              26.88874908                6.54423810               97.15982357                0.58968532               -0.10912237                0.05388681               -0.03860658                0.04626975                0.34343909               -0.03573082
              27.88743714                5.98837276               96.76087983                0.45027519               -0.11184555                0.06277136               -0.06096721               -0.00207606                0.51424791                0.05610726
              28.88651217                5.43343803               96.36230580                0.36170629               -0.03470082                0.03641934               -0.11534731               -0.07044115                0.69043370                0.14177233
              29.88674312                4.87807734               95.96330097                0.30161661                0.06759195                0.00711028               -0.14935904               -0.13826272                0.85398528                0.10935678
              30.88786401                4.32137776               95.56309732                0.24253875                0.13179962                0.02505278               -0.13910560               -0.16834229                0.76998018               -0.16461879
              31.88937911                3.76344212               95.15901569                0.55021064                0.15151069               -0.03119420               -0.37516932                0.01139432                0.68681032               -1.13325411
              22.45539116               10.35116364               99.02878248                1.00000000               -0.08877848                0.15995787                0.03557959               -0.01043319                0.02278204                0.44873687
              23.45450338                9.78553889               98.62415494                1.00000000               -0.09560530                0.01776614                0.03982551                0.02351336                0.11247743                0.02987329
              24.45347906                9.22074295               98.22131736                0.00010000               -0.20559559               -0.16760216                0.04442074                0.36302936                0.43194790               -0.40868186
              25.45039147                8.66126557               97.82317763                0.00010000               -0.27927859               11.78956728                0.01118473               17.95350314                0.59515962               13.77013704
              26.44789348                8.10246948               97.42362751                0.00010000               -0.22816461               12.36795219               -0.07291350               31.14101185                0.58553477               12.90977405
              27.44582817                7.54526591               97.02441180                0.00010000               -0.24639260               10.80617237               -0.09923883               44.98135942                0.74211407                7.11289767
              28.44296563                6.98955591               96.62768976                0.00010000               -0.23874161                8.09734171               -0.09710154               56.04538417                1.02721721               -0.04728382
              29.44105334                6.43412126               96.23131373                0.00010000               -0.10151649                4.22973427               -0.16224055               63.06657370                1.59968065              -10.48843326
              30.44093530                5.87812512               95.83463282                0.00010000                0.07194241               -2.47702987               -0.43863772               65.17445053                2.77912700              -28.43789029
              31.44249219                5.32130955               95.43568398                0.00010000                0.37127285              -15.50687756               -1.01267875               65.43580978                4.38110833              -61.69406225
              32.44836076                4.76190165               95.02757247                0.35700743                0.58685705              -61.07396308               -6.60410954               84.44541619               10.49328220             -119.84783056
              23.02209911               11.35302002               98.88899195                1.00000000               -0.05465956                0.16841156                0.01760382                0.05146722                0.02505933                0.49342120
              24.02155252               10.78574683               98.48196426                1.00000000               -0.00158930               -0.00194745                0.02700717                0.07051869                0.01794189               -0.00404030
              25.02206733               10.21818194               98.07474515                0.00010000               17.30928473               -0.21617822                0.04146406               12.40368290               14.61864522               -0.59454580
              26.36773821                9.89625014               97.95969021                0.00010000               30.31860722               13.94853134                1.38055437               42.07949209               34.54251255               28.18885495
              27.62843947                9.34894720               97.54496960                0.00010000               26.67758093               16.83843420               -8.18595484               56.83371746               40.23328409               26.36246984
              28.90128983                8.76036155               97.03163576                0.00010000               24.55250004               14.88023336               -8.53198982               80.76591683               52.75452530               15.23078467
              30.11948947                8.15031959               96.49272146                0.00010000               17.89923004               10.92692754               -5.91316347              100.67704429               63.25723291                0.86410896
              31.25927443                7.51803271               95.88897023                0.00010000                9.17771827                4.88565015               -2.18164163              112.60872546               66.67382906              -19.12719135
              32.30304384                6.82853674               95.13653424                0.00010000                2.67646156               -5.79247018                0.93972670              113.11725295               56.49510874              -51.76717558
              33.31280366                6.01124021               94.08591206                0.00010000               19.70296962              -29.54895038               -7.19749267               82.64113773               26.43222575             -110.66491230
              34.69710323                4.54196286               92.65630371                0.35689878               38.42995672              -78.83922892              -59.58516921               64.99959981                9.75443368             -228.42288303
              23.59096689               12.35453188               98.74920389                1.00000000               -0.02150667                0.11761096                0.00923892                0.04586126                0.00763822                0.50938726
              24.59075183               11.78549994               98.33933653                1.00000000                0.00412531               -0.01938465                0.01425016                0.06475440                0.01389241               -0.01544519
              25.59104940               11.21641939               97.92949392                0.00010000               28.52321107               -0.14173044                0.01615969               14.69322773               21.05296938               -0.53243191
              27.16121605               10.94023619               97.94036102                0.00010000               56.47035101               -0.28770130               -2.21066143               37.81912889               55.20405056               18.02234836
              28.72045642               10.43923816               97.50987383                0.00010000               54.92790341                2.02922308              -13.33108740               47.28466919               66.46091736               18.16748290
              30.25977412                9.84287058               96.90603067                0.00010000               48.91894673                2.00407856              -14.21358733               64.76435518               84.77392620               10.01050068
              31.69883535                9.20809446               96.22156009                0.00010000               37.76182924                0.74864674              -11.42849983               81.31376109               97.65097516               -2.80937037
              33.01501070                8.53183426               95.40211112                0.00010000               25.56187565               -1.97714878               -7.74679431               91.40390971               98.04216906              -21.03634532
              34.21007287                7.76227571               94.33054547                0.00010000               18.34390610               -7.64119634               -7.49836793               87.76887027               79.71547263              -48.27497169
              35.38188882                6.73033054               92.82963955                0.00010000               23.84172908              -18.71795235              -24.73427113               60.10558904               43.21185044              -94.25232850
              36.68690745                5.18511707               90.87429509                0.35721225               30.50186258              -14.60712857              -88.57641002               31.03165946               18.87946355             -174.89648691
              24.16108020               13.35537224               98.60939540                1.00000000               -0.01201072                0.06209799                0.00611858                0.03898363                0.00984940                0.50547641
              25.16096009               12.78535913               98.19686512                1.00000000                0.00577171               -0.01399016                0.00760137                0.04890362                0.01547704               -0.00593457
              26.16119564               12.21534733               97.78433198                0.00010000               37.01709631               -0.08941483                0.00541895               12.30109718               24.00751895               -0.51304843
              27.90130202               11.89049611               97.85157562                0.00010000               75.51514165               -7.93737200               -4.52701113               29.95910009               63.20660036               10.26349517
              29.67149847               11.38953166               97.40286765                0.00010000               76.32093075               -9.95117364              -16.49954210               34.72520920               75.93937762               11.09885538
              31.42772064               10.80044312               96.72527982                0.00010000               69.26512723               -9.69786440              -17.34840827               46.80444880               96.35733844                5.84808268
              33.05680101               10.16529253               95.91440786                0.00010000               55.27253695               -8.93924904              -14.97836698               58.82096552              110.16278716               -3.64747904
              34.53317137                9.47848974               94.90976805                0.00010000               40.15619752               -8.38502993              -12.63786039               64.72072189              109.85892441              -17.68189236
              35.85992496                8.67571281               93.58347095                0.00010000               27.94513543               -8.16422212              -15.45126744               58.15176308               89.93860694              -38.83186734
              37.09207408                7.63688116               91.76161377                0.00010000               27.41191969               -3.73097183              -38.27556436               34.25289232               49.34400284              -73.21001376
              38.40816336                6.24982029               89.40943742                0.35738996               31.60892744               15.02004588             -109.51209820               18.05734728               22.37573399             -131.03545169
              24.73177278               14.35577384               98.46955030                1.00000000               -0.00179746                0.02545782                0.00294741                0.02806357                0.01223018                0.48798216
              25.73175480               13.78522014               98.05444481                1.00000000                0.00807922               -0.01530686                0.00736487                0.03479877                0.02097613               -0.01499646
              26.73193436               13.21463109               97.63941905                0.00010000               42.72294588               -0.05997852                0.00977834                6.90106750               25.49510319               -0.48372206
              28.58621372               12.78148875               97.73368805                0.00010000               88.65396154              -12.96704973               -6.57698978               17.99024420               67.21509347                4.82780109
              30.50501359               12.24021469               97.26710771                0.00010000               91.69442525              -18.62531941              -18.95655920               22.80915512               80.28951586                5.13449261
              32.42010223               11.64891329               96.53343318                0.00010000               84.60972276              -19.26597316              -19.71822979               32.37917965              101.41623340                1.96540279
              34.19720805               11.02930948               95.62470579                0.00010000               68.94513129              -17.12007929              -17.64011839               41.09207995              115.48607516               -4.33308917
              35.79900485               10.36413366               94.47651736                0.00010000               50.87543290              -13.45499296              -16.25666598               44.05067635              114.92612740              -14.32110355
              37.21471671                9.59899127               92.96108576                0.00010000               34.69171711               -7.42011841              -20.93105923               37.28269041               93.90988986              -29.67078976
              38.49283919                8.65571111               90.90495796                0.00010000               30.37297152                4.46658254              -46.39350983               20.64782495               51.13375822              -54.27898969
              39.82217614                7.48551799               88.27982330                0.35701584               32.93369426               26.49811280             -120.69494520               10.63297652               22.88172113              -92.92498707
              25.30274886               15.35588139               98.32951884                1.00000000                0.00499527                0.00269145               -0.00068747                0.01890454                0.01929674                0.46104502
              26.30279881               14.78505299               97.91187312                0.82804743                0.00997572               -0.01578265                0.00977578                0.02025222                0.04299317               -0.05793262
              27.30294837               14.21414776               97.49469679                0.00010000               46.63622482               -0.03761660                0.02685765               -0.58460521               26.40532419               -0.51058979
              29.23552331               13.63115512               97.60411706                0.00010000               97.86543281              -17.34556516               -7.91254942                3.94330895               69.80836805                0.41786755
              31.26025703               13.01702527               97.12950869                0.00010000              102.53430633              -25.76020372              -20.45113037               12.00540230               83.36789020                0.18268123
              33.28620944               12.41512366               96.36091823                0.00010000               95.15826050              -26.57982626              -21.08450371               22.18230411              104.60950216               -1.32377262
              35.16342224               11.82289094               95.38447156                0.00010000               77.91468369              -22.85507972              -19.21031785               28.95167729              118.35956901               -4.98509015
              36.84450311               11.20938988               94.13418513                0.00010000               57.52895441              -16.58473250              -18.45003782               30.09798105              117.20993418              -11.51261070
              38.31400133               10.52731045               92.48494084                0.00010000               38.70003750               -6.97666464              -24.14582258               24.50075812               95.31894524              -21.95442498
              39.61850386                9.72621281               90.26797998                0.00010000               32.36038935                8.32544628              -50.92613243               13.13530793               51.37325841              -38.29914193
              40.96120912                8.77978255               87.46416880                0.35714493               34.27052563               30.64706281             -126.67519647                6.78004938               22.71274982              -62.93272150
              25.87380767               16.35582766               98.18916658                1.00000000                0.00858108               -0.00574629               -0.00394578                0.01191709                0.02434740                0.42078278
              26.87389348               15.78490449               97.76879899                0.64136909                0.01662332               -0.01109464                0.00035346                0.00875998                0.06284201               -0.12918284
              27.87414014               15.21387876               97.34920415                0.00010000               49.41544550               -0.03051763                0.02784478              -10.38471715               27.68561046               -0.55033256
              29.86220239               14.43457745               97.48084201                0.00010000              104.35064815              -23.45780354               -8.43532388              -12.62052546               73.22525021               -3.39351561
              31.96115310               13.72501061               97.01833567                0.00010000              109.78401253              -33.30627873              -20.62110022                3.72658736               87.20875431               -3.53925623
              34.05788264               13.11731677               96.23899145                0.00010000              101.04111381              -31.63263428              -21.09055745               15.30268061              107.76070570               -3.38557934
              35.98197537               12.57220788               95.22124714                0.00010000               81.93311643              -26.03552825              -19.47355827               20.39287442              120.19764295               -4.80943697
              37.69654497               12.03243901               93.90291325                0.00010000               60.29667813              -18.01162239              -19.21259274               20.21126238              118.03224244               -8.62141535
              39.18790894               11.45945798               92.16417582                0.00010000               40.32641425               -6.57841831              -25.55659941               16.11037613               95.43835048              -15.08694642
              40.50307325               10.82222003               89.84283805                0.00010000               33.13643601               10.33369763              -53.14356849                8.90767899               51.06685229              -24.89493388
              41.85063766               10.09845925               86.92768528                0.35697134               34.75644032               33.27357481             -129.84285208                4.49283863               22.42602773              -39.22273391
              26.44483355               17.35576647               98.04833704                0.97742251                0.00893634               -0.00346337               -0.01747451                0.00586868                0.02261155                0.32196402
              27.44492292               16.78483110               97.62512430                0.40293817                0.03737587               -0.00598316               -0.00769930               -0.01183766                0.13973018               -0.16802823
              28.44558107               16.21353741               97.20420970                0.00010000               51.35290153               -0.12026190               -0.02020012              -23.89880952               30.64598760               -0.52958375
              30.47198095               15.16199905               97.38886131                0.00010000              110.32341945              -36.85931397               -8.23737742              -22.16574295               79.99171360               -4.40225930
              32.65204946               14.35089970               96.97183682                0.00010000              113.65424141              -37.86101457              -18.90017482               -0.60190502               93.63796772               -4.98979629
              34.74506578               13.78247097               96.19987457                0.00010000              100.20540112              -33.59236600              -19.47155624                9.90282330              110.74607710               -3.06473869
              36.65615748               13.30218038               95.16035824                0.00010000               80.82062442              -26.86505068              -18.33548596               11.91087424              120.95996005               -3.05383177
              38.36147826               12.84915743               93.80072476                0.00010000               59.51351754              -18.21712526              -18.45763382               11.04976914              117.71403657               -4.81742928
              39.84642783               12.39574208               92.00818056                0.00010000               39.80889521               -6.25126645              -25.11500471                8.78262672               94.68799573               -8.05693697
              41.15765617               11.93288676               89.62620078                0.00010000               32.60798112               11.08710974              -53.04614190                5.25755128               50.45978342              -12.62473060
              42.49858746               11.44525404               86.65143841                0.35654998               34.09312874               36.55251555             -130.91417586                2.12961582               22.19081001              -18.81955387
              27.01579578               18.35575840               97.90621314                0.94767287                0.00900084               -0.00080719                0.00059906               -0.00113488                0.12899613                0.23962782
              28.01588578               17.78478483               97.48142988                0.61742153                0.16001116               -0.00462766               -0.00840148               -0.11795699                0.36037526               -0.16865376
              29.01899600               17.21147352               97.06117603                0.35886576               63.28197286               -0.20638890                0.01765286              -47.02818992               40.61458513               -1.08815838
              31.28152524               15.69739117               97.42333958                0.36008634              115.48235358              -46.46078775               -5.68775977              -31.22973059               99.07966219              -12.87515490
              33.32864307               14.96779032               97.04943915                0.36076405              101.15665933              -38.31093786              -15.52784335                5.06327497               98.23455820              -10.29319256
              35.30465843               14.44546945               96.28110131                0.36056305               91.24316651              -33.70015270              -17.06018102                9.31509280              110.14503722               -7.18728083
              37.15350640               14.03490687               95.22459616                0.35998184               75.96601100              -26.72735065              -16.31377887               10.86624497              119.43941906               -6.57057796
              38.82397865               13.66809651               93.84469969                0.35895408               56.31628689              -18.10609235              -16.00353461               11.22632736              116.57998962               -7.63913706
              40.27983214               13.33443265               92.03038665                0.35765795               36.73668346               -6.13094319              -21.72541941               12.13371649               93.48132167               -9.41940462
              41.55871232               13.04396223               89.62330930                0.35680454               29.43316398               11.10754622              -48.69256413               14.85946053               49.08027822              -11.20179707
              42.86849542               12.82950956               86.62650754                0.67846096               30.97831006               38.42555174             -126.41030147               15.54552958               21.01531684              -11.84639241
              21.72886407                8.49290102              100.31060040                1.00000000                0.01901237                0.05700320                0.00527745               -0.02510038               -0.09618163                0.12789035
              22.72905419                7.92745238               99.90765240                1.00000000                0.05505159               -0.00099161               -0.00963732               -0.04885510               -0.12170530                0.01671001
              23.72996510                7.36267489               99.50417550                1.00000000                0.09975780               -0.05761329                0.00272612               -0.02455223               -0.13982905                0.00329441
              24.73104935                6.79978617               99.10097161                0.81416970                0.12046827               -0.02846806                0.00388408                0.06177388               -0.11631237                0.00299846
              25.73237446                6.23896032               98.69809345                0.61179845                0.15018473               -0.00999476                0.00578781                0.09527626               -0.02071727               -0.00534496
              26.73405304                5.68042695               98.29627195                0.50256609                0.17237993               -0.04393761                0.02510068                0.08806816                0.22158115                0.03621831
              27.73582206                5.12414567               97.89607882                0.45964569                0.13029970               -0.06172789                0.09863442                0.03911389                0.46933996                0.16933399
              28.73665904                4.56853457               97.49599420                0.44500815                0.01998016               -0.05196435                0.12596698                0.03656296                0.45100833                0.19046050
              29.73622167                4.00968956               97.09352847                0.44186223               -0.06419817               -0.01379023                0.05667635                0.05002724                0.15680162                0.10584162
              30.73537507                3.44538695               96.68637267                0.43888725               -0.00796853                0.01998314               -0.10621107                0.00688268               -0.17382213                0.07995561
              31.73606230                2.87706418               96.27589333                0.72090366                0.06872235               -0.10351727               -0.44136878                0.02166237               -0.33779109               -0.51776403
              22.29406170                9.49347105              100.16916481                1.00000000               -0.03829977                0.12050312                0.01570946               -0.03140665                0.01310979                0.20652478
              23.29367870                8.92744247               99.76620001                1.00000000               -0.02545109                0.01452492                0.01908023               -0.05074484                0.03722791                0.02216601
              24.29355268                8.36209876               99.36386315                1.00000000               -0.00771672               -0.07805998                0.03112018                0.02178874                0.07196971               -0.05873105
              25.29352437                7.79950149               98.96198134                1.00000000               -0.02729205                0.02124256                0.01373216                0.05217286                0.11056158                0.02445059
              26.29300684                7.23886038               98.56028090                0.56838014               -0.05916613                0.02868722               -0.02671042                0.08563126                0.19978952               -0.00531776
              27.29234105                6.67998757               98.15936721                0.28581119               -0.04237247                0.02214524               -0.07441375                0.11019812                0.42117009                0.05333393
              28.29215939                6.12352839               97.75986951                0.17796328                0.09558377               -0.03090917               -0.20300018                0.19398823                0.74665278                0.31076460
              29.29425272                5.56801493               97.36046717                0.13698896                0.30681797               -0.10419050               -0.27901082                0.50162316                1.13391427                0.39857306
              30.29829575                5.00955166               96.96119962                0.10100764                0.37519318               -0.10091285               -0.25946589                1.33861700                1.49872180               -0.02570191
              31.30175659                4.44558678               96.56153332                0.04249100                0.31529685               -0.26207884               -0.19998459                2.98290000                1.43933746               -0.94487644
              32.30460169                3.87602901               96.15518691                0.44019592                0.28450999               -6.33351103               -0.38512896                9.26776326                1.27991137               -7.14909867
              22.86029311               10.49531108              100.02889883                1.00000000               -0.08815198                0.20675847               -0.01344629                0.00906470                0.03275149                0.31765720
              23.85941159                9.92774288               99.62449505                1.00000000               -0.09756310                0.03321119                0.02790329                0.04945954                0.10568283                0.01868352
              24.85834185                9.36111369               99.22187167                0.00010000               -0.20402004               -0.19462521                0.07692558                0.41492446                0.35812616               -0.33882463
              25.85533119                8.80021103               98.82335718                0.00010000               -0.23704180               16.40915030                0.02871336               30.80253460                0.45576300               12.86231780
              26.85360101                8.23953407               98.42272630                0.00010000               -0.18711017               16.99778914               -0.08077773               62.85789927                0.52880512                4.68258117
              27.85158898                7.68086985               98.02344701                0.00010000               -0.09632693               14.88269269               -0.26340166               87.54765173                1.20512163               -0.00023499
              28.85167447                7.12352749               97.62647538                0.00010000                0.45396269               12.45082345               -2.18011543              107.46217077                7.79161781               -5.37958576
              29.86066824                6.56645076               97.22882446                0.00010000                1.68738409                9.89980908               -6.79228855              123.94317772               33.76436540              -11.57664331
              30.88542215                6.00767130               96.82672831                0.00010000                3.39437401                5.19917918              -12.85091841              135.93837314               72.95867451              -23.12020538
              31.92855572                5.44014537               96.41705561                0.00010000                8.75554749               -8.34801979              -16.45848469              135.43212555              115.50354936              -51.34009212
              33.06053310                4.75039396               95.90410979                0.35655609               13.19773853              -76.37997753              -63.01409555              147.69780215              160.89617793             -191.47834434
              23.42937940               11.49760622               99.88898637                1.00000000               -0.05141153                0.20044618               -0.02215687                0.08150907                0.03022993                0.37630535
              24.42886529               10.92810669               99.48219136                1.00000000                0.00018115                0.00901380                0.01357343                0.09809705                0.02862621               -0.00597710
              25.42938303               10.35820625               99.07530390                0.00010000               30.11447001               -0.23311925                0.05649585               17.11647984               13.68313437               -0.48438048
              27.03115469               10.12768450               98.94150955                0.00010000               62.00614857               19.30686670              -28.23451104               69.84216642               95.27609826               29.15079070
              28.66950600                9.57881616               98.37945791                0.00010000               56.40729860               23.30713052              -26.60845514              107.97078628              114.06170016               16.38193992
              30.15930066                8.97764143               97.88749773                0.00010000               44.31579504               21.61860669              -23.30709111              149.65303669              135.08124343                7.54142901
              31.55582190                8.37254486               97.38478855                0.00010000               36.48359039               18.62442835              -19.75875869              184.31774331              147.30019703               -3.29188451
              32.88897247                7.76601111               96.82817129                0.00010000               29.37733522               14.52562706              -16.07163062              209.03607330              154.35219317              -17.18747651
              34.14336860                7.11353524               96.13717981                0.00010000               18.93519850                6.38765797              -11.09475222              217.29148023              150.40598304              -38.19118746
              35.26767644                6.27862639               95.05849012                0.00010000               24.73459749              -18.66697579               -7.67312164              166.39077334              110.34722081              -87.71794258
              36.63806055                4.34842946               92.99300601                0.35668230               37.03841147              -79.58743768              -46.24460119              117.79244519               59.13009009             -215.20293236
              24.00092235               12.49932001               99.74919304                1.00000000               -0.01488578                0.12639058               -0.01461530                0.07732002                0.01274402                0.39662303
              25.00077350               11.92792316               99.33945111                1.00000000                0.00856391               -0.01663704                0.00855481                0.09718405                0.01939282               -0.01379740
              26.00109363               11.35645131               98.92966468                0.00010000               51.53955576               -0.13810567                0.01792372               20.14918030               16.37943647               -0.42473949
              28.03156461               11.18634836               98.84687451                0.00010000              108.09830878               -1.51058102              -37.20195886               57.29946683              106.31708345               13.02671955
              30.16305981               10.70567668               98.26192679                0.00010000              100.96781998                2.51924557              -34.86567999               75.50753286              134.99680201               12.85379401
              32.05092101               10.11324199               97.68115611                0.00010000               79.32999229                4.10809844              -30.00596640              103.13898999              160.96195448                6.68650239
              33.74965965                9.49601606               97.04161985                0.00010000               62.47391583                4.15724850              -24.77650272              128.79421699              174.49040502               -1.96481476
              35.30039933                8.85696330               96.27916318                0.00010000               48.44884141                2.48423997              -19.90212770              145.62764639              178.94345081              -13.67395834
              36.71863648                8.13542446               95.24896083                0.00010000               36.05388182               -2.77296926              -16.22700866              142.00005278              166.37014326              -32.40662855
              38.02147696                7.06680586               93.62774417                0.00010000               27.90696884              -14.37554671              -19.99650157               96.72390419              118.15347176              -65.66336064
              39.27677586                5.15864521               90.93501168                0.35674245               25.52988944                0.60079493              -77.62820007               50.71621690               78.29932692             -139.42180861
              24.57371950               13.50013403               99.60941508                1.00000000               -0.00418359                0.05639240               -0.00440998                0.06658732                0.01228493                0.39092121
              25.57367767               12.92777395               99.19692478                1.00000000                0.01109625               -0.01681102                0.00465967                0.07746861                0.01945338               -0.00495922
              26.57394143               12.35544414               98.78437827                0.00010000               62.71204926               -0.07315768                0.00112064               15.79066754               17.55956138               -0.39270586
              28.82791865               12.09747288               98.72240857                0.00010000              133.94107984              -11.64463214              -44.04014700               39.50463022              111.76962325                6.98640768
              31.25276303               11.62920107               98.11073693                0.00010000              130.19112131              -13.64490942              -40.63244371               48.25747269              141.29990033                7.62938702
              33.43174108               11.05980340               97.46349700                0.00010000              106.76109480              -12.52896507              -34.76417414               66.26742759              169.08378357                4.82819628
              35.38798492               10.45568983               96.69759871                0.00010000               86.51879562              -11.03358756              -28.78900618               85.41545725              182.82241061               -1.00561046
              37.16211699                9.81569591               95.74013092                0.00010000               69.27710910              -10.22256165              -23.98359707               97.52303610              186.40594345               -9.72705233
              38.77352710                9.05807585               94.42900046                0.00010000               50.84083907              -10.62943230              -21.74803414               92.25411206              172.01765635              -23.06342676
              40.17893377                7.99111545               92.43285769                0.00010000               34.75895419               -5.34413714              -29.48242402               57.25831032              122.08241355              -46.34754425
              41.46870619                6.36044536               89.27561162                0.35643045               28.97724144               23.76619707              -91.13831875               31.94553393               79.94110687              -97.07032860
              25.14697427               14.50044785               99.46957815                1.00000000                0.00384910                0.02092048               -0.00108267                0.05413709                0.01027931                0.37718058
              26.14701276               13.92758694               99.05449663                0.87633783                0.01168912               -0.02438220                0.00657549                0.07039534                0.01721706               -0.01830612
              27.14720805               13.35498815               98.63949114                0.00010000               70.04437630               -0.03340530                0.00390085                8.63294391               17.44916345               -0.36088577
              29.54790029               12.95345572               98.57278653                0.00010000              150.93353462              -16.83940961              -48.49770234               23.40933303              113.65648083                2.68123013
              32.16587875               12.43277849               97.94096290                0.00010000              150.09402554              -24.18980779              -44.60520758               31.43902446              144.29200966                3.21953991
              34.54978080               11.86266269               97.24255625                0.00010000              126.80987698              -25.14058672              -38.05606965               45.43320145              172.45310968                1.88445590
              36.70207629               11.27534431               96.37941462                0.00010000              104.93466156              -23.18253367              -31.74230237               59.19589793              186.25378620               -1.56438414
              38.64847403               10.65251207               95.27318002                0.00010000               84.31114483              -20.18488924              -27.07201655               66.14405870              189.63302855               -7.31649301
              40.38829918                9.92283581               93.75907183                0.00010000               60.78998186              -15.11813445              -25.67848703               59.41884976              174.85136729              -16.56138998
              41.86427367                8.95992311               91.51015275                0.00010000               39.43637712               -2.40489907              -34.66383067               35.06884656              123.33106652              -32.42595293
              43.17702672                7.63396915               88.06198163                0.35645586               31.27530568               26.94453218              -96.89268280               19.00435845               80.33397951              -64.44061852
              25.72052408               15.50055244               99.32955825                1.00000000                0.00211931                0.00410285                0.00141534                0.04326677                0.01804807                0.36647395
              26.72054528               14.92728630               98.91194454                0.68341744                0.01037218               -0.03392270                0.00796500                0.08197167                0.04184309               -0.07400795
              27.72073153               14.35477603               98.49482619                0.00010000               74.88848509               -0.04076441               -0.00819257               -0.94548350               17.44807427               -0.39711813
              30.21831498               13.76068469               98.42471337                0.00010000              162.58025091              -22.48221154              -50.90548092                5.20875321              114.88883822               -0.46620936
              32.97233654               13.14540491               97.78392174                0.00010000              163.97621567              -33.35529237              -46.70540983               17.03023557              146.42675578               -0.11087167
              35.49783929               12.55699166               97.05386155                0.00010000              140.48584756              -34.79268500              -39.85691255               31.15389812              174.72414154               -0.38231583
              37.78205350               11.99203916               96.12270533                0.00010000              116.98336831              -31.52957916              -33.49858292               41.34662971              188.20136384               -2.22994794
              39.83750666               11.41199812               94.91063807                0.00010000               93.62197792              -26.18833396              -29.00885580               44.68377479              191.24634408               -5.94676421
              41.65449305               10.75571317               93.25614203                0.00010000               66.58353558              -17.53317169              -27.99557867               38.63684915              175.96175362              -12.17704620
              43.16917737                9.94301747               90.83857817                0.00010000               42.31041156               -1.55236526              -37.34119432               22.12851266              123.62397959              -22.61207295
              44.50070129                8.89933600               87.20512714                0.35663948               33.15239168               25.69423470              -99.33245707               11.98121101               79.99604268              -42.77938917
              26.29437188               16.50052991               99.18922130                1.00000000                0.00567205               -0.01118095                0.00497959                0.02300759                0.01963941                0.33666461
              27.29442860               15.92690848               98.76876993                0.47795293                0.02640589               -0.02659555               -0.00436234                0.07198720                0.07140690               -0.14391992
              28.29490000               15.35417287               98.34931711                0.00010000               78.35089347               -0.13732335               -0.04445596              -13.65443861               18.50225823               -0.48987588
              30.86144647               14.50381149               98.29509027                0.00010000              170.76382407              -31.47182947              -51.25538341              -15.61258765              117.17411401               -3.93022847
              33.71017648               13.76567264               97.67051830                0.00010000              173.23890204              -43.44648312              -46.62954078                6.45479039              149.49796204               -2.36691035
              36.32622451               13.16680899               96.93134427                0.00010000              148.19129666              -41.40753202              -40.00187950               21.55179679              177.07730246               -1.62120284
              38.67400242               12.64475272               95.95638620                0.00010000              122.61255035              -36.10980209              -33.89005834               28.36449529              189.40901611               -2.34525235
              40.77847552               12.12874539               94.67226570                0.00010000               97.80072019              -29.12030010              -29.70485434               28.96777493              191.76955955               -4.72346284
              42.63001682               11.57217238               92.92387340                0.00010000               69.23727814              -18.73297245              -28.94045480               24.35157213              176.07337933               -8.83147327
              44.16322108               10.92887581               90.39706949                0.00010000               43.69985305               -1.44932905              -38.49630673               14.08355022              123.44637387              -15.23075147
              45.50401388               10.14785384               86.64720540                0.35628252               34.07927965               24.87971204             -100.55184099                7.59411145               79.81555726              -27.51855689
              26.86822709               17.50032882               99.04820899                0.76487434                0.01149723               -0.02497295               -0.01253707                0.00979954                0.03085222                0.27352742
              27.86834207               16.92675439               98.62507410                0.22115487                0.12563282               -0.00630604               -0.00802034               -0.04181781                0.12935310               -0.18026775
              28.87073975               16.35202957               98.20363587                0.00010000               81.31106907               -0.79638068               -0.39727510              -31.47852098               22.24077294               -0.68119713
              31.49456345               15.13124810               98.20405848                0.00010000              178.38475505              -49.73564125              -48.78113532              -26.73251064              124.15699950               -6.39398167
              34.43843485               14.27647525               97.64692406                0.00010000              177.76158488              -49.95056255              -44.29795391                0.94057565              155.64616201               -2.92073318
              37.04979515               13.72884102               96.90983003                0.00010000              147.44860725              -44.06034903              -38.24176941               13.64125858              179.03994572               -1.24923006
              39.38740700               13.26984312               95.90614007                0.00010000              121.98236762              -37.45148388              -33.01513913               15.82973947              189.67919489               -1.41937041
              41.48944250               12.82959212               94.57636517                0.00010000               97.69935410              -29.89730850              -29.19323157               14.97893413              191.23905973               -2.80266444
              43.34139408               12.38105372               92.77108933                0.00010000               69.28622060              -19.03996831              -28.54802994               12.36682174              175.50646105               -5.14006117
              44.87516691               11.91403089               90.18209589                0.00010000               43.66166834               -1.62163377              -38.17438591                7.45745166              122.95941504               -8.26114942
              46.21462745               11.39693024               86.36242359                0.35651887               33.94605356               25.47306686             -100.83126987                3.80233946               79.58547720              -14.48778469
              27.44171674               18.50003045               98.90636107                0.82325383                0.01747688               -0.02983714                0.02213658                0.02415498                0.13041536                0.23185798
              28.44189150               17.92678236               98.48131526                0.49977840                0.95595712                0.00279675               -0.02941301               -0.73431626                0.39213880               -0.19275155
              29.46083588               17.33824525               98.06078030                0.35869195               98.02295364               -1.37843162               -3.95512277              -61.87457227               45.97829119               -6.74059971
              32.40235058               15.50909866               98.26206321                0.35922617              183.52795972              -62.21494368              -43.24129042              -37.80048008              143.05126850              -18.87275570
              35.13139507               14.76666139               97.76364629                0.35963202              160.16656205              -50.98138604              -39.12756478                8.12118934              158.45576719               -8.24060272
              37.60568182               14.28560201               97.01303638                0.35971174              137.92255155              -44.32390152              -36.01176728               12.04175004              177.44063534               -6.07528007
              39.88984610               13.89572305               95.98659441                0.35923057              118.05808940              -37.41200735              -31.69854519               12.50377148              188.67679601               -6.24345154
              41.96684361               13.53079922               94.64148560                0.35905226               95.15341924              -29.87929016              -27.55549090               12.52260932              191.63826948               -8.26521097
              43.79291449               13.19137301               92.82575658                0.35794346               66.48249924              -18.96807019              -25.73933273               13.43423663              176.13109545              -12.05498141
              45.29649359               12.89644313               90.22063953                0.35680928               41.06737371               -1.75877549              -34.94156877               15.42977648              123.34709279              -13.85614362
              46.61426196               12.65731518               86.38027137                0.67842866               31.77683713               26.03849384              -97.76857436               16.05065643               80.76420627              -17.89655277
              22.13138895                8.63497916              101.31050139                1.00000000                0.01800785                0.06737646               -0.00990016               -0.03257157               -0.05174044                0.06588172
              23.13156903                8.06879231              100.90745911                1.00000000                0.05025124                0.01998631               -0.01932934               -0.09111090               -0.07125738                0.01677693
              24.13239397                7.50287942              100.50404658                1.00000000                0.09098828               -0.02162198               -0.01289253               -0.11635422               -0.08723256                0.02908993
              25.13338879                6.93887020              100.10085671                1.00000000                0.13559568               -0.03079721               -0.01148972               -0.00897940               -0.07315642                0.02809135
              26.13510589                6.37710111               99.69790456                1.00000000                0.23724216               -0.02521572               -0.01888884                0.10495228                0.04170596                0.02636767
              27.13813363                5.81872202               99.29622799                1.00000000                0.33828681               -0.05922937               -0.00439567                0.29525777                0.35449725                0.04023767
              28.14187162                5.26410579               98.89683332                1.00000000                0.28018096                0.00857029                0.07545028                0.41656669                0.64304496               -0.00533819
              29.14373725                4.70825614               98.49698977                1.00000000                0.12631175                0.03230944                0.09955695                0.44489094                0.56210583               -0.05426157
              30.14439786                4.14475744               98.09391900                1.00000000                0.08226334               -0.03939803                0.03905271                0.31686252                0.26195845               -0.07394677
              31.14538252                3.57208629               97.68587656                1.00000000                0.10332958               -0.02890104               -0.04961049                0.16937758               -0.03821463               -0.00795932
              32.14646445                2.99358310               97.27313981                1.00000000                0.10819281               -0.13394038               -0.27535170                0.27025253               -0.23345947               -0.53077901
              22.69725008                9.63565292              101.16908207                1.00000000               -0.05422953                0.13580396               -0.00827421                0.00716450                0.03932591                0.11879524
              23.69670779                9.06899217              100.76628695                1.00000000               -0.05292999                0.05644514                0.00869420               -0.04572779                0.05545201                0.01766557
              24.69619148                8.50266320              100.36413295                1.00000000               -0.02598163               -0.01768582                0.02698028               -0.05222310                0.05221233               -0.00309144
              25.69618815                7.93856223               99.96205360                1.00000000                0.00190093                0.00567527                0.00722612               -0.02754759                0.06110365                0.05083292
              26.69622950                7.37684895               99.56002746                1.00000000                0.06978588               -0.00785104               -0.02534427                0.14206869                0.13635108                0.00422697
              27.69758387                6.81812973               99.15833530                1.00000000                0.25203635               -0.07956649               -0.10319122                0.76952181                0.36390092               -0.03999612
              28.70127023                6.26419149               98.75681983                1.00000000                0.51382311               -0.35303190               -0.30496792                7.09992120                0.83059825               -1.57098387
              29.70786033                5.70857924               98.35672559                1.00000000                0.71905894                1.33140700               -0.37415860               32.62612198                1.42535209               -6.01965989
              30.71565141                5.14436346               97.95811165                1.00000000                0.74015677                4.74916892               -0.30879763               71.53489129                1.85416753              -12.33404650
              31.72266347                4.57179728               97.55909763                1.00000000                0.60093804               11.27323077               -0.24356981              118.88397061                1.75076121              -16.34706388
              32.72767017                3.99224370               97.15131311                1.00000000                0.50066982              -44.95337182               -0.38738021              169.33021773                1.52839626              -63.67099423
              23.26485374               10.63769524              101.02851356                1.00000000               -0.12095468                0.22994980               -0.03852719                0.17477903                0.07600853                0.21175262
              24.26364419               10.06992121              100.62471301                1.00000000               -0.15371457                0.08395302                0.02179555                0.19650909                0.14037612                0.01527168
              25.26177945                9.50252570              100.22285587                1.00000000               -0.24960520               -0.09809397                0.09841997                0.46414236                0.29570459               -0.27169285
              26.25865209                8.93898371               99.82375190                1.00000000               -0.16998421               25.85931996                0.03947115              107.36681996                0.28989457              -14.47541217
              27.25837977                8.37694408               99.42201196                1.00000000                0.37647194               23.02682823               -0.07143487              157.28013854                0.24746887              -13.62034607
              28.26618153                7.81713069               99.01914376                1.00000000                6.75203850               21.76756519               -0.43032421              189.00506275               -0.43697053              -16.01598463
              29.39342054                7.25704515               98.58408746                1.00000000               32.49530944               20.25729715               -4.23879252              217.06516135                7.99081624              -19.61191130
              30.91608772                6.73488428               98.09546796                1.00000000               65.92285504               20.76826143              -13.33564972              243.43811899               55.21829795              -22.61604676
              32.71187764                6.23974082               97.57761445                1.00000000               87.95469922               24.90585045              -24.91138565              271.39299409              133.19786430              -28.96667062
              34.67518170                5.79755091               97.10651428                1.00000000               99.01491703               23.71977578              -31.05413326              239.80166233              184.14640361              -45.59184657
              36.69217598                4.09451566               95.76729056                1.00000000              101.69942747              -39.26206896             -113.68192260              193.84662982              229.24191506             -236.58290087
              23.83629372               11.64025192              100.88854882                1.00000000               -0.04862123                0.21701907               -0.04375498                0.33452591                0.06012232                0.28447098
              24.83580750               11.07067123              100.48223572                1.00000000                0.00590575                0.02846854                0.00443609                0.37366217                0.06053452               -0.00381495
              25.83641183               10.50070132              100.07587507                1.00000000              106.66493335               -0.18377354                0.05711671               26.72563395              -13.65890633               -0.40066726
              28.96910617               10.45574863               99.39499999                1.00000000              156.36367298               24.04439279              -54.65095625              151.66638562              140.64141980                1.43491061
              30.96368529                9.83738551               99.01280050                1.00000000               81.42389457               29.40454688              -36.66574126              206.27317459              187.94262681               -4.61565093
              32.59758406                9.25348103               98.56549393                1.00000000               58.05672857               29.17353360              -32.20038001              263.25452684              198.06562957               -8.07766074
              34.12481986                8.66933743               98.09754629                1.00000000               49.81714881               29.94714290              -28.72422662              303.38396424              207.00198051              -13.22361409
              35.59392704                8.12394446               97.56753761                1.00000000               47.80123997               30.57555919              -26.06336717              322.17970312              211.35010246              -18.77663442
              37.08084466                7.64248047               96.91463919                1.00000000               53.49974190               29.12908360              -22.25406183              319.96327174              211.99320653              -25.68593473
              38.66392188                7.04619280               95.93244962                1.00000000               46.49142963               12.25724308              -12.60404994              247.41237728              180.46316889              -57.08359700
              40.01067325                5.20700232               93.73141169                1.00000000               34.67513778                0.97798147              -26.15943238              163.39010140              117.15747678             -136.42068795
              24.41070563               12.64203562              100.74891158                1.00000000               -0.00375970                0.12768139               -0.02814535                0.34613579                0.03793233                0.30948071
              25.41066804               12.07049058              100.33950763                1.00000000                0.02545476               -0.02284043                0.00565206                0.36965401                0.03649452               -0.00712796
              26.41121473               11.49885023               99.92985239                1.00000000              127.23137861               -0.15172812                0.01877107               24.99361133              -16.14717946               -0.33614173
              29.95529561               11.41987156               99.19632185                1.00000000              208.74480646               -7.57181952              -65.05526611               65.37072234              136.50849140                2.14095532
              32.58611086               10.96503502               98.81256023                1.00000000              137.20122683                1.28488905              -44.93665632               88.67262738              197.78457990                4.80674801
              34.69932015               10.40060136               98.30591134                1.00000000              100.22627631                4.10629386              -37.52447647              125.79517251              210.51340386                1.96105741
              36.59063638                9.85598801               97.72603004                1.00000000               84.36092965                6.90240612              -31.55898144              162.87947759              219.00553408               -1.94873258
              38.38653874                9.34639547               97.00406856                1.00000000               79.91291764                8.29936940              -27.50946141              195.11479738              222.61270379               -7.92885898
              40.18889474                8.82232250               96.00600529                1.00000000               83.61843333                3.09264051              -24.29555382              211.15034822              218.30787317              -19.61664278
              42.05890741                8.04269577               94.42970952                1.00000000               72.47321154              -10.93355485              -19.80346558              165.74710529              169.52933384              -40.43522577
              43.63835897                6.11407529               91.32173109                1.00000000               57.94515628               -1.27792735              -61.32805958              122.67817038              125.36046787             -111.69402389
              24.98630651               13.64280555              100.60930720                1.00000000                0.00794651                0.05693297               -0.01078776                0.31267621                0.02381135                0.29800441
              25.98638597               13.07021442              100.19695831                1.00000000                0.02982840               -0.03281599                0.00335358                0.31896637                0.02318963               -0.00251768
              26.98690307               12.49766676               99.78435439                1.00000000              141.19749275               -0.09423843               -0.00238837               19.27554092              -20.01311702               -0.29550491
              30.81033583               12.30431224               98.97077268                1.00000000              238.47524834              -14.35315078              -75.16358858               48.39962539              138.53493660               -0.94545579
              33.75640804               11.86308329               98.59021877                1.00000000              170.60993504              -16.68071733              -52.05181585               58.31339384              203.32568431                1.51038874
              36.22253453               11.33560691               98.02999633                1.00000000              134.01036342              -15.21817501              -43.35006662               83.78474102              216.49979305                0.90037312
              38.43661531               10.80738555               97.33862774                1.00000000              115.36769847              -14.15364173              -35.89709739              112.76742828              224.86802768               -1.63894270
              40.52988850               10.28993185               96.43009611                1.00000000              108.54680059              -14.95494077              -31.00348055              136.12086017              227.27127710               -6.02598254
              42.60755132                9.70433328               95.14851027                1.00000000              107.86113442              -19.08502973              -28.04901897              141.17332166              220.49588057              -13.29872088
              44.68711119                8.82752170               93.17196529                1.00000000               85.69631474              -22.06121030              -26.08924000              103.73768990              172.72578025              -27.26078376
              46.32147762                7.18144377               89.58667105                1.00000000               63.43664311                7.65574084              -68.89405789               69.73415645              126.74771898              -66.88823098
              25.56214141               14.64317428              100.46952864                1.00000000                0.00447485                0.03810901               -0.00495076                0.26753551                0.02148152                0.28463969
              26.56218615               14.06983426              100.05457632                1.00000000                0.02431621               -0.04574446                0.00796932                0.28864759                0.01576019               -0.02156219
              27.56262773               13.49696546               99.63949706                1.00000000              149.78427130               -0.06436624                0.00059206               10.76061176              -23.00014817               -0.29334161
              31.55787158               13.13280855               98.76373401                1.00000000              257.92281694              -20.23925239              -80.90525257               28.41619525              137.77245381               -1.30297856
              34.72108407               12.63142068               98.37500355                1.00000000              193.64205621              -28.89154242              -56.59593460               38.33326201              205.94942119                0.12330471
              37.43071270               12.09623786               97.77231178                1.00000000              158.52879677              -30.84587938              -47.02444666               58.04343209              218.83599996                0.04669966
              39.89166000               11.57291517               96.98985974                1.00000000              139.06477541              -30.30325798              -38.95548739               79.25582381              227.09663414               -1.44930524
              42.21200821               11.04729665               95.93507703                1.00000000              129.15556588              -29.92814711              -33.81029906               93.69057656              229.23623196               -4.32594715
              44.47477132               10.44062190               94.44751602                1.00000000              122.22712528              -29.26826697              -31.15558107               92.59599469              222.47742982               -9.39544116
              46.65655072                9.60147156               92.21168134                1.00000000               92.52133194              -22.02335428              -29.84714053               64.07276813              173.95038669              -18.38561478
              48.32519796                8.26719011               88.34196965                1.00000000               66.86472425                7.87636144              -72.00119858               41.89957542              127.84595395              -42.13547360
              26.13833725               15.64356773              100.32954715                1.00000000                0.00304891                0.03679695               -0.00111000                0.22126977                0.02984362                0.28840471
              27.13836774               15.06929953               99.91203242                1.00000000                0.04018863               -0.04688685                0.00878828                0.29256778                0.03153573               -0.09190610
              28.13914102               14.49637943               99.49453294                1.00000000              155.29183899               -0.08469507               -0.02932485               -0.72675550              -24.46029901               -0.39876208
              32.24420452               13.89952719               98.58600745                1.00000000              271.02514733              -27.80903885              -83.87059283                5.77424587              137.63233204               -1.51573285
              35.55964397               13.28525245               98.19540049                1.00000000              209.88520768              -40.83752927              -58.85212459               20.64681964              207.61936918               -0.47818198
              38.44190867               12.71868932               97.56377998                1.00000000              175.55145139              -43.36568140              -49.00815721               39.94580134              220.36190850               -0.49813041
              41.07067300               12.20132040               96.71449990                1.00000000              154.70423132              -41.55235342              -40.82054340               55.51269266              228.37335175               -1.39256487
              43.53599330               11.69136891               95.55400801                1.00000000              141.73116522              -38.75269952              -35.66300611               63.50441482              230.37513280               -3.37596468
              45.90529630               11.11896794               93.92502927                1.00000000              130.30025204              -33.63703471              -33.11127551               60.27435621              223.43772895               -6.78198642
              48.14199834               10.38705462               91.52115609                1.00000000               96.13678661              -21.36921387              -31.74220775               40.60605364              174.90661641              -12.53475675
              49.82803203                9.33897100               87.47751966                1.00000000               68.60336940                6.18007756              -72.76074818               26.26558931              128.36943124              -27.30255970
              26.71510319               16.64391022              100.18926617                1.00000000                0.01226173                0.02647588                0.00448722                0.16778693                0.01768774                0.26498781
              27.71522581               16.06889652               99.76871174                1.00000000                0.13808870               -0.03095580               -0.00581894                0.25383532                0.03216291               -0.15462208
              28.71786496               15.49527156               99.34831503                1.00000000              158.46288400               -0.39645773               -0.10020845              -15.99988129              -23.35237420               -0.80356748
              32.88448349               14.57662777               98.45573434                1.00000000              279.84966868              -41.61903596              -83.93559327              -20.64866210              139.17519241               -1.35681345
              36.31485834               13.81467009               98.08574485                1.00000000              221.45386481              -54.29477012              -58.47734445                7.59268228              209.62916138               -0.57639280
              39.31356078               13.22892423               97.43895386                1.00000000              185.71879655              -52.14475253              -49.23904143               27.59690090              221.61868293               -0.22551521
              42.02923427               12.74186810               96.54344598                1.00000000              162.54440893              -47.88678155              -41.29402287               37.79258343              229.01630025               -1.01068400
              44.56444896               12.27224266               95.30881616                1.00000000              147.76692372              -43.37423322              -36.34495407               40.56649997              230.69338152               -2.50766739
              46.98457274               11.76788121               93.58536673                1.00000000              134.21098891              -36.39551299              -33.85066757               37.36873302              223.66037987               -4.81958269
              49.24866874               11.17408729               91.07291192                1.00000000               98.10521205              -22.14804395              -32.41575686               25.32111629              175.10885203               -8.40100375
              50.94667698               10.39079166               86.91664846                1.00000000               69.80082439                4.17306874              -73.05569365               16.75091549              128.63996438              -17.84155058
              27.29172037               17.64409724              100.04808630                1.00000000                0.03627277                0.00905889               -0.01226949                0.12794301                0.03708770                0.24632733
              28.29208310               17.06868042               99.62496389                1.00000000                0.98458878               -0.02245252               -0.01102102               -0.07817208               -0.21700138               -0.20090359
              29.31141215               16.48845028               99.19626420                1.00000000              160.98748233               -6.64494511               -0.73716714              -28.07925165              -16.51902443               -4.67000134
              33.51183275               15.06714647               98.41323860                1.00000000              287.38945019              -68.63505884              -79.08198782              -36.69460478              146.20760744               -1.27119078
              37.05920115               14.19935704               98.08587774                1.00000000              227.74079644              -62.25681448              -56.10463136                2.02873535              213.16665912                1.34532948
              40.06664868               13.67579427               97.43503918                1.00000000              186.20025428              -55.56865453              -47.47908474               18.05949775              222.39423912                0.79092996
              42.78320624               13.24358476               96.50005546                1.00000000              162.73307589              -49.63694726              -40.60846086               20.87244045              228.67097160               -0.26687128
              45.32131020               12.82388425               95.21686013                1.00000000              148.38100480              -44.98456195              -35.95050429               20.03029157              230.04499506               -1.33210252
              47.75082634               12.39105768               93.43721997                1.00000000              135.21000085              -39.19413381              -33.38693661               17.94684363              223.23587269               -2.48793996
              50.02551021               11.94409374               90.86271306                1.00000000               98.94076301              -24.21676067              -31.93828223               12.69226634              174.91398260               -4.41541508
              51.72964160               11.42243237               86.63481301                1.00000000               70.41313836                2.25456370              -72.76105764                8.72580712              128.71140985               -9.72540738
              27.86849570               18.64409140               99.90665588                1.00000000                0.08136291               -0.00058493                0.02948050                0.11314058                0.09647130                0.26305232
              28.86930933               18.06844747               99.48084162                1.00000000               14.46590861               -0.02329435               -0.04736389               -6.36331398               -3.48733220               -0.24571553
              30.15781387               17.36237266               98.98207358                1.00000000              178.51876469              -12.60776184               -7.87067217              -58.58587162               23.58140696              -19.00632084
              34.43968462               15.20392660               98.55851377                1.00000000              279.44856870              -86.32198780              -70.35494411              -46.85675539              167.97411863              -15.98968979
              37.74678525               14.56953380               98.26688786                1.00000000              209.54191954              -62.98232425              -49.67584312               14.43963670              211.65662720               -1.61174748
              40.63052302               14.11755114               97.56086596                1.00000000              177.59039253              -55.82431258              -45.21704150               15.36720164              218.67098977               -4.22240790
              43.29859310               13.74912916               96.59062526                1.00000000              159.35294278              -49.44556060              -39.59691499               14.28869973              227.51089466               -5.60240877
              45.81758187               13.37255142               95.29358987                1.00000000              146.23535124              -45.13328253              -34.78957349               11.37063616              231.32256313               -8.15180583
              48.22330012               12.98399853               93.51559999                1.00000000              132.67787532              -40.70591543              -31.01565840               13.10741135              224.58296623              -12.89944569
              50.47113938               12.68975207               90.92447792                1.00000000               97.06078643              -25.43416636              -29.61616049               17.15713666              175.24138166              -14.49262031
              52.16451585               12.43588293               86.67113605                1.00000000               69.33764745                1.34505614              -70.91353198               18.10051171              129.69120204              -18.51092054
         1          2         13         12        122        123        134        133  
         2          3         14         13        123        124        135        134  
         3          4         15         14        124        125        136        135  
         4          5         16         15        125        126        137        136  
         5          6         17         16        126        127        138        137  
         6          7         18         17        127        128        139        138  
         7          8         19         18        128        129        140        139  
         8          9         20         19        129        130        141        140  
         9         10         21         20        130        131        142        141  
        10         11         22         21        131        132        143        142  
        12         13         24         23        133        134        145        144  
        13         14         25         24        134        135        146        145  
        14         15         26         25        135        136        147        146  
        15         16         27         26        136        137        148        147  
        16         17         28         27        137        138        149        148  
        17         18         29         28        138        139        150        149  
        18         19         30         29        139        140        151        150  
        19         20         31         30        140        141        152        151  
        20         21         32         31        141        142        153        152  
        21         22         33         32        142        143        154        153  
        23         24         35         34        144        145        156        155  
        24         25         36         35        145        146        157        156  
        25         26         37         36        146        147        158        157  
        26         27         38         37        147        148        159        158  
        27         28         39         38        148        149        160        159  
        28         29         40         39        149        150        161        160  
        29         30         41         40        150        151        162        161  
        30         31         42         41        151        152        163        162  
        31         32         43         42        152        153        164        163  
        32         33         44         43        153        154        165        164  
        34         35         46         45        155        156        167        166  
        35         36         47         46        156        157        168        167  
        36         37         48         47        157        158        169        168  
        37         38         49         48        158        159        170        169  
        38         39         50         49        159        160        171        170  
        39         40         51         50        160        161        172        171  
        40         41         52         51        161        162        173        172  
        41         42         53         52        162        163        174        173  
        42         43         54         53        163        164        175        174  
        43         44         55         54        164        165        176        175  
        45         46         57         56        166        167        178        177  
        46         47         58         57        167        168        179        178  
        47         48         59         58        168        169        180        179  
        48         49         60         59        169        170        181        180  
        49         50         61         60        170        171        182        181  
        50         51         62         61        171        172        183        182  
        51         52         63         62        172        173        184        183  
        52         53         64         63        173        174        185        184  
        53         54         65         64        174        175        186        185  
        54         55         66         65        175        176        187        186  
        56         57         68         67        177        178        189        188  
        57         58         69         68        178        179        190        189  
        58         59         70         69        179        180        191        190  
        59         60         71         70        180        181        192        191  
        60         61         72         71        181        182        193        192  
        61         62         73         72        182        183        194        193  
        62         63         74         73        183        184        195        194  
        63         64         75         74        184        185        196        195  
        64         65         76         75        185        186        197        196  
        65         66         77         76        186        187        198        197  
        67         68         79         78        188        189        200        199  
        68         69         80         79        189        190        201        200  
        69         70         81         80        190        191        202        201  
        70         71         82         81        191        192        203        202  
        71         72         83         82        192        193        204        203  
        72         73         84         83        193        194        205        204  
        73         74         85         84        194        195        206        205  
        74         75         86         85        195        196        207        206  
        75         76         87         86        196        197        208        207  
        76         77         88         87        197        198        209        208  
        78         79         90         89        199        200        211        210  
        79         80         91         90        200        201        212        211  
        80         81         92         91        201        202        213        212  
        81         82         93         92        202        203        214        213  
        82         83         94         93        203        204        215        214  
        83         84         95         94        204        205        216        215  
        84         85         96         95        205        206        217        216  
        85         86         97         96        206        207        218        217  
        86         87         98         97        207        208        219        218  
        87         88         99         98        208        209        220        219  
        89         90        101        100        210        211        222        221  
        90         91        102        101        211        212        223        222  
        91         92        103        102        212        213        224        223  
        92         93        104        103        213        214        225        224  
        93         94        105        104        214        215        226        225  
        94         95        106        105        215        216        227        226  
        95         96        107        106        216        217        228        227  
        96         97        108        107        217        218        229        228  
        97         98        109        108        218        219        230        229  
        98         99        110        109        219        220        231        230  
       100        101        112        111        221        222        233        232  
       101        102        113        112        222        223        234        233  
       102        103        114        113        223        224        235        234  
       103        104        115        114        224        225        236        235  
       104        105        116        115        225        226        237        236  
       105        106        117        116        226        227        238        237  
       106        107        118        117        227        228        239        238  
       107        108        119        118        228        229        240        239  
       108        109        120        119        229        230        241        240  
       109        110        121        120        230        231        242        241  
       122        123        134        133        243        244        255        254  
       123        124        135        134        244        245        256        255  
       124        125        136        135        245        246        257        256  
       125        126        137        136        246        247        258        257  
       126        127        138        137        247        248        259        258  
       127        128        139        138        248        249        260        259  
       128        129        140        139        249        250        261        260  
       129        130        141        140        250        251        262        261  
       130        131        142        141        251        252        263        262  
       131        132        143        142        252        253        264        263  
       133        134        145        144        254        255        266        265  
       134        135        146        145        255        256        267        266  
       135        136        147        146        256        257        268        267  
       136        137        148        147        257        258        269        268  
       137        138        149        148        258        259        270        269  
       138        139        150        149        259        260        271        270  
       139        140        151        150        260        261        272        271  
       140        141        152        151        261        262        273        272  
       141        142        153        152        262        263        274        273  
       142        143        154        153        263        264        275        274  
       144        145        156        155        265        266        277        276  
       145        146        157        156        266        267        278        277  
       146        147        158        157        267        268        279        278  
       147        148        159        158        268        269        280        279  
       148        149        160        159        269        270        281        280  
       149        150        161        160        270        271        282        281  
       150        151        162        161        271        272        283        282  
       151        152        163        162        272        273        284        283  
       152        153        164        163        273        274        285        284  
       153        154        165        164        274        275        286        285  
       155        156        167        166        276        277        288        287  
       156        157        168        167        277        278        289        288  
       157        158        169        168        278        279        290        289  
       158        159        170        169        279        280        291        290  
       159        160        171        170        280        281        292        291  
       160        161        172        171        281        282        293        292  
       161        162        173        172        282        283        294        293  
       162        163        174        173        283        284        295        294  
       163        164        175        174        284        285        296        295  
       164        165        176        175        285        286        297        296  
       166        167        178        177        287        288        299        298  
       167        168        179        178        288        289        300        299  
       168        169        180        179        289        290        301        300  
       169        170        181        180        290        291        302        301  
       170        171        182        181        291        292        303        302  
       171        172        183        182        292        293        304        303  
       172        173        184        183        293        294        305        304  
       173        174        185        184        294        295        306        305  
       174        175        186        185        295        296        307        306  
       175        176        187        186        296        297        308        307  
       177        178        189        188        298        299        310        309  
       178        179        190        189        299        300        311        310  
       179        180        191        190        300        301        312        311  
       180        181        192        191        301        302        313        312  
       181        182        193        192        302        303        314        313  
       182        183        194        193        303        304        315        314  
       183        184        195        194        304        305        316        315  
       184        185        196        195        305        306        317        316  
       185        186        197        196        306        307        318        317  
       186        187        198        197        307        308        319        318  
       188        189        200        199        309        310        321        320  
       189        190        201        200        310        311        322        321  
       190        191        202        201        311        312        323        322  
       191        192        203        202        312        313        324        323  
       192        193        204        203        313        314        325        324  
       193        194        205        204        314        315        326        325  
       194        195        206        205        315        316        327        326  
       195        196        207        206        316        317        328        327  
       196        197        208        207        317        318        329        328  
       197        198        209        208        318        319        330        329  
       199        200        211        210        320        321        332        331  
       200        201        212        211        321        322        333        332  
       201        202        213        212        322        323        334        333  
       202        203        214        213        323        324        335        334  
       203        204        215        214        324        325        336        335  
       204        205        216        215        325        326        337        336  
       205        206        217        216        326        327        338        337  
       206        207        218        217        327        328        339        338  
       207        208        219        218        328        329        340        339  
       208        209        220        219        329        330        341        340  
       210        211        222        221        331        332        343        342  
       211        212        223        222        332        333        344        343  
       212        213        224        223        333        334        345        344  
       213        214        225        224        334        335        346        345  
       214        215        226        225        335        336        347        346  
       215        216        227        226        336        337        348        347  
       216        217        228        227        337        338        349        348  
       217        218        229        228        338        339        350        349  
       218        219        230        229        339        340        351        350  
       219        220        231        230        340        341        352        351  
       221        222        233        232        342        343        354        353  
       222        223        234        233        343        344        355        354  
       223        224        235        234        344        345        356        355  
       224        225        236        235        345        346        357        356  
       225        226        237        236        346        347        358        357  
       226        227        238        237        347        348        359        358  
       227        228        239        238        348        349        360        359  
       228        229        240        239        349        350        361        360  
       229        230        241        240        350        351        362        361  
       230        231        242        241        351        352        363        362  
       243        244        255        254        364        365        376        375  
       244        245        256        255        365        366        377        376  
       245        246        257        256        366        367        378        377  
       246        247        258        257        367        368        379        378  
       247        248        259        258        368        369        380        379  
       248        249        260        259        369        370        381        380  
       249        250        261        260        370        371        382        381  
       250        251        262        261        371        372        383        382  
       251        252        263        262        372        373        384        383  
       252        253        264        263        373        374        385        384  
       254        255        266        265        375        376        387        386  
       255        256        267        266        376        377        388        387  
       256        257        268        267        377        378        389        388  
       257        258        269        268        378        379        390        389  
       258        259        270        269        379        380        391        390  
       259        260        271        270        380        381        392        391  
       260        261        272        271        381        382        393        392  
       261        262        273        272        382        383        394        393  
       262        263        274        273        383        384        395        394  
       263        264        275        274        384        385        396        395  
       265        266        277        276        386        387        398        397  
       266        267        278        277        387        388        399        398  
       267        268        279        278        388        389        400        399  
       268        269        280        279        389        390        401        400  
       269        270        281        280        390        391        402        401  
       270        271        282        281        391        392        403        402  
       271        272        283        282        392        393        404        403  
       272        273        284        283        393        394        405        404  
       273        274        285        284        394        395        406        405  
       274        275        286        285        395        396        407        406  
       276        277        288        287        397        398        409        408  
       277        278        289        288        398        399        410        409  
       278        279        290        289        399        400        411        410  
       279        280        291        290        400        401        412        411  
       280        281        292        291        401        402        413        412  
       281        282        293        292        402        403        414        413  
       282        283        294        293        403        404        415        414  
       283        284        295        294        404        405        416        415  
       284        285        296        295        405        406        417        416  
       285        286        297        296        406        407        418        417  
       287        288        299        298        408        409        420        419  
       288        289        300        299        409        410        421        420  
       289        290        301        300        410        411        422        421  
       290        291        302        301        411        412        423        422  
       291        292        303        302        412        413        424        423  
       292        293        304        303        413        414        425        424  
       293        294        305        304        414        415        426        425  
       294        295        306        305        415        416        427        426  
       295        296        307        306        416        417        428        427  
       296        297        308        307        417        418        429        428  
       298        299        310        309        419        420        431        430  
       299        300        311        310        420        421        432        431  
       300        301        312        311        421        422        433        432  
       301        302        313        312        422        423        434        433  
       302        303        314        313        423        424        435        434  
       303        304        315        314        424        425        436        435  
       304        305        316        315        425        426        437        436  
       305        306        317        316        426        427        438        437  
       306        307        318        317        427        428        439        438  
       307        308        319        318        428        429        440        439  
       309        310        321        320        430        431        442        441  
       310        311        322        321        431        432        443        442  
       311        312        323        322        432        433        444        443  
       312        313        324        323        433        434        445        444  
       313        314        325        324        434        435        446        445  
       314        315        326        325        435        436        447        446  
       315        316        327        326        436        437        448        447  
       316        317        328        327        437        438        449        448  
       317        318        329        328        438        439        450        449  
       318        319        330        329        439        440        451        450  
       320        321        332        331        441        442        453        452  
       321        322        333        332        442        443        454        453  
       322        323        334        333        443        444        455        454  
       323        324        335        334        444        445        456        455  
       324        325        336        335        445        446        457        456  
       325        326        337        336        446        447        458        457  
       326        327        338        337        447        448        459        458  
       327        328        339        338        448        449        460        459  
       328        329        340        339        449        450        461        460  
       329        330        341        340        450        451        462        461  
       331        332        343        342        452        453        464        463  
       332        333        344        343        453        454        465        464  
       333        334        345        344        454        455        466        465  
       334        335        346        345        455        456        467        466  
       335        336        347        346        456        457        468        467  
       336        337        348        347        457        458        469        468  
       337        338        349        348        458        459        470        469  
       338        339        350        349        459        460        471        470  
       339        340        351        350        460        461        472        471  
       340        341        352        351        461        462        473        472  
       342        343        354        353        463        464        475        474  
       343        344        355        354        464        465        476        475  
       344        345        356        355        465        466        477        476  
       345        346        357        356        466        467        478        477  
       346        347        358        357        467        468        479        478  
       347        348        359        358        468        469        480        479  
       348        349        360        359        469        470        481        480  
       349        350        361        360        470        471        482        481  
       350        351        362        361        471        472        483        482  
       351        352        363        362        472        473        484        483  
       364        365        376        375        485        486        497        496  
       365        366        377        376        486        487        498        497  
       366        367        378        377        487        488        499        498  
       367        368        379        378        488        489        500        499  
       368        369        380        379        489        490        501        500  
       369        370        381        380        490        491        502        501  
       370        371        382        381        491        492        503        502  
       371        372        383        382        492        493        504        503  
       372        373        384        383        493        494        505        504  
       373        374        385        384        494        495        506        505  
       375        376        387        386        496        497        508        507  
       376        377        388        387        497        498        509        508  
       377        378        389        388        498        499        510        509  
       378        379        390        389        499        500        511        510  
       379        380        391        390        500        501        512        511  
       380        381        392        391        501        502        513        512  
       381        382        393        392        502        503        514        513  
       382        383        394        393        503        504        515        514  
       383        384        395        394        504        505        516        515  
       384        385        396        395        505        506        517        516  
       386        387        398        397        507        508        519        518  
       387        388        399        398        508        509        520        519  
       388        389        400        399        509        510        521        520  
       389        390        401        400        510        511        522        521  
       390        391        402        401        511        512        523        522  
       391        392        403        402        512        513        524        523  
       392        393        404        403        513        514        525        524  
       393        394        405        404        514        515        526        525  
       394        395        406        405        515        516        527        526  
       395        396        407        406        516        517        528        527  
       397        398        409        408        518        519        530        529  
       398        399        410        409        519        520        531        530  
       399        400        411        410        520        521        532        531  
       400        401        412        411        521        522        533        532  
       401        402        413        412        522        523        534        533  
       402        403        414        413        523        524        535        534  
       403        404        415        414        524        525        536        535  
       404        405        416        415        525        526        537        536  
       405        406        417        416        526        527        538        537  
       406        407        418        417        527        528        539        538  
       408        409        420        419        529        530        541        540  
       409        410        421        420        530        531        542        541  
       410        411        422        421        531        532        543        542  
       411        412        423        422        532        533        544        543  
       412        413        424        423        533        534        545        544  
       413        414        425        424        534        535        546        545  
       414        415        426        425        535        536        547        546  
       415        416        427        426        536        537        548        547  
       416        417        428        427        537        538        549        548  
       417        418        429        428        538        539        550        549  
       419        420        431        430        540        541        552        551  
       420        421        432        431        541        542        553        552  
       421        422        433        432        542        543        554        553  
       422        423        434        433        543        544        555        554  
       423        424        435        434        544        545        556        555  
       424        425        436        435        545        546        557        556  
       425        426        437        436        546        547        558        557  
       426        427        438        437        547        548        559        558  
       427        428        439        438        548        549        560        559  
       428        429        440        439        549        550        561        560  
       430        431        442        441        551        552        563        562  
       431        432        443        442        552        553        564        563  
       432        433        444        443        553        554        565        564  
       433        434        445        444        554        555        566        565  
       434        435        446        445        555        556        567        566  
       435        436        447        446        556        557        568        567  
       436        437        448        447        557        558        569        568  
       437        438        449        448        558        559        570        569  
       438        439        450        449        559        560        571        570  
       439        440        451        450        560        561        572        571  
       441        442        453        452        562        563        574        573  
       442        443        454        453        563        564        575        574  
       443        444        455        454        564        565        576        575  
       444        445        456        455        565        566        577        576  
       445        446        457        456        566        567        578        577  
       446        447        458        457        567        568        579        578  
       447        448        459        458        568        569        580        579  
       448        449        460        459        569        570        581        580  
       449        450        461        460        570        571        582        581  
       450        451        462        461        571        572        583        582  
       452        453        464        463        573        574        585        584  
       453        454        465        464        574        575        586        585  
       454        455        466        465        575        576        587        586  
       455        456        467        466        576        577        588        587  
       456        457        468        467        577        578        589        588  
       457        458        469        468        578        579        590        589  
       458        459        470        469        579        580        591        590  
       459        460        471        470        580        581        592        591  
       460        461        472        471        581        582        593        592  
       461        462        473        472        582        583        594        593  
       463        464        475        474        584        585        596        595  
       464        465        476        475        585        586        597        596  
       465        466        477        476        586        587        598        597  
       466        467        478        477        587        588        599        598  
       467        468        479        478        588        589        600        599  
       468        469        480        479        589        590        601        600  
       469        470        481        480        590        591        602        601  
       470        471        482        481        591        592        603        602  
       471        472        483        482        592        593        604        603  
       472        473        484        483        593        594        605        604  
       485        486        497        496        606        607        618        617  
       486        487        498        497        607        608        619        618  
       487        488        499        498        608        609        620        619  
       488        489        500        499        609        610        621        620  
       489        490        501        500        610        611        622        621  
       490        491        502        501        611        612        623        622  
       491        492        503        502        612        613        624        623  
       492        493        504        503        613        614        625        624  
       493        494        505        504        614        615        626        625  
       494        495        506        505        615        616        627        626  
       496        497        508        507        617        618        629        628  
       497        498        509        508        618        619        630        629  
       498        499        510        509        619        620        631        630  
       499        500        511        510        620        621        632        631  
       500        501        512        511        621        622        633        632  
       501        502        513        512        622        623        634        633  
       502        503        514        513        623        624        635        634  
       503        504        515        514        624        625        636        635  
       504        505        516        515        625        626        637        636  
       505        506        517        516        626        627        638        637  
       507        508        519        518        628        629        640        639  
       508        509        520        519        629        630        641        640  
       509        510        521        520        630        631        642        641  
       510        511        522        521        631        632        643        642  
       511        512        523        522        632        633        644        643  
       512        513        524        523        633        634        645        644  
       513        514        525        524        634        635        646        645  
       514        515        526        525        635        636        647        646  
       515        516        527        526        636        637        648        647  
       516        517        528        527        637        638        649        648  
       518        519        530        529        639        640        651        650  
       519        520        531        530        640        641        652        651  
       520        521        532        531        641        642        653        652  
       521        522        533        532        642        643        654        653  
       522        523        534        533        643        644        655        654  
       523        524        535        534        644        645        656        655  
       524        525        536        535        645        646        657        656  
       525        526        537        536        646        647        658        657  
       526        527        538        537        647        648        659        658  
       527        528        539        538        648        649        660        659  
       529        530        541        540        650        651        662        661  
       530        531        542        541        651        652        663        662  
       531        532        543        542        652        653        664        663  
       532        533        544        543        653        654        665        664  
       533        534        545        544        654        655        666        665  
       534        535        546        545        655        656        667        666  
       535        536        547        546        656        657        668        667  
       536        537        548        547        657        658        669        668  
       537        538        549        548        658        659        670        669  
       538        539        550        549        659        660        671        670  
       540        541        552        551        661        662        673        672  
       541        542        553        552        662        663        674        673  
       542        543        554        553        663        664        675        674  
       543        544        555        554        664        665        676        675  
       544        545        556        555        665        666        677        676  
       545        546        557        556        666        667        678        677  
       546        547        558        557        667        668        679        678  
       547        548        559        558        668        669        680        679  
       548        549        560        559        669        670        681        680  
       549        550        561        560        670        671        682        681  
       551        552        563        562        672        673        684        683  
       552        553        564        563        673        674        685        684  
       553        554        565        564        674        675        686        685  
       554        555        566        565        675        676        687        686  
       555        556        567        566        676        677        688        687  
       556        557        568        567        677        678        689        688  
       557        558        569        568        678        679        690        689  
       558        559        570        569        679        680        691        690  
       559        560        571        570        680        681        692        691  
       560        561        572        571        681        682        693        692  
       562        563        574        573        683        684        695        694  
       563        564        575        574        684        685        696        695  
       564        565        576        575        685        686        697        696  
       565        566        577        576        686        687        698        697  
       566        567        578        577        687        688        699        698  
       567        568        579        578        688        689        700        699  
       568        569        580        579        689        690        701        700  
       569        570        581        580        690        691        702        701  
       570        571        582        581        691        692        703        702  
       571        572        583        582        692        693        704        703  
       573        574        585        584        694        695        706        705  
       574        575        586        585        695        696        707        706  
       575        576        587        586        696        697        708        707  
       576        577        588        587        697        698        709        708  
       577        578        589        588        698        699        710        709  
       578        579        590        589        699        700        711        710  
       579        580        591        590        700        701        712        711  
       580        581        592        591        701        702        713        712  
       581        582        593        592        702        703        714        713  
       582        583        594        593        703        704        715        714  
       584        585        596        595        705        706        717        716  
       585        586        597        596        706        707        718        717  
       586        587        598        597        707        708        719        718  
       587        588        599        598        708        709        720        719  
       588        589        600        599        709        710        721        720  
       589        590        601        600        710        711        722        721  
       590        591        602        601        711        712        723        722  
       591        592        603        602        712        713        724        723  
       592        593        604        603        713        714        725        724  
       593        594        605        604        714        715        726        725  
       606        607        618        617        727        728        739        738  
       607        608        619        618        728        729        740        739  
       608        609        620        619        729        730        741        740  
       609        610        621        620        730        731        742        741  
       610        611        622        621        731        732        743        742  
       611        612        623        622        732        733        744        743  
       612        613        624        623        733        734        745        744  
       613        614        625        624        734        735        746        745  
       614        615        626        625        735        736        747        746  
       615        616        627        626        736        737        748        747  
       617        618        629        628        738        739        750        749  
       618        619        630        629        739        740        751        750  
       619        620        631        630        740        741        752        751  
       620        621        632        631        741        742        753        752  
       621        622        633        632        742        743        754        753  
       622        623        634        633        743        744        755        754  
       623        624        635        634        744        745        756        755  
       624        625        636        635        745        746        757        756  
       625        626        637        636        746        747        758        757  
       626        627        638        637        747        748        759        758  
       628        629        640        639        749        750        761        760  
       629        630        641        640        750        751        762        761  
       630        631        642        641        751        752        763        762  
       631        632        643        642        752        753        764        763  
       632        633        644        643        753        754        765        764  
       633        634        645        644        754        755        766        765  
       634        635        646        645        755        756        767        766  
       635        636        647        646        756        757        768        767  
       636        637        648        647        757        758        769        768  
       637        638        649        648        758        759        770        769  
       639        640        651        650        760        761        772        771  
       640        641        652        651        761        762        773        772  
       641        642        653        652        762        763        774        773  
       642        643        654        653        763        764        775        774  
       643        644        655        654        764        765        776        775  
       644        645        656        655        765        766        777        776  
       645        646        657        656        766        767        778        777  
       646        647        658        657        767        768        779        778  
       647        648        659        658        768        769        780        779  
       648        649        660        659        769        770        781        780  
       650        651        662        661        771        772        783        782  
       651        652        663        662        772        773        784        783  
       652        653        664        663        773        774        785        784  
       653        654        665        664        774        775        786        785  
       654        655        666        665        775        776        787        786  
       655        656        667        666        776        777        788        787  
       656        657        668        667        777        778        789        788  
       657        658        669        668        778        779        790        789  
       658        659        670        669        779        780        791        790  
       659        660        671        670        780        781        792        791  
       661        662        673        672        782        783        794        793  
       662        663        674        673        783        784        795        794  
       663        664        675        674        784        785        796        795  
       664        665        676        675        785        786        797        796  
       665        666        677        676        786        787        798        797  
       666        667        678        677        787        788        799        798  
       667        668        679        678        788        789        800        799  
       668        669        680        679        789        790        801        800  
       669        670        681        680        790        791        802        801  
       670        671        682        681        791        792        803        802  
       672        673        684        683        793        794        805        804  
       673        674        685        684        794        795        806        805  
       674        675        686        685        795        796        807        806  
       675        676        687        686        796        797        808        807  
       676        677        688        687        797        798        809        808  
       677        678        689        688        798        799        810        809  
       678        679        690        689        799        800        811        810  
       679        680        691        690        800        801        812        811  
       680        681        692        691        801        802        813        812  
       681        682        693        692        802        803        814        813  
       683        684        695        694        804        805        816        815  
       684        685        696        695        805        806        817        816  
       685        686        697        696        806        807        818        817  
       686        687        698        697        807        808        819        818  
       687        688        699        698        808        809        820        819  
       688        689        700        699        809        810        821        820  
       689        690        701        700        810        811        822        821  
       690        691        702        701        811        812        823        822  
       691        692        703        702        812        813        824        823  
       692        693        704        703        813        814        825        824  
       694        695        706        705        815        816        827        826  
       695        696        707        706        816        817        828        827  
       696        697        708        707        817        818        829        828  
       697        698        709        708        818        819        830        829  
       698        699        710        709        819        820        831        830  
       699        700        711        710        820        821        832        831  
       700        701        712        711        821        822        833        832  
       701        702        713        712        822        823        834        833  
       702        703        714        713        823        824        835        834  
       703        704        715        714        824        825        836        835  
       705        706        717        716        826        827        838        837  
       706        707        718        717        827        828        839        838  
       707        708        719        718        828        829        840        839  
       708        709        720        719        829        830        841        840  
       709        710        721        720        830        831        842        841  
       710        711        722        721        831        832        843        842  
       711        712        723        722        832        833        844        843  
       712        713        724        723        833        834        845        844  
       713        714        725        724        834        835        846        845  
       714        715        726        725        835        836        847        846  
       727        728        739        738        848        849        860        859  
       728        729        740        739        849        850        861        860  
       729        730        741        740        850        851        862        861  
       730        731        742        741        851        852        863        862  
       731        732        743        742        852        853        864        863  
       732        733        744        743        853        854        865        864  
       733        734        745        744        854        855        866        865  
       734        735        746        745        855        856        867        866  
       735        736        747        746        856        857        868        867  
       736        737        748        747        857        858        869        868  
       738        739        750        749        859        860        871        870  
       739        740        751        750        860        861        872        871  
       740        741        752        751        861        862        873        872  
       741        742        753        752        862        863        874        873  
       742        743        754        753        863        864        875        874  
       743        744        755        754        864        865        876        875  
       744        745        756        755        865        866        877        876  
       745        746        757        756        866        867        878        877  
       746        747        758        757        867        868        879        878  
       747        748        759        758        868        869        880        879  
       749        750        761        760        870        871        882        881  
       750        751        762        761        871        872        883        882  
       751        752        763        762        872        873        884        883  
       752        753        764        763        873        874        885        884  
       753        754        765        764        874        875        886        885  
       754        755        766        765        875        876        887        886  
       755        756        767        766        876        877        888        887  
       756        757        768        767        877        878        889        888  
       757        758        769        768        878        879        890        889  
       758        759        770        769        879        880        891        890  
       760        761        772        771        881        882        893        892  
       761        762        773        772        882        883        894        893  
       762        763        774        773        883        884        895        894  
       763        764        775        774        884        885        896        895  
       764        765        776        775        885        886        897        896  
       765        766        777        776        886        887        898        897  
       766        767        778        777        887        888        899        898  
       767        768        779        778        888        889        900        899  
       768        769        780        779        889        890        901        900  
       769        770        781        780        890        891        902        901  
       771        772        783        782        892        893        904        903  
       772        773        784        783        893        894        905        904  
       773        774        785        784        894        895        906        905  
       774        775        786        785        895        896        907        906  
       775        776        787        786        896        897        908        907  
       776        777        788        787        897        898        909        908  
       777        778        789        788        898        899        910        909  
       778        779        790        789        899        900        911        910  
       779        780        791        790        900        901        912        911  
       780        781        792        791        901        902        913        912  
       782        783        794        793        903        904        915        914  
       783        784        795        794        904        905        916        915  
       784        785        796        795        905        906        917        916  
       785        786        797        796        906        907        918        917  
       786        787        798        797        907        908        919        918  
       787        788        799        798        908        909        920        919  
       788        789        800        799        909        910        921        920  
       789        790        801        800        910        911        922        921  
       790        791        802        801        911        912        923        922  
       791        792        803        802        912        913        924        923  
       793        794        805        804        914        915        926        925  
       794        795        806        805        915        916        927        926  
       795        796        807        806        916        917        928        927  
       796        797        808        807        917        918        929        928  
       797        798        809        808        918        919        930        929  
       798        799        810        809        919        920        931        930  
       799        800        811        810        920        921        932        931  
       800        801        812        811        921        922        933        932  
       801        802        813        812        922        923        934        933  
       802        803        814        813        923        924        935        934  
       804        805        816        815        925        926        937        936  
       805        806        817        816        926        927        938        937  
       806        807        818        817        927        928        939        938  
       807        808        819        818        928        929        940        939  
       808        809        820        819        929        930        941        940  
       809        810        821        820        930        931        942        941  
       810        811        822        821        931        932        943        942  
       811        812        823        822        932        933        944        943  
       812        813        824        823        933        934        945        944  
       813        814        825        824        934        935        946        945  
       815        816        827        826        936        937        948        947  
       816        817        828        827        937        938        949        948  
       817        818        829        828        938        939        950        949  
       818        819        830        829        939        940        951        950  
       819        820        831        830        940        941        952        951  
       820        821        832        831        941        942        953        952  
       821        822        833        832        942        943        954        953  
       822        823        834        833        943        944        955        954  
       823        824        835        834        944        945        956        955  
       824        825        836        835        945        946        957        956  
       826        827        838        837        947        948        959        958  
       827        828        839        838        948        949        960        959  
       828        829        840        839        949        950        961        960  
       829        830        841        840        950        951        962        961  
       830        831        842        841        951        952        963        962  
       831        832        843        842        952        953        964        963  
       832        833        844        843        953        954        965        964  
       833        834        845        844        954        955        966        965  
       834        835        846        845        955        956        967        966  
       835        836        847        846        956        957        968        967  
       848        849        860        859        969        970        981        980  
       849        850        861        860        970        971        982        981  
       850        851        862        861        971        972        983        982  
       851        852        863        862        972        973        984        983  
       852        853        864        863        973        974        985        984  
       853        854        865        864        974        975        986        985  
       854        855        866        865        975        976        987        986  
       855        856        867        866        976        977        988        987  
       856        857        868        867        977        978        989        988  
       857        858        869        868        978        979        990        989  
       859        860        871        870        980        981        992        991  
       860        861        872        871        981        982        993        992  
       861        862        873        872        982        983        994        993  
       862        863        874        873        983        984        995        994  
       863        864        875        874        984        985        996        995  
       864        865        876        875        985        986        997        996  
       865        866        877        876        986        987        998        997  
       866        867        878        877        987        988        999        998  
       867        868        879        878        988        989       1000        999  
       868        869        880        879        989        990       1001       1000  
       870        871        882        881        991        992       1003       1002  
       871        872        883        882        992        993       1004       1003  
       872        873        884        883        993        994       1005       1004  
       873        874        885        884        994        995       1006       1005  
       874        875        886        885        995        996       1007       1006  
       875        876        887        886        996        997       1008       1007  
       876        877        888        887        997        998       1009       1008  
       877        878        889        888        998        999       1010       1009  
       878        879        890        889        999       1000       1011       1010  
       879        880        891        890       1000       1001       1012       1011  
       881        882        893        892       1002       1003       1014       1013  
       882        883        894        893       1003       1004       1015       1014  
       883        884        895        894       1004       1005       1016       1015  
       884        885        896        895       1005       1006       1017       1016  
       885        886        897        896       1006       1007       1018       1017  
       886        887        898        897       1007       1008       1019       1018  
       887        888        899        898       1008       1009       1020       1019  
       888        889        900        899       1009       1010       1021       1020  
       889        890        901        900       1010       1011       1022       1021  
       890        891        902        901       1011       1012       1023       1022  
       892        893        904        903       1013       1014       1025       1024  
       893        894        905        904       1014       1015       1026       1025  
       894        895        906        905       1015       1016       1027       1026  
       895        896        907        906       1016       1017       1028       1027  
       896        897        908        907       1017       1018       1029       1028  
       897        898        909        908       1018       1019       1030       1029  
       898        899        910        909       1019       1020       1031       1030  
       899        900        911        910       1020       1021       1032       1031  
       900        901        912        911       1021       1022       1033       1032  
       901        902        913        912       1022       1023       1034       1033  
       903        904        915        914       1024       1025       1036       1035  
       904        905        916        915       1025       1026       1037       1036  
       905        906        917        916       1026       1027       1038       1037  
       906        907        918        917       1027       1028       1039       1038  
       907        908        919        918       1028       1029       1040       1039  
       908        909        920        919       1029       1030       1041       1040  
       909        910        921        920       1030       1031       1042       1041  
       910        911        922        921       1031       1032       1043       1042  
       911        912        923        922       1032       1033       1044       1043  
       912        913        924        923       1033       1034       1045       1044  
       914        915        926        925       1035       1036       1047       1046  
       915        916        927        926       1036       1037       1048       1047  
       916        917        928        927       1037       1038       1049       1048  
       917        918        929        928       1038       1039       1050       1049  
       918        919        930        929       1039       1040       1051       1050  
       919        920        931        930       1040       1041       1052       1051  
       920        921        932        931       1041       1042       1053       1052  
       921        922        933        932       1042       1043       1054       1053  
       922        923        934        933       1043       1044       1055       1054  
       923        924        935        934       1044       1045       1056       1055  
       925        926        937        936       1046       1047       1058       1057  
       926        927        938        937       1047       1048       1059       1058  
       927        928        939        938       1048       1049       1060       1059  
       928        929        940        939       1049       1050       1061       1060  
       929        930        941        940       1050       1051       1062       1061  
       930        931        942        941       1051       1052       1063       1062  
       931        932        943        942       1052       1053       1064       1063  
       932        933        944        943       1053       1054       1065       1064  
       933        934        945        944       1054       1055       1066       1065  
       934        935        946        945       1055       1056       1067       1066  
       936        937        948        947       1057       1058       1069       1068  
       937        938        949        948       1058       1059       1070       1069  
       938        939        950        949       1059       1060       1071       1070  
       939        940        951        950       1060       1061       1072       1071  
       940        941        952        951       1061       1062       1073       1072  
       941        942        953        952       1062       1063       1074       1073  
       942        943        954        953       1063       1064       1075       1074  
       943        944        955        954       1064       1065       1076       1075  
       944        945        956        955       1065       1066       1077       1076  
       945        946        957        956       1066       1067       1078       1077  
       947        948        959        958       1068       1069       1080       1079  
       948        949        960        959       1069       1070       1081       1080  
       949        950        961        960       1070       1071       1082       1081  
       950        951        962        961       1071       1072       1083       1082  
       951        952        963        962       1072       1073       1084       1083  
       952        953        964        963       1073       1074       1085       1084  
       953        954        965        964       1074       1075       1086       1085  
       954        955        966        965       1075       1076       1087       1086  
       955        956        967        966       1076       1077       1088       1087  
       956        957        968        967       1077       1078       1089       1088  
       969        970        981        980       1090       1091       1102       1101  
       970        971        982        981       1091       1092       1103       1102  
       971        972        983        982       1092       1093       1104       1103  
       972        973        984        983       1093       1094       1105       1104  
       973        974        985        984       1094       1095       1106       1105  
       974        975        986        985       1095       1096       1107       1106  
       975        976        987        986       1096       1097       1108       1107  
       976        977        988        987       1097       1098       1109       1108  
       977        978        989        988       1098       1099       1110       1109  
       978        979        990        989       1099       1100       1111       1110  
       980        981        992        991       1101       1102       1113       1112  
       981        982        993        992       1102       1103       1114       1113  
       982        983        994        993       1103       1104       1115       1114  
       983        984        995        994       1104       1105       1116       1115  
       984        985        996        995       1105       1106       1117       1116  
       985        986        997        996       1106       1107       1118       1117  
       986        987        998        997       1107       1108       1119       1118  
       987        988        999        998       1108       1109       1120       1119  
       988        989       1000        999       1109       1110       1121       1120  
       989        990       1001       1000       1110       1111       1122       1121  
       991        992       1003       1002       1112       1113       1124       1123  
       992        993       1004       1003       1113       1114       1125       1124  
       993        994       1005       1004       1114       1115       1126       1125  
       994        995       1006       1005       1115       1116       1127       1126  
       995        996       1007       1006       1116       1117       1128       1127  
       996        997       1008       1007       1117       1118       1129       1128  
       997        998       1009       1008       1118       1119       1130       1129  
       998        999       1010       1009       1119       1120       1131       1130  
       999       1000       1011       1010       1120       1121       1132       1131  
      1000       1001       1012       1011       1121       1122       1133       1132  
      1002       1003       1014       1013       1123       1124       1135       1134  
      1003       1004       1015       1014       1124       1125       1136       1135  
      1004       1005       1016       1015       1125       1126       1137       1136  
      1005       1006       1017       1016       1126       1127       1138       1137  
      1006       1007       1018       1017       1127       1128       1139       1138  
      1007       1008       1019       1018       1128       1129       1140       1139  
      1008       1009       1020       1019       1129       1130       1141       1140  
      1009       1010       1021       1020       1130       1131       1142       1141  
      1010       1011       1022       1021       1131       1132       1143       1142  
      1011       1012       1023       1022       1132       1133       1144       1143  
      1013       1014       1025       1024       1134       1135       1146       1145  
      1014       1015       1026       1025       1135       1136       1147       1146  
      1015       1016       1027       1026       1136       1137       1148       1147  
      1016       1017       1028       1027       1137       1138       1149       1148  
      1017       1018       1029       1028       1138       1139       1150       1149  
      1018       1019       1030       1029       1139       1140       1151       1150  
      1019       1020       1031       1030       1140       1141       1152       1151  
      1020       1021       1032       1031       1141       1142       1153       1152  
      1021       1022       1033       1032       1142       1143       1154       1153  
      1022       1023       1034       1033       1143       1144       1155       1154  
      1024       1025       1036       1035       1145       1146       1157       1156  
      1025       1026       1037       1036       1146       1147       1158       1157  
      1026       1027       1038       1037       1147       1148       1159       1158  
      1027       1028       1039       1038       1148       1149       1160       1159  
      1028       1029       1040       1039       1149       1150       1161       1160  
      1029       1030       1041       1040       1150       1151       1162       1161  
      1030       1031       1042       1041       1151       1152       1163       1162  
      1031       1032       1043       1042       1152       1153       1164       1163  
      1032       1033       1044       1043       1153       1154       1165       1164  
      1033       1034       1045       1044       1154       1155       1166       1165  
      1035       1036       1047       1046       1156       1157       1168       1167  
      1036       1037       1048       1047       1157       1158       1169       1168  
      1037       1038       1049       1048       1158       1159       1170       1169  
      1038       1039       1050       1049       1159       1160       1171       1170  
      1039       1040       1051       1050       1160       1161       1172       1171  
      1040       1041       1052       1051       1161       1162       1173       1172  
      1041       1042       1053       1052       1162       1163       1174       1173  
      1042       1043       1054       1053       1163       1164       1175       1174  
      1043       1044       1055       1054       1164       1165       1176       1175  
      1044       1045       1056       1055       1165       1166       1177       1176  
      1046       1047       1058       1057       1167       1168       1179       1178  
      1047       1048       1059       1058       1168       1169       1180       1179  
      1048       1049       1060       1059       1169       1170       1181       1180  
      1049       1050       1061       1060       1170       1171       1182       1181  
      1050       1051       1062       1061       1171       1172       1183       1182  
      1051       1052       1063       1062       1172       1173       1184       1183  
      1052       1053       1064       1063       1173       1174       1185       1184  
      1053       1054       1065       1064       1174       1175       1186       1185  
      1054       1055       1066       1065       1175       1176       1187       1186  
      1055       1056       1067       1066       1176       1177       1188       1187  
      1057       1058       1069       1068       1178       1179       1190       1189  
      1058       1059       1070       1069       1179       1180       1191       1190  
      1059       1060       1071       1070       1180       1181       1192       1191  
      1060       1061       1072       1071       1181       1182       1193       1192  
      1061       1062       1073       1072       1182       1183       1194       1193  
      1062       1063       1074       1073       1183       1184       1195       1194  
      1063       1064       1075       1074       1184       1185       1196       1195  
      1064       1065       1076       1075       1185       1186       1197       1196  
      1065       1066       1077       1076       1186       1187       1198       1197  
      1066       1067       1078       1077       1187       1188       1199       1198  
      1068       1069       1080       1079       1189       1190       1201       1200  
      1069       1070       1081       1080       1190       1191       1202       1201  
      1070       1071       1082       1081       1191       1192       1203       1202  
      1071       1072       1083       1082       1192       1193       1204       1203  
      1072       1073       1084       1083       1193       1194       1205       1204  
      1073       1074       1085       1084       1194       1195       1206       1205  
      1074       1075       1086       1085       1195       1196       1207       1206  
      1075       1076       1087       1086       1196       1197       1208       1207  
      1076       1077       1088       1087       1197       1198       1209       1208  
      1077       1078       1089       1088       1198       1199       1210       1209  
      1090       1091       1102       1101       1211       1212       1223       1222  
      1091       1092       1103       1102       1212       1213       1224       1223  
      1092       1093       1104       1103       1213       1214       1225       1224  
      1093       1094       1105       1104       1214       1215       1226       1225  
      1094       1095       1106       1105       1215       1216       1227       1226  
      1095       1096       1107       1106       1216       1217       1228       1227  
      1096       1097       1108       1107       1217       1218       1229       1228  
      1097       1098       1109       1108       1218       1219       1230       1229  
      1098       1099       1110       1109       1219       1220       1231       1230  
      1099       1100       1111       1110       1220       1221       1232       1231  
      1101       1102       1113       1112       1222       1223       1234       1233  
      1102       1103       1114       1113       1223       1224       1235       1234  
      1103       1104       1115       1114       1224       1225       1236       1235  
      1104       1105       1116       1115       1225       1226       1237       1236  
      1105       1106       1117       1116       1226       1227       1238       1237  
      1106       1107       1118       1117       1227       1228       1239       1238  
      1107       1108       1119       1118       1228       1229       1240       1239  
      1108       1109       1120       1119       1229       1230       1241       1240  
      1109       1110       1121       1120       1230       1231       1242       1241  
      1110       1111       1122       1121       1231       1232       1243       1242  
      1112       1113       1124       1123       1233       1234       1245       1244  
      1113       1114       1125       1124       1234       1235       1246       1245  
      1114       1115       1126       1125       1235       1236       1247       1246  
      1115       1116       1127       1126       1236       1237       1248       1247  
      1116       1117       1128       1127       1237       1238       1249       1248  
      1117       1118       1129       1128       1238       1239       1250       1249  
      1118       1119       1130       1129       1239       1240       1251       1250  
      1119       1120       1131       1130       1240       1241       1252       1251  
      1120       1121       1132       1131       1241       1242       1253       1252  
      1121       1122       1133       1132       1242       1243       1254       1253  
      1123       1124       1135       1134       1244       1245       1256       1255  
      1124       1125       1136       1135       1245       1246       1257       1256  
      1125       1126       1137       1136       1246       1247       1258       1257  
      1126       1127       1138       1137       1247       1248       1259       1258  
      1127       1128       1139       1138       1248       1249       1260       1259  
      1128       1129       1140       1139       1249       1250       1261       1260  
      1129       1130       1141       1140       1250       1251       1262       1261  
      1130       1131       1142       1141       1251       1252       1263       1262  
      1131       1132       1143       1142       1252       1253       1264       1263  
      1132       1133       1144       1143       1253       1254       1265       1264  
      1134       1135       1146       1145       1255       1256       1267       1266  
      1135       1136       1147       1146       1256       1257       1268       1267  
      1136       1137       1148       1147       1257       1258       1269       1268  
      1137       1138       1149       1148       1258       1259       1270       1269  
      1138       1139       1150       1149       1259       1260       1271       1270  
      1139       1140       1151       1150       1260       1261       1272       1271  
      1140       1141       1152       1151       1261       1262       1273       1272  
      1141       1142       1153       1152       1262       1263       1274       1273  
      1142       1143       1154       1153       1263       1264       1275       1274  
      1143       1144       1155       1154       1264       1265       1276       1275  
      1145       1146       1157       1156       1266       1267       1278       1277  
      1146       1147       1158       1157       1267       1268       1279       1278  
      1147       1148       1159       1158       1268       1269       1280       1279  
      1148       1149       1160       1159       1269       1270       1281       1280  
      1149       1150       1161       1160       1270       1271       1282       1281  
      1150       1151       1162       1161       1271       1272       1283       1282  
      1151       1152       1163       1162       1272       1273       1284       1283  
      1152       1153       1164       1163       1273       1274       1285       1284  
      1153       1154       1165       1164       1274       1275       1286       1285  
      1154       1155       1166       1165       1275       1276       1287       1286  
      1156       1157       1168       1167       1277       1278       1289       1288  
      1157       1158       1169       1168       1278       1279       1290       1289  
      1158       1159       1170       1169       1279       1280       1291       1290  
      1159       1160       1171       1170       1280       1281       1292       1291  
      1160       1161       1172       1171       1281       1282       1293       1292  
      1161       1162       1173       1172       1282       1283       1294       1293  
      1162       1163       1174       1173       1283       1284       1295       1294  
      1163       1164       1175       1174       1284       1285       1296       1295  
      1164       1165       1176       1175       1285       1286       1297       1296  
      1165       1166       1177       1176       1286       1287       1298       1297  
      1167       1168       1179       1178       1288       1289       1300       1299  
      1168       1169       1180       1179       1289       1290       1301       1300  
      1169       1170       1181       1180       1290       1291       1302       1301  
      1170       1171       1182       1181       1291       1292       1303       1302  
      1171       1172       1183       1182       1292       1293       1304       1303  
      1172       1173       1184       1183       1293       1294       1305       1304  
      1173       1174       1185       1184       1294       1295       1306       1305  
      1174       1175       1186       1185       1295       1296       1307       1306  
      1175       1176       1187       1186       1296       1297       1308       1307  
      1176       1177       1188       1187       1297       1298       1309       1308  
      1178       1179       1190       1189       1299       1300       1311       1310  
      1179       1180       1191       1190       1300       1301       1312       1311  
      1180       1181       1192       1191       1301       1302       1313       1312  
      1181       1182       1193       1192       1302       1303       1314       1313  
      1182       1183       1194       1193       1303       1304       1315       1314  
      1183       1184       1195       1194       1304       1305       1316       1315  
      1184       1185       1196       1195       1305       1306       1317       1316  
      1185       1186       1197       1196       1306       1307       1318       1317  
      1186       1187       1198       1197       1307       1308       1319       1318  
      1187       1188       1199       1198       1308       1309       1320       1319  
      1189       1190       1201       1200       1310       1311       1322       1321  
      1190       1191       1202       1201       1311       1312       1323       1322  
      1191       1192       1203       1202       1312       1313       1324       1323  
      1192       1193       1204       1203       1313       1314       1325       1324  
      1193       1194       1205       1204       1314       1315       1326       1325  
      1194       1195       1206       1205       1315       1316       1327       1326  
      1195       1196       1207       1206       1316       1317       1328       1327  
      1196       1197       1208       1207       1317       1318       1329       1328  
      1197       1198       1209       1208       1318       1319       1330       1329  
      1198       1199       1210       1209       1319       1320       1331       1330  
      1211       1212       1223       1222       1332       1333       1344       1343  
      1212       1213       1224       1223       1333       1334       1345       1344  
      1213       1214       1225       1224       1334       1335       1346       1345  
      1214       1215       1226       1225       1335       1336       1347       1346  
      1215       1216       1227       1226       1336       1337       1348       1347  
      1216       1217       1228       1227       1337       1338       1349       1348  
      1217       1218       1229       1228       1338       1339       1350       1349  
      1218       1219       1230       1229       1339       1340       1351       1350  
      1219       1220       1231       1230       1340       1341       1352       1351  
      1220       1221       1232       1231       1341       1342       1353       1352  
      1222       1223       1234       1233       1343       1344       1355       1354  
      1223       1224       1235       1234       1344       1345       1356       1355  
      1224       1225       1236       1235       1345       1346       1357       1356  
      1225       1226       1237       1236       1346       1347       1358       1357  
      1226       1227       1238       1237       1347       1348       1359       1358  
      1227       1228       1239       1238       1348       1349       1360       1359  
      1228       1229       1240       1239       1349       1350       1361       1360  
      1229       1230       1241       1240       1350       1351       1362       1361  
      1230       1231       1242       1241       1351       1352       1363       1362  
      1231       1232       1243       1242       1352       1353       1364       1363  
      1233       1234       1245       1244       1354       1355       1366       1365  
      1234       1235       1246       1245       1355       1356       1367       1366  
      1235       1236       1247       1246       1356       1357       1368       1367  
      1236       1237       1248       1247       1357       1358       1369       1368  
      1237       1238       1249       1248       1358       1359       1370       1369  
      1238       1239       1250       1249       1359       1360       1371       1370  
      1239       1240       1251       1250       1360       1361       1372       1371  
      1240       1241       1252       1251       1361       1362       1373       1372  
      1241       1242       1253       1252       1362       1363       1374       1373  
      1242       1243       1254       1253       1363       1364       1375       1374  
      1244       1245       1256       1255       1365       1366       1377       1376  
      1245       1246       1257       1256       1366       1367       1378       1377  
      1246       1247       1258       1257       1367       1368       1379       1378  
      1247       1248       1259       1258       1368       1369       1380       1379  
      1248       1249       1260       1259       1369       1370       1381       1380  
      1249       1250       1261       1260       1370       1371       1382       1381  
      1250       1251       1262       1261       1371       1372       1383       1382  
      1251       1252       1263       1262       1372       1373       1384       1383  
      1252       1253       1264       1263       1373       1374       1385       1384  
      1253       1254       1265       1264       1374       1375       1386       1385  
      1255       1256       1267       1266       1376       1377       1388       1387  
      1256       1257       1268       1267       1377       1378       1389       1388  
      1257       1258       1269       1268       1378       1379       1390       1389  
      1258       1259       1270       1269       1379       1380       1391       1390  
      1259       1260       1271       1270       1380       1381       1392       1391  
      1260       1261       1272       1271       1381       1382       1393       1392  
      1261       1262       1273       1272       1382       1383       1394       1393  
      1262       1263       1274       1273       1383       1384       1395       1394  
      1263       1264       1275       1274       1384       1385       1396       1395  
      1264       1265       1276       1275       1385       1386       1397       1396  
      1266       1267       1278       1277       1387       1388       1399       1398  
      1267       1268       1279       1278       1388       1389       1400       1399  
      1268       1269       1280       1279       1389       1390       1401       1400  
      1269       1270       1281       1280       1390       1391       1402       1401  
      1270       1271       1282       1281       1391       1392       1403       1402  
      1271       1272       1283       1282       1392       1393       1404       1403  
      1272       1273       1284       1283       1393       1394       1405       1404  
      1273       1274       1285       1284       1394       1395       1406       1405  
      1274       1275       1286       1285       1395       1396       1407       1406  
      1275       1276       1287       1286       1396       1397       1408       1407  
      1277       1278       1289       1288       1398       1399       1410       1409  
      1278       1279       1290       1289       1399       1400       1411       1410  
      1279       1280       1291       1290       1400       1401       1412       1411  
      1280       1281       1292       1291       1401       1402       1413       1412  
      1281       1282       1293       1292       1402       1403       1414       1413  
      1282       1283       1294       1293       1403       1404       1415       1414  
      1283       1284       1295       1294       1404       1405       1416       1415  
      1284       1285       1296       1295       1405       1406       1417       1416  
      1285       1286       1297       1296       1406       1407       1418       1417  
      1286       1287       1298       1297       1407       1408       1419       1418  
      1288       1289       1300       1299       1409       1410       1421       1420  
      1289       1290       1301       1300       1410       1411       1422       1421  
      1290       1291       1302       1301       1411       1412       1423       1422  
      1291       1292       1303       1302       1412       1413       1424       1423  
      1292       1293       1304       1303       1413       1414       1425       1424  
      1293       1294       1305       1304       1414       1415       1426       1425  
      1294       1295       1306       1305       1415       1416       1427       1426  
      1295       1296       1307       1306       1416       1417       1428       1427  
      1296       1297       1308       1307       1417       1418       1429       1428  
      1297       1298       1309       1308       1418       1419       1430       1429  
      1299       1300       1311       1310       1420       1421       1432       1431  
      1300       1301       1312       1311       1421       1422       1433       1432  
      1301       1302       1313       1312       1422       1423       1434       1433  
      1302       1303       1314       1313       1423       1424       1435       1434  
      1303       1304       1315       1314       1424       1425       1436       1435  
      1304       1305       1316       1315       1425       1426       1437       1436  
      1305       1306       1317       1316       1426       1427       1438       1437  
      1306       1307       1318       1317       1427       1428       1439       1438  
      1307       1308       1319       1318       1428       1429       1440       1439  
      1308       1309       1320       1319       1429       1430       1441       1440  
      1310       1311       1322       1321       1431       1432       1443       1442  
      1311       1312       1323       1322       1432       1433       1444       1443  
      1312       1313       1324       1323       1433       1434       1445       1444  
      1313       1314       1325       1324       1434       1435       1446       1445  
      1314       1315       1326       1325       1435       1436       1447       1446  
      1315       1316       1327       1326       1436       1437       1448       1447  
      1316       1317       1328       1327       1437       1438       1449       1448  
      1317       1318       1329       1328       1438       1439       1450       1449  
      1318       1319       1330       1329       1439       1440       1451       1450  
      1319       1320       1331       1330       1440       1441       1452       1451  
      1332       1333       1344       1343       1453       1454       1465       1464  
      1333       1334       1345       1344       1454       1455       1466       1465  
      1334       1335       1346       1345       1455       1456       1467       1466  
      1335       1336       1347       1346       1456       1457       1468       1467  
      1336       1337       1348       1347       1457       1458       1469       1468  
      1337       1338       1349       1348       1458       1459       1470       1469  
      1338       1339       1350       1349       1459       1460       1471       1470  
      1339       1340       1351       1350       1460       1461       1472       1471  
      1340       1341       1352       1351       1461       1462       1473       1472  
      1341       1342       1353       1352       1462       1463       1474       1473  
      1343       1344       1355       1354       1464       1465       1476       1475  
      1344       1345       1356       1355       1465       1466       1477       1476  
      1345       1346       1357       1356       1466       1467       1478       1477  
      1346       1347       1358       1357       1467       1468       1479       1478  
      1347       1348       1359       1358       1468       1469       1480       1479  
      1348       1349       1360       1359       1469       1470       1481       1480  
      1349       1350       1361       1360       1470       1471       1482       1481  
      1350       1351       1362       1361       1471       1472       1483       1482  
      1351       1352       1363       1362       1472       1473       1484       1483  
      1352       1353       1364       1363       1473       1474       1485       1484  
      1354       1355       1366       1365       1475       1476       1487       1486  
      1355       1356       1367       1366       1476       1477       1488       1487  
      1356       1357       1368       1367       1477       1478       1489       1488  
      1357       1358       1369       1368       1478       1479       1490       1489  
      1358       1359       1370       1369       1479       1480       1491       1490  
      1359       1360       1371       1370       1480       1481       1492       1491  
      1360       1361       1372       1371       1481       1482       1493       1492  
      1361       1362       1373       1372       1482       1483       1494       1493  
      1362       1363       1374       1373       1483       1484       1495       1494  
      1363       1364       1375       1374       1484       1485       1496       1495  
      1365       1366       1377       1376       1486       1487       1498       1497  
      1366       1367       1378       1377       1487       1488       1499       1498  
      1367       1368       1379       1378       1488       1489       1500       1499  
      1368       1369       1380       1379       1489       1490       1501       1500  
      1369       1370       1381       1380       1490       1491       1502       1501  
      1370       1371       1382       1381       1491       1492       1503       1502  
      1371       1372       1383       1382       1492       1493       1504       1503  
      1372       1373       1384       1383       1493       1494       1505       1504  
      1373       1374       1385       1384       1494       1495       1506       1505  
      1374       1375       1386       1385       1495       1496       1507       1506  
      1376       1377       1388       1387       1497       1498       1509       1508  
      1377       1378       1389       1388       1498       1499       1510       1509  
      1378       1379       1390       1389       1499       1500       1511       1510  
      1379       1380       1391       1390       1500       1501       1512       1511  
      1380       1381       1392       1391       1501       1502       1513       1512  
      1381       1382       1393       1392       1502       1503       1514       1513  
      1382       1383       1394       1393       1503       1504       1515       1514  
      1383       1384       1395       1394       1504       1505       1516       1515  
      1384       1385       1396       1395       1505       1506       1517       1516  
      1385       1386       1397       1396       1506       1507       1518       1517  
      1387       1388       1399       1398       1508       1509       1520       1519  
      1388       1389       1400       1399       1509       1510       1521       1520  
      1389       1390       1401       1400       1510       1511       1522       1521  
      1390       1391       1402       1401       1511       1512       1523       1522  
      1391       1392       1403       1402       1512       1513       1524       1523  
      1392       1393       1404       1403       1513       1514       1525       1524  
      1393       1394       1405       1404       1514       1515       1526       1525  
      1394       1395       1406       1405       1515       1516       1527       1526  
      1395       1396       1407       1406       1516       1517       1528       1527  
      1396       1397       1408       1407       1517       1518       1529       1528  
      1398       1399       1410       1409       1519       1520       1531       1530  
      1399       1400       1411       1410       1520       1521       1532       1531  
      1400       1401       1412       1411       1521       1522       1533       1532  
      1401       1402       1413       1412       1522       1523       1534       1533  
      1402       1403       1414       1413       1523       1524       1535       1534  
      1403       1404       1415       1414       1524       1525       1536       1535  
      1404       1405       1416       1415       1525       1526       1537       1536  
      1405       1406       1417       1416       1526       1527       1538       1537  
      1406       1407       1418       1417       1527       1528       1539       1538  
      1407       1408       1419       1418       1528       1529       1540       1539  
      1409       1410       1421       1420       1530       1531       1542       1541  
      1410       1411       1422       1421       1531       1532       1543       1542  
      1411       1412       1423       1422       1532       1533       1544       1543  
      1412       1413       1424       1423       1533       1534       1545       1544  
      1413       1414       1425       1424       1534       1535       1546       1545  
      1414       1415       1426       1425       1535       1536       1547       1546  
      1415       1416       1427       1426       1536       1537       1548       1547  
      1416       1417       1428       1427       1537       1538       1549       1548  
      1417       1418       1429       1428       1538       1539       1550       1549  
      1418       1419       1430       1429       1539       1540       1551       1550  
      1420       1421       1432       1431       1541       1542       1553       1552  
      1421       1422       1433       1432       1542       1543       1554       1553  
      1422       1423       1434       1433       1543       1544       1555       1554  
      1423       1424       1435       1434       1544       1545       1556       1555  
      1424       1425       1436       1435       1545       1546       1557       1556  
      1425       1426       1437       1436       1546       1547       1558       1557  
      1426       1427       1438       1437       1547       1548       1559       1558  
      1427       1428       1439       1438       1548       1549       1560       1559  
      1428       1429       1440       1439       1549       1550       1561       1560  
      1429       1430       1441       1440       1550       1551       1562       1561  
      1431       1432       1443       1442       1552       1553       1564       1563  
      1432       1433       1444       1443       1553       1554       1565       1564  
      1433       1434       1445       1444       1554       1555       1566       1565  
      1434       1435       1446       1445       1555       1556       1567       1566  
      1435       1436       1447       1446       1556       1557       1568       1567  
      1436       1437       1448       1447       1557       1558       1569       1568  
      1437       1438       1449       1448       1558       1559       1570       1569  
      1438       1439       1450       1449       1559       1560       1571       1570  
      1439       1440       1451       1450       1560       1561       1572       1571  
      1440       1441       1452       1451       1561       1562       1573       1572  
      1453       1454       1465       1464       1574       1575       1586       1585  
      1454       1455       1466       1465       1575       1576       1587       1586  
      1455       1456       1467       1466       1576       1577       1588       1587  
      1456       1457       1468       1467       1577       1578       1589       1588  
      1457       1458       1469       1468       1578       1579       1590       1589  
      1458       1459       1470       1469       1579       1580       1591       1590  
      1459       1460       1471       1470       1580       1581       1592       1591  
      1460       1461       1472       1471       1581       1582       1593       1592  
      1461       1462       1473       1472       1582       1583       1594       1593  
      1462       1463       1474       1473       1583       1584       1595       1594  
      1464       1465       1476       1475       1585       1586       1597       1596  
      1465       1466       1477       1476       1586       1587       1598       1597  
      1466       1467       1478       1477       1587       1588       1599       1598  
      1467       1468       1479       1478       1588       1589       1600       1599  
      1468       1469       1480       1479       1589       1590       1601       1600  
      1469       1470       1481       1480       1590       1591       1602       1601  
      1470       1471       1482       1481       1591       1592       1603       1602  
      1471       1472       1483       1482       1592       1593       1604       1603  
      1472       1473       1484       1483       1593       1594       1605       1604  
      1473       1474       1485       1484       1594       1595       1606       1605  
      1475       1476       1487       1486       1596       1597       1608       1607  
      1476       1477       1488       1487       1597       1598       1609       1608  
      1477       1478       1489       1488       1598       1599       1610       1609  
      1478       1479       1490       1489       1599       1600       1611       1610  
      1479       1480       1491       1490       1600       1601       1612       1611  
      1480       1481       1492       1491       1601       1602       1613       1612  
      1481       1482       1493       1492       1602       1603       1614       1613  
      1482       1483       1494       1493       1603       1604       1615       1614  
      1483       1484       1495       1494       1604       1605       1616       1615  
      1484       1485       1496       1495       1605       1606       1617       1616  
      1486       1487       1498       1497       1607       1608       1619       1618  
      1487       1488       1499       1498       1608       1609       1620       1619  
      1488       1489       1500       1499       1609       1610       1621       1620  
      1489       1490       1501       1500       1610       1611       1622       1621  
      1490       1491       1502       1501       1611       1612       1623       1622  
      1491       1492       1503       1502       1612       1613       1624       1623  
      1492       1493       1504       1503       1613       1614       1625       1624  
      1493       1494       1505       1504       1614       1615       1626       1625  
      1494       1495       1506       1505       1615       1616       1627       1626  
      1495       1496       1507       1506       1616       1617       1628       1627  
      1497       1498       1509       1508       1618       1619       1630       1629  
      1498       1499       1510       1509       1619       1620       1631       1630  
      1499       1500       1511       1510       1620       1621       1632       1631  
      1500       1501       1512       1511       1621       1622       1633       1632  
      1501       1502       1513       1512       1622       1623       1634       1633  
      1502       1503       1514       1513       1623       1624       1635       1634  
      1503       1504       1515       1514       1624       1625       1636       1635  
      1504       1505       1516       1515       1625       1626       1637       1636  
      1505       1506       1517       1516       1626       1627       1638       1637  
      1506       1507       1518       1517       1627       1628       1639       1638  
      1508       1509       1520       1519       1629       1630       1641       1640  
      1509       1510       1521       1520       1630       1631       1642       1641  
      1510       1511       1522       1521       1631       1632       1643       1642  
      1511       1512       1523       1522       1632       1633       1644       1643  
      1512       1513       1524       1523       1633       1634       1645       1644  
      1513       1514       1525       1524       1634       1635       1646       1645  
      1514       1515       1526       1525       1635       1636       1647       1646  
      1515       1516       1527       1526       1636       1637       1648       1647  
      1516       1517       1528       1527       1637       1638       1649       1648  
      1517       1518       1529       1528       1638       1639       1650       1649  
      1519       1520       1531       1530       1640       1641       1652       1651  
      1520       1521       1532       1531       1641       1642       1653       1652  
      1521       1522       1533       1532       1642       1643       1654       1653  
      1522       1523       1534       1533       1643       1644       1655       1654  
      1523       1524       1535       1534       1644       1645       1656       1655  
      1524       1525       1536       1535       1645       1646       1657       1656  
      1525       1526       1537       1536       1646       1647       1658       1657  
      1526       1527       1538       1537       1647       1648       1659       1658  
      1527       1528       1539       1538       1648       1649       1660       1659  
      1528       1529       1540       1539       1649       1650       1661       1660  
      1530       1531       1542       1541       1651       1652       1663       1662  
      1531       1532       1543       1542       1652       1653       1664       1663  
      1532       1533       1544       1543       1653       1654       1665       1664  
      1533       1534       1545       1544       1654       1655       1666       1665  
      1534       1535       1546       1545       1655       1656       1667       1666  
      1535       1536       1547       1546       1656       1657       1668       1667  
      1536       1537       1548       1547       1657       1658       1669       1668  
      1537       1538       1549       1548       1658       1659       1670       1669  
      1538       1539       1550       1549       1659       1660       1671       1670  
      1539       1540       1551       1550       1660       1661       1672       1671  
      1541       1542       1553       1552       1662       1663       1674       1673  
      1542       1543       1554       1553       1663       1664       1675       1674  
      1543       1544       1555       1554       1664       1665       1676       1675  
      1544       1545       1556       1555       1665       1666       1677       1676  
      1545       1546       1557       1556       1666       1667       1678       1677  
      1546       1547       1558       1557       1667       1668       1679       1678  
      1547       1548       1559       1558       1668       1669       1680       1679  
      1548       1549       1560       1559       1669       1670       1681       1680  
      1549       1550       1561       1560       1670       1671       1682       1681  
      1550       1551       1562       1561       1671       1672       1683       1682  
      1552       1553       1564       1563       1673       1674       1685       1684  
      1553       1554       1565       1564       1674       1675       1686       1685  
      1554       1555       1566       1565       1675       1676       1687       1686  
      1555       1556       1567       1566       1676       1677       1688       1687  
      1556       1557       1568       1567       1677       1678       1689       1688  
      1557       1558       1569       1568       1678       1679       1690       1689  
      1558       1559       1570       1569       1679       1680       1691       1690  
      1559       1560       1571       1570       1680       1681       1692       1691  
      1560       1561       1572       1571       1681       1682       1693       1692  
      1561       1562       1573       1572       1682       1683       1694       1693  
      1574       1575       1586       1585       1695       1696       1707       1706  
      1575       1576       1587       1586       1696       1697       1708       1707  
      1576       1577       1588       1587       1697       1698       1709       1708  
      1577       1578       1589       1588       1698       1699       1710       1709  
      1578       1579       1590       1589       1699       1700       1711       1710  
      1579       1580       1591       1590       1700       1701       1712       1711  
      1580       1581       1592       1591       1701       1702       1713       1712  
      1581       1582       1593       1592       1702       1703       1714       1713  
      1582       1583       1594       1593       1703       1704       1715       1714  
      1583       1584       1595       1594       1704       1705       1716       1715  
      1585       1586       1597       1596       1706       1707       1718       1717  
      1586       1587       1598       1597       1707       1708       1719       1718  
      1587       1588       1599       1598       1708       1709       1720       1719  
      1588       1589       1600       1599       1709       1710       1721       1720  
      1589       1590       1601       1600       1710       1711       1722       1721  
      1590       1591       1602       1601       1711       1712       1723       1722  
      1591       1592       1603       1602       1712       1713       1724       1723  
      1592       1593       1604       1603       1713       1714       1725       1724  
      1593       1594       1605       1604       1714       1715       1726       1725  
      1594       1595       1606       1605       1715       1716       1727       1726  
      1596       1597       1608       1607       1717       1718       1729       1728  
      1597       1598       1609       1608       1718       1719       1730       1729  
      1598       1599       1610       1609       1719       1720       1731       1730  
      1599       1600       1611       1610       1720       1721       1732       1731  
      1600       1601       1612       1611       1721       1722       1733       1732  
      1601       1602       1613       1612       1722       1723       1734       1733  
      1602       1603       1614       1613       1723       1724       1735       1734  
      1603       1604       1615       1614       1724       1725       1736       1735  
      1604       1605       1616       1615       1725       1726       1737       1736  
      1605       1606       1617       1616       1726       1727       1738       1737  
      1607       1608       1619       1618       1728       1729       1740       1739  
      1608       1609       1620       1619       1729       1730       1741       1740  
      1609       1610       1621       1620       1730       1731       1742       1741  
      1610       1611       1622       1621       1731       1732       1743       1742  
      1611       1612       1623       1622       1732       1733       1744       1743  
      1612       1613       1624       1623       1733       1734       1745       1744  
      1613       1614       1625       1624       1734       1735       1746       1745  
      1614       1615       1626       1625       1735       1736       1747       1746  
      1615       1616       1627       1626       1736       1737       1748       1747  
      1616       1617       1628       1627       1737       1738       1749       1748  
      1618       1619       1630       1629       1739       1740       1751       1750  
      1619       1620       1631       1630       1740       1741       1752       1751  
      1620       1621       1632       1631       1741       1742       1753       1752  
      1621       1622       1633       1632       1742       1743       1754       1753  
      1622       1623       1634       1633       1743       1744       1755       1754  
      1623       1624       1635       1634       1744       1745       1756       1755  
      1624       1625       1636       1635       1745       1746       1757       1756  
      1625       1626       1637       1636       1746       1747       1758       1757  
      1626       1627       1638       1637       1747       1748       1759       1758  
      1627       1628       1639       1638       1748       1749       1760       1759  
      1629       1630       1641       1640       1750       1751       1762       1761  
      1630       1631       1642       1641       1751       1752       1763       1762  
      1631       1632       1643       1642       1752       1753       1764       1763  
      1632       1633       1644       1643       1753       1754       1765       1764  
      1633       1634       1645       1644       1754       1755       1766       1765  
      1634       1635       1646       1645       1755       1756       1767       1766  
      1635       1636       1647       1646       1756       1757       1768       1767  
      1636       1637       1648       1647       1757       1758       1769       1768  
      1637       1638       1649       1648       1758       1759       1770       1769  
      1638       1639       1650       1649       1759       1760       1771       1770  
      1640       1641       1652       1651       1761       1762       1773       1772  
      1641       1642       1653       1652       1762       1763       1774       1773  
      1642       1643       1654       1653       1763       1764       1775       1774  
      1643       1644       1655       1654       1764       1765       1776       1775  
      1644       1645       1656       1655       1765       1766       1777       1776  
      1645       1646       1657       1656       1766       1767       1778       1777  
      1646       1647       1658       1657       1767       1768       1779       1778  
      1647       1648       1659       1658       1768       1769       1780       1779  
      1648       1649       1660       1659       1769       1770       1781       1780  
      1649       1650       1661       1660       1770       1771       1782       1781  
      1651       1652       1663       1662       1772       1773       1784       1783  
      1652       1653       1664       1663       1773       1774       1785       1784  
      1653       1654       1665       1664       1774       1775       1786       1785  
      1654       1655       1666       1665       1775       1776       1787       1786  
      1655       1656       1667       1666       1776       1777       1788       1787  
      1656       1657       1668       1667       1777       1778       1789       1788  
      1657       1658       1669       1668       1778       1779       1790       1789  
      1658       1659       1670       1669       1779       1780       1791       1790  
      1659       1660       1671       1670       1780       1781       1792       1791  
      1660       1661       1672       1671       1781       1782       1793       1792  
      1662       1663       1674       1673       1783       1784       1795       1794  
      1663       1664       1675       1674       1784       1785       1796       1795  
      1664       1665       1676       1675       1785       1786       1797       1796  
      1665       1666       1677       1676       1786       1787       1798       1797  
      1666       1667       1678       1677       1787       1788       1799       1798  
      1667       1668       1679       1678       1788       1789       1800       1799  
      1668       1669       1680       1679       1789       1790       1801       1800  
      1669       1670       1681       1680       1790       1791       1802       1801  
      1670       1671       1682       1681       1791       1792       1803       1802  
      1671       1672       1683       1682       1792       1793       1804       1803  
      1673       1674       1685       1684       1794       1795       1806       1805  
      1674       1675       1686       1685       1795       1796       1807       1806  
      1675       1676       1687       1686       1796       1797       1808       1807  
      1676       1677       1688       1687       1797       1798       1809       1808  
      1677       1678       1689       1688       1798       1799       1810       1809  
      1678       1679       1690       1689       1799       1800       1811       1810  
      1679       1680       1691       1690       1800       1801       1812       1811  
      1680       1681       1692       1691       1801       1802       1813       1812  
      1681       1682       1693       1692       1802       1803       1814       1813  
      1682       1683       1694       1693       1803       1804       1815       1814  
      1695       1696       1707       1706       1816       1817       1828       1827  
      1696       1697       1708       1707       1817       1818       1829       1828  
      1697       1698       1709       1708       1818       1819       1830       1829  
      1698       1699       1710       1709       1819       1820       1831       1830  
      1699       1700       1711       1710       1820       1821       1832       1831  
      1700       1701       1712       1711       1821       1822       1833       1832  
      1701       1702       1713       1712       1822       1823       1834       1833  
      1702       1703       1714       1713       1823       1824       1835       1834  
      1703       1704       1715       1714       1824       1825       1836       1835  
      1704       1705       1716       1715       1825       1826       1837       1836  
      1706       1707       1718       1717       1827       1828       1839       1838  
      1707       1708       1719       1718       1828       1829       1840       1839  
      1708       1709       1720       1719       1829       1830       1841       1840  
      1709       1710       1721       1720       1830       1831       1842       1841  
      1710       1711       1722       1721       1831       1832       1843       1842  
      1711       1712       1723       1722       1832       1833       1844       1843  
      1712       1713       1724       1723       1833       1834       1845       1844  
      1713       1714       1725       1724       1834       1835       1846       1845  
      1714       1715       1726       1725       1835       1836       1847       1846  
      1715       1716       1727       1726       1836       1837       1848       1847  
      1717       1718       1729       1728       1838       1839       1850       1849  
      1718       1719       1730       1729       1839       1840       1851       1850  
      1719       1720       1731       1730       1840       1841       1852       1851  
      1720       1721       1732       1731       1841       1842       1853       1852  
      1721       1722       1733       1732       1842       1843       1854       1853  
      1722       1723       1734       1733       1843       1844       1855       1854  
      1723       1724       1735       1734       1844       1845       1856       1855  
      1724       1725       1736       1735       1845       1846       1857       1856  
      1725       1726       1737       1736       1846       1847       1858       1857  
      1726       1727       1738       1737       1847       1848       1859       1858  
      1728       1729       1740       1739       1849       1850       1861       1860  
      1729       1730       1741       1740       1850       1851       1862       1861  
      1730       1731       1742       1741       1851       1852       1863       1862  
      1731       1732       1743       1742       1852       1853       1864       1863  
      1732       1733       1744       1743       1853       1854       1865       1864  
      1733       1734       1745       1744       1854       1855       1866       1865  
      1734       1735       1746       1745       1855       1856       1867       1866  
      1735       1736       1747       1746       1856       1857       1868       1867  
      1736       1737       1748       1747       1857       1858       1869       1868  
      1737       1738       1749       1748       1858       1859       1870       1869  
      1739       1740       1751       1750       1860       1861       1872       1871  
      1740       1741       1752       1751       1861       1862       1873       1872  
      1741       1742       1753       1752       1862       1863       1874       1873  
      1742       1743       1754       1753       1863       1864       1875       1874  
      1743       1744       1755       1754       1864       1865       1876       1875  
      1744       1745       1756       1755       1865       1866       1877       1876  
      1745       1746       1757       1756       1866       1867       1878       1877  
      1746       1747       1758       1757       1867       1868       1879       1878  
      1747       1748       1759       1758       1868       1869       1880       1879  
      1748       1749       1760       1759       1869       1870       1881       1880  
      1750       1751       1762       1761       1871       1872       1883       1882  
      1751       1752       1763       1762       1872       1873       1884       1883  
      1752       1753       1764       1763       1873       1874       1885       1884  
      1753       1754       1765       1764       1874       1875       1886       1885  
      1754       1755       1766       1765       1875       1876       1887       1886  
      1755       1756       1767       1766       1876       1877       1888       1887  
      1756       1757       1768       1767       1877       1878       1889       1888  
      1757       1758       1769       1768       1878       1879       1890       1889  
      1758       1759       1770       1769       1879       1880       1891       1890  
      1759       1760       1771       1770       1880       1881       1892       1891  
      1761       1762       1773       1772       1882       1883       1894       1893  
      1762       1763       1774       1773       1883       1884       1895       1894  
      1763       1764       1775       1774       1884       1885       1896       1895  
      1764       1765       1776       1775       1885       1886       1897       1896  
      1765       1766       1777       1776       1886       1887       1898       1897  
      1766       1767       1778       1777       1887       1888       1899       1898  
      1767       1768       1779       1778       1888       1889       1900       1899  
      1768       1769       1780       1779       1889       1890       1901       1900  
      1769       1770       1781       1780       1890       1891       1902       1901  
      1770       1771       1782       1781       1891       1892       1903       1902  
      1772       1773       1784       1783       1893       1894       1905       1904  
      1773       1774       1785       1784       1894       1895       1906       1905  
      1774       1775       1786       1785       1895       1896       1907       1906  
      1775       1776       1787       1786       1896       1897       1908       1907  
      1776       1777       1788       1787       1897       1898       1909       1908  
      1777       1778       1789       1788       1898       1899       1910       1909  
      1778       1779       1790       1789       1899       1900       1911       1910  
      1779       1780       1791       1790       1900       1901       1912       1911  
      1780       1781       1792       1791       1901       1902       1913       1912  
      1781       1782       1793       1792       1902       1903       1914       1913  
      1783       1784       1795       1794       1904       1905       1916       1915  
      1784       1785       1796       1795       1905       1906       1917       1916  
      1785       1786       1797       1796       1906       1907       1918       1917  
      1786       1787       1798       1797       1907       1908       1919       1918  
      1787       1788       1799       1798       1908       1909       1920       1919  
      1788       1789       1800       1799       1909       1910       1921       1920  
      1789       1790       1801       1800       1910       1911       1922       1921  
      1790       1791       1802       1801       1911       1912       1923       1922  
      1791       1792       1803       1802       1912       1913       1924       1923  
      1792       1793       1804       1803       1913       1914       1925       1924  
      1794       1795       1806       1805       1915       1916       1927       1926  
      1795       1796       1807       1806       1916       1917       1928       1927  
      1796       1797       1808       1807       1917       1918       1929       1928  
      1797       1798       1809       1808       1918       1919       1930       1929  
      1798       1799       1810       1809       1919       1920       1931       1930  
      1799       1800       1811       1810       1920       1921       1932       1931  
      1800       1801       1812       1811       1921       1922       1933       1932  
      1801       1802       1813       1812       1922       1923       1934       1933  
      1802       1803       1814       1813       1923       1924       1935       1934  
      1803       1804       1815       1814       1924       1925       1936       1935  
      1816       1817       1828       1827       1937       1938       1949       1948  
      1817       1818       1829       1828       1938       1939       1950       1949  
      1818       1819       1830       1829       1939       1940       1951       1950  
      1819       1820       1831       1830       1940       1941       1952       1951  
      1820       1821       1832       1831       1941       1942       1953       1952  
      1821       1822       1833       1832       1942       1943       1954       1953  
      1822       1823       1834       1833       1943       1944       1955       1954  
      1823       1824       1835       1834       1944       1945       1956       1955  
      1824       1825       1836       1835       1945       1946       1957       1956  
      1825       1826       1837       1836       1946       1947       1958       1957  
      1827       1828       1839       1838       1948       1949       1960       1959  
      1828       1829       1840       1839       1949       1950       1961       1960  
      1829       1830       1841       1840       1950       1951       1962       1961  
      1830       1831       1842       1841       1951       1952       1963       1962  
      1831       1832       1843       1842       1952       1953       1964       1963  
      1832       1833       1844       1843       1953       1954       1965       1964  
      1833       1834       1845       1844       1954       1955       1966       1965  
      1834       1835       1846       1845       1955       1956       1967       1966  
      1835       1836       1847       1846       1956       1957       1968       1967  
      1836       1837       1848       1847       1957       1958       1969       1968  
      1838       1839       1850       1849       1959       1960       1971       1970  
      1839       1840       1851       1850       1960       1961       1972       1971  
      1840       1841       1852       1851       1961       1962       1973       1972  
      1841       1842       1853       1852       1962       1963       1974       1973  
      1842       1843       1854       1853       1963       1964       1975       1974  
      1843       1844       1855       1854       1964       1965       1976       1975  
      1844       1845       1856       1855       1965       1966       1977       1976  
      1845       1846       1857       1856       1966       1967       1978       1977  
      1846       1847       1858       1857       1967       1968       1979       1978  
      1847       1848       1859       1858       1968       1969       1980       1979  
      1849       1850       1861       1860       1970       1971       1982       1981  
      1850       1851       1862       1861       1971       1972       1983       1982  
      1851       1852       1863       1862       1972       1973       1984       1983  
      1852       1853       1864       1863       1973       1974       1985       1984  
      1853       1854       1865       1864       1974       1975       1986       1985  
      1854       1855       1866       1865       1975       1976       1987       1986  
      1855       1856       1867       1866       1976       1977       1988       1987  
      1856       1857       1868       1867       1977       1978       1989       1988  
      1857       1858       1869       1868       1978       1979       1990       1989  
      1858       1859       1870       1869       1979       1980       1991       1990  
      1860       1861       1872       1871       1981       1982       1993       1992  
      1861       1862       1873       1872       1982       1983       1994       1993  
      1862       1863       1874       1873       1983       1984       1995       1994  
      1863       1864       1875       1874       1984       1985       1996       1995  
      1864       1865       1876       1875       1985       1986       1997       1996  
      1865       1866       1877       1876       1986       1987       1998       1997  
      1866       1867       1878       1877       1987       1988       1999       1998  
      1867       1868       1879       1878       1988       1989       2000       1999  
      1868       1869       1880       1879       1989       1990       2001       2000  
      1869       1870       1881       1880       1990       1991       2002       2001  
      1871       1872       1883       1882       1992       1993       2004       2003  
      1872       1873       1884       1883       1993       1994       2005       2004  
      1873       1874       1885       1884       1994       1995       2006       2005  
      1874       1875       1886       1885       1995       1996       2007       2006  
      1875       1876       1887       1886       1996       1997       2008       2007  
      1876       1877       1888       1887       1997       1998       2009       2008  
      1877       1878       1889       1888       1998       1999       2010       2009  
      1878       1879       1890       1889       1999       2000       2011       2010  
      1879       1880       1891       1890       2000       2001       2012       2011  
      1880       1881       1892       1891       2001       2002       2013       2012  
      1882       1883       1894       1893       2003       2004       2015       2014  
      1883       1884       1895       1894       2004       2005       2016       2015  
      1884       1885       1896       1895       2005       2006       2017       2016  
      1885       1886       1897       1896       2006       2007       2018       2017  
      1886       1887       1898       1897       2007       2008       2019       2018  
      1887       1888       1899       1898       2008       2009       2020       2019  
      1888       1889       1900       1899       2009       2010       2021       2020  
      1889       1890       1901       1900       2010       2011       2022       2021  
      1890       1891       1902       1901       2011       2012       2023       2022  
      1891       1892       1903       1902       2012       2013       2024       2023  
      1893       1894       1905       1904       2014       2015       2026       2025  
      1894       1895       1906       1905       2015       2016       2027       2026  
      1895       1896       1907       1906       2016       2017       2028       2027  
      1896       1897       1908       1907       2017       2018       2029       2028  
      1897       1898       1909       1908       2018       2019       2030       2029  
      1898       1899       1910       1909       2019       2020       2031       2030  
      1899       1900       1911       1910       2020       2021       2032       2031  
      1900       1901       1912       1911       2021       2022       2033       2032  
      1901       1902       1913       1912       2022       2023       2034       2033  
      1902       1903       1914       1913       2023       2024       2035       2034  
      1904       1905       1916       1915       2025       2026       2037       2036  
      1905       1906       1917       1916       2026       2027       2038       2037  
      1906       1907       1918       1917       2027       2028       2039       2038  
      1907       1908       1919       1918       2028       2029       2040       2039  
      1908       1909       1920       1919       2029       2030       2041       2040  
      1909       1910       1921       1920       2030       2031       2042       2041  
      1910       1911       1922       1921       2031       2032       2043       2042  
      1911       1912       1923       1922       2032       2033       2044       2043  
      1912       1913       1924       1923       2033       2034       2045       2044  
      1913       1914       1925       1924       2034       2035       2046       2045  
      1915       1916       1927       1926       2036       2037       2048       2047  
      1916       1917       1928       1927       2037       2038       2049       2048  
      1917       1918       1929       1928       2038       2039       2050       2049  
      1918       1919       1930       1929       2039       2040       2051       2050  
      1919       1920       1931       1930       2040       2041       2052       2051  
      1920       1921       1932       1931       2041       2042       2053       2052  
      1921       1922       1933       1932       2042       2043       2054       2053  
      1922       1923       1934       1933       2043       2044       2055       2054  
      1923       1924       1935       1934       2044       2045       2056       2055  
      1924       1925       1936       1935       2045       2046       2057       2056  
      1937       1938       1949       1948       2058       2059       2070       2069  
      1938       1939       1950       1949       2059       2060       2071       2070  
      1939       1940       1951       1950       2060       2061       2072       2071  
      1940       1941       1952       1951       2061       2062       2073       2072  
      1941       1942       1953       1952       2062       2063       2074       2073  
      1942       1943       1954       1953       2063       2064       2075       2074  
      1943       1944       1955       1954       2064       2065       2076       2075  
      1944       1945       1956       1955       2065       2066       2077       2076  
      1945       1946       1957       1956       2066       2067       2078       2077  
      1946       1947       1958       1957       2067       2068       2079       2078  
      1948       1949       1960       1959       2069       2070       2081       2080  
      1949       1950       1961       1960       2070       2071       2082       2081  
      1950       1951       1962       1961       2071       2072       2083       2082  
      1951       1952       1963       1962       2072       2073       2084       2083  
      1952       1953       1964       1963       2073       2074       2085       2084  
      1953       1954       1965       1964       2074       2075       2086       2085  
      1954       1955       1966       1965       2075       2076       2087       2086  
      1955       1956       1967       1966       2076       2077       2088       2087  
      1956       1957       1968       1967       2077       2078       2089       2088  
      1957       1958       1969       1968       2078       2079       2090       2089  
      1959       1960       1971       1970       2080       2081       2092       2091  
      1960       1961       1972       1971       2081       2082       2093       2092  
      1961       1962       1973       1972       2082       2083       2094       2093  
      1962       1963       1974       1973       2083       2084       2095       2094  
      1963       1964       1975       1974       2084       2085       2096       2095  
      1964       1965       1976       1975       2085       2086       2097       2096  
      1965       1966       1977       1976       2086       2087       2098       2097  
      1966       1967       1978       1977       2087       2088       2099       2098  
      1967       1968       1979       1978       2088       2089       2100       2099  
      1968       1969       1980       1979       2089       2090       2101       2100  
      1970       1971       1982       1981       2091       2092       2103       2102  
      1971       1972       1983       1982       2092       2093       2104       2103  
      1972       1973       1984       1983       2093       2094       2105       2104  
      1973       1974       1985       1984       2094       2095       2106       2105  
      1974       1975       1986       1985       2095       2096       2107       2106  
      1975       1976       1987       1986       2096       2097       2108       2107  
      1976       1977       1988       1987       2097       2098       2109       2108  
      1977       1978       1989       1988       2098       2099       2110       2109  
      1978       1979       1990       1989       2099       2100       2111       2110  
      1979       1980       1991       1990       2100       2101       2112       2111  
      1981       1982       1993       1992       2102       2103       2114       2113  
      1982       1983       1994       1993       2103       2104       2115       2114  
      1983       1984       1995       1994       2104       2105       2116       2115  
      1984       1985       1996       1995       2105       2106       2117       2116  
      1985       1986       1997       1996       2106       2107       2118       2117  
      1986       1987       1998       1997       2107       2108       2119       2118  
      1987       1988       1999       1998       2108       2109       2120       2119  
      1988       1989       2000       1999       2109       2110       2121       2120  
      1989       1990       2001       2000       2110       2111       2122       2121  
      1990       1991       2002       2001       2111       2112       2123       2122  
      1992       1993       2004       2003       2113       2114       2125       2124  
      1993       1994       2005       2004       2114       2115       2126       2125  
      1994       1995       2006       2005       2115       2116       2127       2126  
      1995       1996       2007       2006       2116       2117       2128       2127  
      1996       1997       2008       2007       2117       2118       2129       2128  
      1997       1998       2009       2008       2118       2119       2130       2129  
      1998       1999       2010       2009       2119       2120       2131       2130  
      1999       2000       2011       2010       2120       2121       2132       2131  
      2000       2001       2012       2011       2121       2122       2133       2132  
      2001       2002       2013       2012       2122       2123       2134       2133  
      2003       2004       2015       2014       2124       2125       2136       2135  
      2004       2005       2016       2015       2125       2126       2137       2136  
      2005       2006       2017       2016       2126       2127       2138       2137  
      2006       2007       2018       2017       2127       2128       2139       2138  
      2007       2008       2019       2018       2128       2129       2140       2139  
      2008       2009       2020       2019       2129       2130       2141       2140  
      2009       2010       2021       2020       2130       2131       2142       2141  
      2010       2011       2022       2021       2131       2132       2143       2142  
      2011       2012       2023       2022       2132       2133       2144       2143  
      2012       2013       2024       2023       2133       2134       2145       2144  
      2014       2015       2026       2025       2135       2136       2147       2146  
      2015       2016       2027       2026       2136       2137       2148       2147  
      2016       2017       2028       2027       2137       2138       2149       2148  
      2017       2018       2029       2028       2138       2139       2150       2149  
      2018       2019       2030       2029       2139       2140       2151       2150  
      2019       2020       2031       2030       2140       2141       2152       2151  
      2020       2021       2032       2031       2141       2142       2153       2152  
      2021       2022       2033       2032       2142       2143       2154       2153  
      2022       2023       2034       2033       2143       2144       2155       2154  
      2023       2024       2035       2034       2144       2145       2156       2155  
      2025       2026       2037       2036       2146       2147       2158       2157  
      2026       2027       2038       2037       2147       2148       2159       2158  
      2027       2028       2039       2038       2148       2149       2160       2159  
      2028       2029       2040       2039       2149       2150       2161       2160  
      2029       2030       2041       2040       2150       2151       2162       2161  
      2030       2031       2042       2041       2151       2152       2163       2162  
      2031       2032       2043       2042       2152       2153       2164       2163  
      2032       2033       2044       2043       2153       2154       2165       2164  
      2033       2034       2045       2044       2154       2155       2166       2165  
      2034       2035       2046       2045       2155       2156       2167       2166  
      2036       2037       2048       2047       2157       2158       2169       2168  
      2037       2038       2049       2048       2158       2159       2170       2169  
      2038       2039       2050       2049       2159       2160       2171       2170  
      2039       2040       2051       2050       2160       2161       2172       2171  
      2040       2041       2052       2051       2161       2162       2173       2172  
      2041       2042       2053       2052       2162       2163       2174       2173  
      2042       2043       2054       2053       2163       2164       2175       2174  
      2043       2044       2055       2054       2164       2165       2176       2175  
      2044       2045       2056       2055       2165       2166       2177       2176  
      2045       2046       2057       2056       2166       2167       2178       2177  
      2058       2059       2070       2069       2179       2180       2191       2190  
      2059       2060       2071       2070       2180       2181       2192       2191  
      2060       2061       2072       2071       2181       2182       2193       2192  
      2061       2062       2073       2072       2182       2183       2194       2193  
      2062       2063       2074       2073       2183       2184       2195       2194  
      2063       2064       2075       2074       2184       2185       2196       2195  
      2064       2065       2076       2075       2185       2186       2197       2196  
      2065       2066       2077       2076       2186       2187       2198       2197  
      2066       2067       2078       2077       2187       2188       2199       2198  
      2067       2068       2079       2078       2188       2189       2200       2199  
      2069       2070       2081       2080       2190       2191       2202       2201  
      2070       2071       2082       2081       2191       2192       2203       2202  
      2071       2072       2083       2082       2192       2193       2204       2203  
      2072       2073       2084       2083       2193       2194       2205       2204  
      2073       2074       2085       2084       2194       2195       2206       2205  
      2074       2075       2086       2085       2195       2196       2207       2206  
      2075       2076       2087       2086       2196       2197       2208       2207  
      2076       2077       2088       2087       2197       2198       2209       2208  
      2077       2078       2089       2088       2198       2199       2210       2209  
      2078       2079       2090       2089       2199       2200       2211       2210  
      2080       2081       2092       2091       2201       2202       2213       2212  
      2081       2082       2093       2092       2202       2203       2214       2213  
      2082       2083       2094       2093       2203       2204       2215       2214  
      2083       2084       2095       2094       2204       2205       2216       2215  
      2084       2085       2096       2095       2205       2206       2217       2216  
      2085       2086       2097       2096       2206       2207       2218       2217  
      2086       2087       2098       2097       2207       2208       2219       2218  
      2087       2088       2099       2098       2208       2209       2220       2219  
      2088       2089       2100       2099       2209       2210       2221       2220  
      2089       2090       2101       2100       2210       2211       2222       2221  
      2091       2092       2103       2102       2212       2213       2224       2223  
      2092       2093       2104       2103       2213       2214       2225       2224  
      2093       2094       2105       2104       2214       2215       2226       2225  
      2094       2095       2106       2105       2215       2216       2227       2226  
      2095       2096       2107       2106       2216       2217       2228       2227  
      2096       2097       2108       2107       2217       2218       2229       2228  
      2097       2098       2109       2108       2218       2219       2230       2229  
      2098       2099       2110       2109       2219       2220       2231       2230  
      2099       2100       2111       2110       2220       2221       2232       2231  
      2100       2101       2112       2111       2221       2222       2233       2232  
      2102       2103       2114       2113       2223       2224       2235       2234  
      2103       2104       2115       2114       2224       2225       2236       2235  
      2104       2105       2116       2115       2225       2226       2237       2236  
      2105       2106       2117       2116       2226       2227       2238       2237  
      2106       2107       2118       2117       2227       2228       2239       2238  
      2107       2108       2119       2118       2228       2229       2240       2239  
      2108       2109       2120       2119       2229       2230       2241       2240  
      2109       2110       2121       2120       2230       2231       2242       2241  
      2110       2111       2122       2121       2231       2232       2243       2242  
      2111       2112       2123       2122       2232       2233       2244       2243  
      2113       2114       2125       2124       2234       2235       2246       2245  
      2114       2115       2126       2125       2235       2236       2247       2246  
      2115       2116       2127       2126       2236       2237       2248       2247  
      2116       2117       2128       2127       2237       2238       2249       2248  
      2117       2118       2129       2128       2238       2239       2250       2249  
      2118       2119       2130       2129       2239       2240       2251       2250  
      2119       2120       2131       2130       2240       2241       2252       2251  
      2120       2121       2132       2131       2241       2242       2253       2252  
      2121       2122       2133       2132       2242       2243       2254       2253  
      2122       2123       2134       2133       2243       2244       2255       2254  
      2124       2125       2136       2135       2245       2246       2257       2256  
      2125       2126       2137       2136       2246       2247       2258       2257  
      2126       2127       2138       2137       2247       2248       2259       2258  
      2127       2128       2139       2138       2248       2249       2260       2259  
      2128       2129       2140       2139       2249       2250       2261       2260  
      2129       2130       2141       2140       2250       2251       2262       2261  
      2130       2131       2142       2141       2251       2252       2263       2262  
      2131       2132       2143       2142       2252       2253       2264       2263  
      2132       2133       2144       2143       2253       2254       2265       2264  
      2133       2134       2145       2144       2254       2255       2266       2265  
      2135       2136       2147       2146       2256       2257       2268       2267  
      2136       2137       2148       2147       2257       2258       2269       2268  
      2137       2138       2149       2148       2258       2259       2270       2269  
      2138       2139       2150       2149       2259       2260       2271       2270  
      2139       2140       2151       2150       2260       2261       2272       2271  
      2140       2141       2152       2151       2261       2262       2273       2272  
      2141       2142       2153       2152       2262       2263       2274       2273  
      2142       2143       2154       2153       2263       2264       2275       2274  
      2143       2144       2155       2154       2264       2265       2276       2275  
      2144       2145       2156       2155       2265       2266       2277       2276  
      2146       2147       2158       2157       2267       2268       2279       2278  
      2147       2148       2159       2158       2268       2269       2280       2279  
      2148       2149       2160       2159       2269       2270       2281       2280  
      2149       2150       2161       2160       2270       2271       2282       2281  
      2150       2151       2162       2161       2271       2272       2283       2282  
      2151       2152       2163       2162       2272       2273       2284       2283  
      2152       2153       2164       2163       2273       2274       2285       2284  
      2153       2154       2165       2164       2274       2275       2286       2285  
      2154       2155       2166       2165       2275       2276       2287       2286  
      2155       2156       2167       2166       2276       2277       2288       2287  
      2157       2158       2169       2168       2278       2279       2290       2289  
      2158       2159       2170       2169       2279       2280       2291       2290  
      2159       2160       2171       2170       2280       2281       2292       2291  
      2160       2161       2172       2171       2281       2282       2293       2292  
      2161       2162       2173       2172       2282       2283       2294       2293  
      2162       2163       2174       2173       2283       2284       2295       2294  
      2163       2164       2175       2174       2284       2285       2296       2295  
      2164       2165       2176       2175       2285       2286       2297       2296  
      2165       2166       2177       2176       2286       2287       2298       2297  
      2166       2167       2178       2177       2287       2288       2299       2298  
      2179       2180       2191       2190       2300       2301       2312       2311  
      2180       2181       2192       2191       2301       2302       2313       2312  
      2181       2182       2193       2192       2302       2303       2314       2313  
      2182       2183       2194       2193       2303       2304       2315       2314  
      2183       2184       2195       2194       2304       2305       2316       2315  
      2184       2185       2196       2195       2305       2306       2317       2316  
      2185       2186       2197       2196       2306       2307       2318       2317  
      2186       2187       2198       2197       2307       2308       2319       2318  
      2187       2188       2199       2198       2308       2309       2320       2319  
      2188       2189       2200       2199       2309       2310       2321       2320  
      2190       2191       2202       2201       2311       2312       2323       2322  
      2191       2192       2203       2202       2312       2313       2324       2323  
      2192       2193       2204       2203       2313       2314       2325       2324  
      2193       2194       2205       2204       2314       2315       2326       2325  
      2194       2195       2206       2205       2315       2316       2327       2326  
      2195       2196       2207       2206       2316       2317       2328       2327  
      2196       2197       2208       2207       2317       2318       2329       2328  
      2197       2198       2209       2208       2318       2319       2330       2329  
      2198       2199       2210       2209       2319       2320       2331       2330  
      2199       2200       2211       2210       2320       2321       2332       2331  
      2201       2202       2213       2212       2322       2323       2334       2333  
      2202       2203       2214       2213       2323       2324       2335       2334  
      2203       2204       2215       2214       2324       2325       2336       2335  
      2204       2205       2216       2215       2325       2326       2337       2336  
      2205       2206       2217       2216       2326       2327       2338       2337  
      2206       2207       2218       2217       2327       2328       2339       2338  
      2207       2208       2219       2218       2328       2329       2340       2339  
      2208       2209       2220       2219       2329       2330       2341       2340  
      2209       2210       2221       2220       2330       2331       2342       2341  
      2210       2211       2222       2221       2331       2332       2343       2342  
      2212       2213       2224       2223       2333       2334       2345       2344  
      2213       2214       2225       2224       2334       2335       2346       2345  
      2214       2215       2226       2225       2335       2336       2347       2346  
      2215       2216       2227       2226       2336       2337       2348       2347  
      2216       2217       2228       2227       2337       2338       2349       2348  
      2217       2218       2229       2228       2338       2339       2350       2349  
      2218       2219       2230       2229       2339       2340       2351       2350  
      2219       2220       2231       2230       2340       2341       2352       2351  
      2220       2221       2232       2231       2341       2342       2353       2352  
      2221       2222       2233       2232       2342       2343       2354       2353  
      2223       2224       2235       2234       2344       2345       2356       2355  
      2224       2225       2236       2235       2345       2346       2357       2356  
      2225       2226       2237       2236       2346       2347       2358       2357  
      2226       2227       2238       2237       2347       2348       2359       2358  
      2227       2228       2239       2238       2348       2349       2360       2359  
      2228       2229       2240       2239       2349       2350       2361       2360  
      2229       2230       2241       2240       2350       2351       2362       2361  
      2230       2231       2242       2241       2351       2352       2363       2362  
      2231       2232       2243       2242       2352       2353       2364       2363  
      2232       2233       2244       2243       2353       2354       2365       2364  
      2234       2235       2246       2245       2355       2356       2367       2366  
      2235       2236       2247       2246       2356       2357       2368       2367  
      2236       2237       2248       2247       2357       2358       2369       2368  
      2237       2238       2249       2248       2358       2359       2370       2369  
      2238       2239       2250       2249       2359       2360       2371       2370  
      2239       2240       2251       2250       2360       2361       2372       2371  
      2240       2241       2252       2251       2361       2362       2373       2372  
      2241       2242       2253       2252       2362       2363       2374       2373  
      2242       2243       2254       2253       2363       2364       2375       2374  
      2243       2244       2255       2254       2364       2365       2376       2375  
      2245       2246       2257       2256       2366       2367       2378       2377  
      2246       2247       2258       2257       2367       2368       2379       2378  
      2247       2248       2259       2258       2368       2369       2380       2379  
      2248       2249       2260       2259       2369       2370       2381       2380  
      2249       2250       2261       2260       2370       2371       2382       2381  
      2250       2251       2262       2261       2371       2372       2383       2382  
      2251       2252       2263       2262       2372       2373       2384       2383  
      2252       2253       2264       2263       2373       2374       2385       2384  
      2253       2254       2265       2264       2374       2375       2386       2385  
      2254       2255       2266       2265       2375       2376       2387       2386  
      2256       2257       2268       2267       2377       2378       2389       2388  
      2257       2258       2269       2268       2378       2379       2390       2389  
      2258       2259       2270       2269       2379       2380       2391       2390  
      2259       2260       2271       2270       2380       2381       2392       2391  
      2260       2261       2272       2271       2381       2382       2393       2392  
      2261       2262       2273       2272       2382       2383       2394       2393  
      2262       2263       2274       2273       2383       2384       2395       2394  
      2263       2264       2275       2274       2384       2385       2396       2395  
      2264       2265       2276       2275       2385       2386       2397       2396  
      2265       2266       2277       2276       2386       2387       2398       2397  
      2267       2268       2279       2278       2388       2389       2400       2399  
      2268       2269       2280       2279       2389       2390       2401       2400  
      2269       2270       2281       2280       2390       2391       2402       2401  
      2270       2271       2282       2281       2391       2392       2403       2402  
      2271       2272       2283       2282       2392       2393       2404       2403  
      2272       2273       2284       2283       2393       2394       2405       2404  
      2273       2274       2285       2284       2394       2395       2406       2405  
      2274       2275       2286       2285       2395       2396       2407       2406  
      2275       2276       2287       2286       2396       2397       2408       2407  
      2276       2277       2288       2287       2397       2398       2409       2408  
      2278       2279       2290       2289       2399       2400       2411       2410  
      2279       2280       2291       2290       2400       2401       2412       2411  
      2280       2281       2292       2291       2401       2402       2413       2412  
      2281       2282       2293       2292       2402       2403       2414       2413  
      2282       2283       2294       2293       2403       2404       2415       2414  
      2283       2284       2295       2294       2404       2405       2416       2415  
      2284       2285       2296       2295       2405       2406       2417       2416  
      2285       2286       2297       2296       2406       2407       2418       2417  
      2286       2287       2298       2297       2407       2408       2419       2418  
      2287       2288       2299       2298       2408       2409       2420       2419  
      2300       2301       2312       2311       2421       2422       2433       2432  
      2301       2302       2313       2312       2422       2423       2434       2433  
      2302       2303       2314       2313       2423       2424       2435       2434  
      2303       2304       2315       2314       2424       2425       2436       2435  
      2304       2305       2316       2315       2425       2426       2437       2436  
      2305       2306       2317       2316       2426       2427       2438       2437  
      2306       2307       2318       2317       2427       2428       2439       2438  
      2307       2308       2319       2318       2428       2429       2440       2439  
      2308       2309       2320       2319       2429       2430       2441       2440  
      2309       2310       2321       2320       2430       2431       2442       2441  
      2311       2312       2323       2322       2432       2433       2444       2443  
      2312       2313       2324       2323       2433       2434       2445       2444  
      2313       2314       2325       2324       2434       2435       2446       2445  
      2314       2315       2326       2325       2435       2436       2447       2446  
      2315       2316       2327       2326       2436       2437       2448       2447  
      2316       2317       2328       2327       2437       2438       2449       2448  
      2317       2318       2329       2328       2438       2439       2450       2449  
      2318       2319       2330       2329       2439       2440       2451       2450  
      2319       2320       2331       2330       2440       2441       2452       2451  
      2320       2321       2332       2331       2441       2442       2453       2452  
      2322       2323       2334       2333       2443       2444       2455       2454  
      2323       2324       2335       2334       2444       2445       2456       2455  
      2324       2325       2336       2335       2445       2446       2457       2456  
      2325       2326       2337       2336       2446       2447       2458       2457  
      2326       2327       2338       2337       2447       2448       2459       2458  
      2327       2328       2339       2338       2448       2449       2460       2459  
      2328       2329       2340       2339       2449       2450       2461       2460  
      2329       2330       2341       2340       2450       2451       2462       2461  
      2330       2331       2342       2341       2451       2452       2463       2462  
      2331       2332       2343       2342       2452       2453       2464       2463  
      2333       2334       2345       2344       2454       2455       2466       2465  
      2334       2335       2346       2345       2455       2456       2467       2466  
      2335       2336       2347       2346       2456       2457       2468       2467  
      2336       2337       2348       2347       2457       2458       2469       2468  
      2337       2338       2349       2348       2458       2459       2470       2469  
      2338       2339       2350       2349       2459       2460       2471       2470  
      2339       2340       2351       2350       2460       2461       2472       2471  
      2340       2341       2352       2351       2461       2462       2473       2472  
      2341       2342       2353       2352       2462       2463       2474       2473  
      2342       2343       2354       2353       2463       2464       2475       2474  
      2344       2345       2356       2355       2465       2466       2477       2476  
      2345       2346       2357       2356       2466       2467       2478       2477  
      2346       2347       2358       2357       2467       2468       2479       2478  
      2347       2348       2359       2358       2468       2469       2480       2479  
      2348       2349       2360       2359       2469       2470       2481       2480  
      2349       2350       2361       2360       2470       2471       2482       2481  
      2350       2351       2362       2361       2471       2472       2483       2482  
      2351       2352       2363       2362       2472       2473       2484       2483  
      2352       2353       2364       2363       2473       2474       2485       2484  
      2353       2354       2365       2364       2474       2475       2486       2485  
      2355       2356       2367       2366       2476       2477       2488       2487  
      2356       2357       2368       2367       2477       2478       2489       2488  
      2357       2358       2369       2368       2478       2479       2490       2489  
      2358       2359       2370       2369       2479       2480       2491       2490  
      2359       2360       2371       2370       2480       2481       2492       2491  
      2360       2361       2372       2371       2481       2482       2493       2492  
      2361       2362       2373       2372       2482       2483       2494       2493  
      2362       2363       2374       2373       2483       2484       2495       2494  
      2363       2364       2375       2374       2484       2485       2496       2495  
      2364       2365       2376       2375       2485       2486       2497       2496  
      2366       2367       2378       2377       2487       2488       2499       2498  
      2367       2368       2379       2378       2488       2489       2500       2499  
      2368       2369       2380       2379       2489       2490       2501       2500  
      2369       2370       2381       2380       2490       2491       2502       2501  
      2370       2371       2382       2381       2491       2492       2503       2502  
      2371       2372       2383       2382       2492       2493       2504       2503  
      2372       2373       2384       2383       2493       2494       2505       2504  
      2373       2374       2385       2384       2494       2495       2506       2505  
      2374       2375       2386       2385       2495       2496       2507       2506  
      2375       2376       2387       2386       2496       2497       2508       2507  
      2377       2378       2389       2388       2498       2499       2510       2509  
      2378       2379       2390       2389       2499       2500       2511       2510  
      2379       2380       2391       2390       2500       2501       2512       2511  
      2380       2381       2392       2391       2501       2502       2513       2512  
      2381       2382       2393       2392       2502       2503       2514       2513  
      2382       2383       2394       2393       2503       2504       2515       2514  
      2383       2384       2395       2394       2504       2505       2516       2515  
      2384       2385       2396       2395       2505       2506       2517       2516  
      2385       2386       2397       2396       2506       2507       2518       2517  
      2386       2387       2398       2397       2507       2508       2519       2518  
      2388       2389       2400       2399       2509       2510       2521       2520  
      2389       2390       2401       2400       2510       2511       2522       2521  
      2390       2391       2402       2401       2511       2512       2523       2522  
      2391       2392       2403       2402       2512       2513       2524       2523  
      2392       2393       2404       2403       2513       2514       2525       2524  
      2393       2394       2405       2404       2514       2515       2526       2525  
      2394       2395       2406       2405       2515       2516       2527       2526  
      2395       2396       2407       2406       2516       2517       2528       2527  
      2396       2397       2408       2407       2517       2518       2529       2528  
      2397       2398       2409       2408       2518       2519       2530       2529  
      2399       2400       2411       2410       2520       2521       2532       2531  
      2400       2401       2412       2411       2521       2522       2533       2532  
      2401       2402       2413       2412       2522       2523       2534       2533  
      2402       2403       2414       2413       2523       2524       2535       2534  
      2403       2404       2415       2414       2524       2525       2536       2535  
      2404       2405       2416       2415       2525       2526       2537       2536  
      2405       2406       2417       2416       2526       2527       2538       2537  
      2406       2407       2418       2417       2527       2528       2539       2538  
      2407       2408       2419       2418       2528       2529       2540       2539  
      2408       2409       2420       2419       2529       2530       2541       2540  
      2421       2422       2433       2432       2542       2543       2554       2553  
      2422       2423       2434       2433       2543       2544       2555       2554  
      2423       2424       2435       2434       2544       2545       2556       2555  
      2424       2425       2436       2435       2545       2546       2557       2556  
      2425       2426       2437       2436       2546       2547       2558       2557  
      2426       2427       2438       2437       2547       2548       2559       2558  
      2427       2428       2439       2438       2548       2549       2560       2559  
      2428       2429       2440       2439       2549       2550       2561       2560  
      2429       2430       2441       2440       2550       2551       2562       2561  
      2430       2431       2442       2441       2551       2552       2563       2562  
      2432       2433       2444       2443       2553       2554       2565       2564  
      2433       2434       2445       2444       2554       2555       2566       2565  
      2434       2435       2446       2445       2555       2556       2567       2566  
      2435       2436       2447       2446       2556       2557       2568       2567  
      2436       2437       2448       2447       2557       2558       2569       2568  
      2437       2438       2449       2448       2558       2559       2570       2569  
      2438       2439       2450       2449       2559       2560       2571       2570  
      2439       2440       2451       2450       2560       2561       2572       2571  
      2440       2441       2452       2451       2561       2562       2573       2572  
      2441       2442       2453       2452       2562       2563       2574       2573  
      2443       2444       2455       2454       2564       2565       2576       2575  
      2444       2445       2456       2455       2565       2566       2577       2576  
      2445       2446       2457       2456       2566       2567       2578       2577  
      2446       2447       2458       2457       2567       2568       2579       2578  
      2447       2448       2459       2458       2568       2569       2580       2579  
      2448       2449       2460       2459       2569       2570       2581       2580  
      2449       2450       2461       2460       2570       2571       2582       2581  
      2450       2451       2462       2461       2571       2572       2583       2582  
      2451       2452       2463       2462       2572       2573       2584       2583  
      2452       2453       2464       2463       2573       2574       2585       2584  
      2454       2455       2466       2465       2575       2576       2587       2586  
      2455       2456       2467       2466       2576       2577       2588       2587  
      2456       2457       2468       2467       2577       2578       2589       2588  
      2457       2458       2469       2468       2578       2579       2590       2589  
      2458       2459       2470       2469       2579       2580       2591       2590  
      2459       2460       2471       2470       2580       2581       2592       2591  
      2460       2461       2472       2471       2581       2582       2593       2592  
      2461       2462       2473       2472       2582       2583       2594       2593  
      2462       2463       2474       2473       2583       2584       2595       2594  
      2463       2464       2475       2474       2584       2585       2596       2595  
      2465       2466       2477       2476       2586       2587       2598       2597  
      2466       2467       2478       2477       2587       2588       2599       2598  
      2467       2468       2479       2478       2588       2589       2600       2599  
      2468       2469       2480       2479       2589       2590       2601       2600  
      2469       2470       2481       2480       2590       2591       2602       2601  
      2470       2471       2482       2481       2591       2592       2603       2602  
      2471       2472       2483       2482       2592       2593       2604       2603  
      2472       2473       2484       2483       2593       2594       2605       2604  
      2473       2474       2485       2484       2594       2595       2606       2605  
      2474       2475       2486       2485       2595       2596       2607       2606  
      2476       2477       2488       2487       2597       2598       2609       2608  
      2477       2478       2489       2488       2598       2599       2610       2609  
      2478       2479       2490       2489       2599       2600       2611       2610  
      2479       2480       2491       2490       2600       2601       2612       2611  
      2480       2481       2492       2491       2601       2602       2613       2612  
      2481       2482       2493       2492       2602       2603       2614       2613  
      2482       2483       2494       2493       2603       2604       2615       2614  
      2483       2484       2495       2494       2604       2605       2616       2615  
      2484       2485       2496       2495       2605       2606       2617       2616  
      2485       2486       2497       2496       2606       2607       2618       2617  
      2487       2488       2499       2498       2608       2609       2620       2619  
      2488       2489       2500       2499       2609       2610       2621       2620  
      2489       2490       2501       2500       2610       2611       2622       2621  
      2490       2491       2502       2501       2611       2612       2623       2622  
      2491       2492       2503       2502       2612       2613       2624       2623  
      2492       2493       2504       2503       2613       2614       2625       2624  
      2493       2494       2505       2504       2614       2615       2626       2625  
      2494       2495       2506       2505       2615       2616       2627       2626  
      2495       2496       2507       2506       2616       2617       2628       2627  
      2496       2497       2508       2507       2617       2618       2629       2628  
      2498       2499       2510       2509       2619       2620       2631       2630  
      2499       2500       2511       2510       2620       2621       2632       2631  
      2500       2501       2512       2511       2621       2622       2633       2632  
      2501       2502       2513       2512       2622       2623       2634       2633  
      2502       2503       2514       2513       2623       2624       2635       2634  
      2503       2504       2515       2514       2624       2625       2636       2635  
      2504       2505       2516       2515       2625       2626       2637       2636  
      2505       2506       2517       2516       2626       2627       2638       2637  
      2506       2507       2518       2517       2627       2628       2639       2638  
      2507       2508       2519       2518       2628       2629       2640       2639  
      2509       2510       2521       2520       2630       2631       2642       2641  
      2510       2511       2522       2521       2631       2632       2643       2642  
      2511       2512       2523       2522       2632       2633       2644       2643  
      2512       2513       2524       2523       2633       2634       2645       2644  
      2513       2514       2525       2524       2634       2635       2646       2645  
      2514       2515       2526       2525       2635       2636       2647       2646  
      2515       2516       2527       2526       2636       2637       2648       2647  
      2516       2517       2528       2527       2637       2638       2649       2648  
      2517       2518       2529       2528       2638       2639       2650       2649  
      2518       2519       2530       2529       2639       2640       2651       2650  
      2520       2521       2532       2531       2641       2642       2653       2652  
      2521       2522       2533       2532       2642       2643       2654       2653  
      2522       2523       2534       2533       2643       2644       2655       2654  
      2523       2524       2535       2534       2644       2645       2656       2655  
      2524       2525       2536       2535       2645       2646       2657       2656  
      2525       2526       2537       2536       2646       2647       2658       2657  
      2526       2527       2538       2537       2647       2648       2659       2658  
      2527       2528       2539       2538       2648       2649       2660       2659  
      2528       2529       2540       2539       2649       2650       2661       2660  
      2529       2530       2541       2540       2650       2651       2662       2661  
      2542       2543       2554       2553       2663       2664       2675       2674  
      2543       2544       2555       2554       2664       2665       2676       2675  
      2544       2545       2556       2555       2665       2666       2677       2676  
      2545       2546       2557       2556       2666       2667       2678       2677  
      2546       2547       2558       2557       2667       2668       2679       2678  
      2547       2548       2559       2558       2668       2669       2680       2679  
      2548       2549       2560       2559       2669       2670       2681       2680  
      2549       2550       2561       2560       2670       2671       2682       2681  
      2550       2551       2562       2561       2671       2672       2683       2682  
      2551       2552       2563       2562       2672       2673       2684       2683  
      2553       2554       2565       2564       2674       2675       2686       2685  
      2554       2555       2566       2565       2675       2676       2687       2686  
      2555       2556       2567       2566       2676       2677       2688       2687  
      2556       2557       2568       2567       2677       2678       2689       2688  
      2557       2558       2569       2568       2678       2679       2690       2689  
      2558       2559       2570       2569       2679       2680       2691       2690  
      2559       2560       2571       2570       2680       2681       2692       2691  
      2560       2561       2572       2571       2681       2682       2693       2692  
      2561       2562       2573       2572       2682       2683       2694       2693  
      2562       2563       2574       2573       2683       2684       2695       2694  
      2564       2565       2576       2575       2685       2686       2697       2696  
      2565       2566       2577       2576       2686       2687       2698       2697  
      2566       2567       2578       2577       2687       2688       2699       2698  
      2567       2568       2579       2578       2688       2689       2700       2699  
      2568       2569       2580       2579       2689       2690       2701       2700  
      2569       2570       2581       2580       2690       2691       2702       2701  
      2570       2571       2582       2581       2691       2692       2703       2702  
      2571       2572       2583       2582       2692       2693       2704       2703  
      2572       2573       2584       2583       2693       2694       2705       2704  
      2573       2574       2585       2584       2694       2695       2706       2705  
      2575       2576       2587       2586       2696       2697       2708       2707  
      2576       2577       2588       2587       2697       2698       2709       2708  
      2577       2578       2589       2588       2698       2699       2710       2709  
      2578       2579       2590       2589       2699       2700       2711       2710  
      2579       2580       2591       2590       2700       2701       2712       2711  
      2580       2581       2592       2591       2701       2702       2713       2712  
      2581       2582       2593       2592       2702       2703       2714       2713  
      2582       2583       2594       2593       2703       2704       2715       2714  
      2583       2584       2595       2594       2704       2705       2716       2715  
      2584       2585       2596       2595       2705       2706       2717       2716  
      2586       2587       2598       2597       2707       2708       2719       2718  
      2587       2588       2599       2598       2708       2709       2720       2719  
      2588       2589       2600       2599       2709       2710       2721       2720  
      2589       2590       2601       2600       2710       2711       2722       2721  
      2590       2591       2602       2601       2711       2712       2723       2722  
      2591       2592       2603       2602       2712       2713       2724       2723  
      2592       2593       2604       2603       2713       2714       2725       2724  
      2593       2594       2605       2604       2714       2715       2726       2725  
      2594       2595       2606       2605       2715       2716       2727       2726  
      2595       2596       2607       2606       2716       2717       2728       2727  
      2597       2598       2609       2608       2718       2719       2730       2729  
      2598       2599       2610       2609       2719       2720       2731       2730  
      2599       2600       2611       2610       2720       2721       2732       2731  
      2600       2601       2612       2611       2721       2722       2733       2732  
      2601       2602       2613       2612       2722       2723       2734       2733  
      2602       2603       2614       2613       2723       2724       2735       2734  
      2603       2604       2615       2614       2724       2725       2736       2735  
      2604       2605       2616       2615       2725       2726       2737       2736  
      2605       2606       2617       2616       2726       2727       2738       2737  
      2606       2607       2618       2617       2727       2728       2739       2738  
      2608       2609       2620       2619       2729       2730       2741       2740  
      2609       2610       2621       2620       2730       2731       2742       2741  
      2610       2611       2622       2621       2731       2732       2743       2742  
      2611       2612       2623       2622       2732       2733       2744       2743  
      2612       2613       2624       2623       2733       2734       2745       2744  
      2613       2614       2625       2624       2734       2735       2746       2745  
      2614       2615       2626       2625       2735       2736       2747       2746  
      2615       2616       2627       2626       2736       2737       2748       2747  
      2616       2617       2628       2627       2737       2738       2749       2748  
      2617       2618       2629       2628       2738       2739       2750       2749  
      2619       2620       2631       2630       2740       2741       2752       2751  
      2620       2621       2632       2631       2741       2742       2753       2752  
      2621       2622       2633       2632       2742       2743       2754       2753  
      2622       2623       2634       2633       2743       2744       2755       2754  
      2623       2624       2635       2634       2744       2745       2756       2755  
      2624       2625       2636       2635       2745       2746       2757       2756  
      2625       2626       2637       2636       2746       2747       2758       2757  
      2626       2627       2638       2637       2747       2748       2759       2758  
      2627       2628       2639       2638       2748       2749       2760       2759  
      2628       2629       2640       2639       2749       2750       2761       2760  
      2630       2631       2642       2641       2751       2752       2763       2762  
      2631       2632       2643       2642       2752       2753       2764       2763  
      2632       2633       2644       2643       2753       2754       2765       2764  
      2633       2634       2645       2644       2754       2755       2766       2765  
      2634       2635       2646       2645       2755       2756       2767       2766  
      2635       2636       2647       2646       2756       2757       2768       2767  
      2636       2637       2648       2647       2757       2758       2769       2768  
      2637       2638       2649       2648       2758       2759       2770       2769  
      2638       2639       2650       2649       2759       2760       2771       2770  
      2639       2640       2651       2650       2760       2761       2772       2771  
      2641       2642       2653       2652       2762       2763       2774       2773  
      2642       2643       2654       2653       2763       2764       2775       2774  
      2643       2644       2655       2654       2764       2765       2776       2775  
      2644       2645       2656       2655       2765       2766       2777       2776  
      2645       2646       2657       2656       2766       2767       2778       2777  
      2646       2647       2658       2657       2767       2768       2779       2778  
      2647       2648       2659       2658       2768       2769       2780       2779  
      2648       2649       2660       2659       2769       2770       2781       2780  
      2649       2650       2661       2660       2770       2771       2782       2781  
      2650       2651       2662       2661       2771       2772       2783       2782  
      2663       2664       2675       2674       2784       2785       2796       2795  
      2664       2665       2676       2675       2785       2786       2797       2796  
      2665       2666       2677       2676       2786       2787       2798       2797  
      2666       2667       2678       2677       2787       2788       2799       2798  
      2667       2668       2679       2678       2788       2789       2800       2799  
      2668       2669       2680       2679       2789       2790       2801       2800  
      2669       2670       2681       2680       2790       2791       2802       2801  
      2670       2671       2682       2681       2791       2792       2803       2802  
      2671       2672       2683       2682       2792       2793       2804       2803  
      2672       2673       2684       2683       2793       2794       2805       2804  
      2674       2675       2686       2685       2795       2796       2807       2806  
      2675       2676       2687       2686       2796       2797       2808       2807  
      2676       2677       2688       2687       2797       2798       2809       2808  
      2677       2678       2689       2688       2798       2799       2810       2809  
      2678       2679       2690       2689       2799       2800       2811       2810  
      2679       2680       2691       2690       2800       2801       2812       2811  
      2680       2681       2692       2691       2801       2802       2813       2812  
      2681       2682       2693       2692       2802       2803       2814       2813  
      2682       2683       2694       2693       2803       2804       2815       2814  
      2683       2684       2695       2694       2804       2805       2816       2815  
      2685       2686       2697       2696       2806       2807       2818       2817  
      2686       2687       2698       2697       2807       2808       2819       2818  
      2687       2688       2699       2698       2808       2809       2820       2819  
      2688       2689       2700       2699       2809       2810       2821       2820  
      2689       2690       2701       2700       2810       2811       2822       2821  
      2690       2691       2702       2701       2811       2812       2823       2822  
      2691       2692       2703       2702       2812       2813       2824       2823  
      2692       2693       2704       2703       2813       2814       2825       2824  
      2693       2694       2705       2704       2814       2815       2826       2825  
      2694       2695       2706       2705       2815       2816       2827       2826  
      2696       2697       2708       2707       2817       2818       2829       2828  
      2697       2698       2709       2708       2818       2819       2830       2829  
      2698       2699       2710       2709       2819       2820       2831       2830  
      2699       2700       2711       2710       2820       2821       2832       2831  
      2700       2701       2712       2711       2821       2822       2833       2832  
      2701       2702       2713       2712       2822       2823       2834       2833  
      2702       2703       2714       2713       2823       2824       2835       2834  
      2703       2704       2715       2714       2824       2825       2836       2835  
      2704       2705       2716       2715       2825       2826       2837       2836  
      2705       2706       2717       2716       2826       2827       2838       2837  
      2707       2708       2719       2718       2828       2829       2840       2839  
      2708       2709       2720       2719       2829       2830       2841       2840  
      2709       2710       2721       2720       2830       2831       2842       2841  
      2710       2711       2722       2721       2831       2832       2843       2842  
      2711       2712       2723       2722       2832       2833       2844       2843  
      2712       2713       2724       2723       2833       2834       2845       2844  
      2713       2714       2725       2724       2834       2835       2846       2845  
      2714       2715       2726       2725       2835       2836       2847       2846  
      2715       2716       2727       2726       2836       2837       2848       2847  
      2716       2717       2728       2727       2837       2838       2849       2848  
      2718       2719       2730       2729       2839       2840       2851       2850  
      2719       2720       2731       2730       2840       2841       2852       2851  
      2720       2721       2732       2731       2841       2842       2853       2852  
      2721       2722       2733       2732       2842       2843       2854       2853  
      2722       2723       2734       2733       2843       2844       2855       2854  
      2723       2724       2735       2734       2844       2845       2856       2855  
      2724       2725       2736       2735       2845       2846       2857       2856  
      2725       2726       2737       2736       2846       2847       2858       2857  
      2726       2727       2738       2737       2847       2848       2859       2858  
      2727       2728       2739       2738       2848       2849       2860       2859  
      2729       2730       2741       2740       2850       2851       2862       2861  
      2730       2731       2742       2741       2851       2852       2863       2862  
      2731       2732       2743       2742       2852       2853       2864       2863  
      2732       2733       2744       2743       2853       2854       2865       2864  
      2733       2734       2745       2744       2854       2855       2866       2865  
      2734       2735       2746       2745       2855       2856       2867       2866  
      2735       2736       2747       2746       2856       2857       2868       2867  
      2736       2737       2748       2747       2857       2858       2869       2868  
      2737       2738       2749       2748       2858       2859       2870       2869  
      2738       2739       2750       2749       2859       2860       2871       2870  
      2740       2741       2752       2751       2861       2862       2873       2872  
      2741       2742       2753       2752       2862       2863       2874       2873  
      2742       2743       2754       2753       2863       2864       2875       2874  
      2743       2744       2755       2754       2864       2865       2876       2875  
      2744       2745       2756       2755       2865       2866       2877       2876  
      2745       2746       2757       2756       2866       2867       2878       2877  
      2746       2747       2758       2757       2867       2868       2879       2878  
      2747       2748       2759       2758       2868       2869       2880       2879  
      2748       2749       2760       2759       2869       2870       2881       2880  
      2749       2750       2761       2760       2870       2871       2882       2881  
      2751       2752       2763       2762       2872       2873       2884       2883  
      2752       2753       2764       2763       2873       2874       2885       2884  
      2753       2754       2765       2764       2874       2875       2886       2885  
      2754       2755       2766       2765       2875       2876       2887       2886  
      2755       2756       2767       2766       2876       2877       2888       2887  
      2756       2757       2768       2767       2877       2878       2889       2888  
      2757       2758       2769       2768       2878       2879       2890       2889  
      2758       2759       2770       2769       2879       2880       2891       2890  
      2759       2760       2771       2770       2880       2881       2892       2891  
      2760       2761       2772       2771       2881       2882       2893       2892  
      2762       2763       2774       2773       2883       2884       2895       2894  
      2763       2764       2775       2774       2884       2885       2896       2895  
      2764       2765       2776       2775       2885       2886       2897       2896  
      2765       2766       2777       2776       2886       2887       2898       2897  
      2766       2767       2778       2777       2887       2888       2899       2898  
      2767       2768       2779       2778       2888       2889       2900       2899  
      2768       2769       2780       2779       2889       2890       2901       2900  
      2769       2770       2781       2780       2890       2891       2902       2901  
      2770       2771       2782       2781       2891       2892       2903       2902  
      2771       2772       2783       2782       2892       2893       2904       2903  
      2784       2785       2796       2795       2905       2906       2917       2916  
      2785       2786       2797       2796       2906       2907       2918       2917  
      2786       2787       2798       2797       2907       2908       2919       2918  
      2787       2788       2799       2798       2908       2909       2920       2919  
      2788       2789       2800       2799       2909       2910       2921       2920  
      2789       2790       2801       2800       2910       2911       2922       2921  
      2790       2791       2802       2801       2911       2912       2923       2922  
      2791       2792       2803       2802       2912       2913       2924       2923  
      2792       2793       2804       2803       2913       2914       2925       2924  
      2793       2794       2805       2804       2914       2915       2926       2925  
      2795       2796       2807       2806       2916       2917       2928       2927  
      2796       2797       2808       2807       2917       2918       2929       2928  
      2797       2798       2809       2808       2918       2919       2930       2929  
      2798       2799       2810       2809       2919       2920       2931       2930  
      2799       2800       2811       2810       2920       2921       2932       2931  
      2800       2801       2812       2811       2921       2922       2933       2932  
      2801       2802       2813       2812       2922       2923       2934       2933  
      2802       2803       2814       2813       2923       2924       2935       2934  
      2803       2804       2815       2814       2924       2925       2936       2935  
      2804       2805       2816       2815       2925       2926       2937       2936  
      2806       2807       2818       2817       2927       2928       2939       2938  
      2807       2808       2819       2818       2928       2929       2940       2939  
      2808       2809       2820       2819       2929       2930       2941       2940  
      2809       2810       2821       2820       2930       2931       2942       2941  
      2810       2811       2822       2821       2931       2932       2943       2942  
      2811       2812       2823       2822       2932       2933       2944       2943  
      2812       2813       2824       2823       2933       2934       2945       2944  
      2813       2814       2825       2824       2934       2935       2946       2945  
      2814       2815       2826       2825       2935       2936       2947       2946  
      2815       2816       2827       2826       2936       2937       2948       2947  
      2817       2818       2829       2828       2938       2939       2950       2949  
      2818       2819       2830       2829       2939       2940       2951       2950  
      2819       2820       2831       2830       2940       2941       2952       2951  
      2820       2821       2832       2831       2941       2942       2953       2952  
      2821       2822       2833       2832       2942       2943       2954       2953  
      2822       2823       2834       2833       2943       2944       2955       2954  
      2823       2824       2835       2834       2944       2945       2956       2955  
      2824       2825       2836       2835       2945       2946       2957       2956  
      2825       2826       2837       2836       2946       2947       2958       2957  
      2826       2827       2838       2837       2947       2948       2959       2958  
      2828       2829       2840       2839       2949       2950       2961       2960  
      2829       2830       2841       2840       2950       2951       2962       2961  
      2830       2831       2842       2841       2951       2952       2963       2962  
      2831       2832       2843       2842       2952       2953       2964       2963  
      2832       2833       2844       2843       2953       2954       2965       2964  
      2833       2834       2845       2844       2954       2955       2966       2965  
      2834       2835       2846       2845       2955       2956       2967       2966  
      2835       2836       2847       2846       2956       2957       2968       2967  
      2836       2837       2848       2847       2957       2958       2969       2968  
      2837       2838       2849       2848       2958       2959       2970       2969  
      2839       2840       2851       2850       2960       2961       2972       2971  
      2840       2841       2852       2851       2961       2962       2973       2972  
      2841       2842       2853       2852       2962       2963       2974       2973  
      2842       2843       2854       2853       2963       2964       2975       2974  
      2843       2844       2855       2854       2964       2965       2976       2975  
      2844       2845       2856       2855       2965       2966       2977       2976  
      2845       2846       2857       2856       2966       2967       2978       2977  
      2846       2847       2858       2857       2967       2968       2979       2978  
      2847       2848       2859       2858       2968       2969       2980       2979  
      2848       2849       2860       2859       2969       2970       2981       2980  
      2850       2851       2862       2861       2971       2972       2983       2982  
      2851       2852       2863       2862       2972       2973       2984       2983  
      2852       2853       2864       2863       2973       2974       2985       2984  
      2853       2854       2865       2864       2974       2975       2986       2985  
      2854       2855       2866       2865       2975       2976       2987       2986  
      2855       2856       2867       2866       2976       2977       2988       2987  
      2856       2857       2868       2867       2977       2978       2989       2988  
      2857       2858       2869       2868       2978       2979       2990       2989  
      2858       2859       2870       2869       2979       2980       2991       2990  
      2859       2860       2871       2870       2980       2981       2992       2991  
      2861       2862       2873       2872       2982       2983       2994       2993  
      2862       2863       2874       2873       2983       2984       2995       2994  
      2863       2864       2875       2874       2984       2985       2996       2995  
      2864       2865       2876       2875       2985       2986       2997       2996  
      2865       2866       2877       2876       2986       2987       2998       2997  
      2866       2867       2878       2877       2987       2988       2999       2998  
      2867       2868       2879       2878       2988       2989       3000       2999  
      2868       2869       2880       2879       2989       2990       3001       3000  
      2869       2870       2881       2880       2990       2991       3002       3001  
      2870       2871       2882       2881       2991       2992       3003       3002  
      2872       2873       2884       2883       2993       2994       3005       3004  
      2873       2874       2885       2884       2994       2995       3006       3005  
      2874       2875       2886       2885       2995       2996       3007       3006  
      2875       2876       2887       2886       2996       2997       3008       3007  
      2876       2877       2888       2887       2997       2998       3009       3008  
      2877       2878       2889       2888       2998       2999       3010       3009  
      2878       2879       2890       2889       2999       3000       3011       3010  
      2879       2880       2891       2890       3000       3001       3012       3011  
      2880       2881       2892       2891       3001       3002       3013       3012  
      2881       2882       2893       2892       3002       3003       3014       3013  
      2883       2884       2895       2894       3004       3005       3016       3015  
      2884       2885       2896       2895       3005       3006       3017       3016  
      2885       2886       2897       2896       3006       3007       3018       3017  
      2886       2887       2898       2897       3007       3008       3019       3018  
      2887       2888       2899       2898       3008       3009       3020       3019  
      2888       2889       2900       2899       3009       3010       3021       3020  
      2889       2890       2901       2900       3010       3011       3022       3021  
      2890       2891       2902       2901       3011       3012       3023       3022  
      2891       2892       2903       2902       3012       3013       3024       3023  
      2892       2893       2904       2903       3013       3014       3025       3024  
      2905       2906       2917       2916       3026       3027       3038       3037  
      2906       2907       2918       2917       3027       3028       3039       3038  
      2907       2908       2919       2918       3028       3029       3040       3039  
      2908       2909       2920       2919       3029       3030       3041       3040  
      2909       2910       2921       2920       3030       3031       3042       3041  
      2910       2911       2922       2921       3031       3032       3043       3042  
      2911       2912       2923       2922       3032       3033       3044       3043  
      2912       2913       2924       2923       3033       3034       3045       3044  
      2913       2914       2925       2924       3034       3035       3046       3045  
      2914       2915       2926       2925       3035       3036       3047       3046  
      2916       2917       2928       2927       3037       3038       3049       3048  
      2917       2918       2929       2928       3038       3039       3050       3049  
      2918       2919       2930       2929       3039       3040       3051       3050  
      2919       2920       2931       2930       3040       3041       3052       3051  
      2920       2921       2932       2931       3041       3042       3053       3052  
      2921       2922       2933       2932       3042       3043       3054       3053  
      2922       2923       2934       2933       3043       3044       3055       3054  
      2923       2924       2935       2934       3044       3045       3056       3055  
      2924       2925       2936       2935       3045       3046       3057       3056  
      2925       2926       2937       2936       3046       3047       3058       3057  
      2927       2928       2939       2938       3048       3049       3060       3059  
      2928       2929       2940       2939       3049       3050       3061       3060  
      2929       2930       2941       2940       3050       3051       3062       3061  
      2930       2931       2942       2941       3051       3052       3063       3062  
      2931       2932       2943       2942       3052       3053       3064       3063  
      2932       2933       2944       2943       3053       3054       3065       3064  
      2933       2934       2945       2944       3054       3055       3066       3065  
      2934       2935       2946       2945       3055       3056       3067       3066  
      2935       2936       2947       2946       3056       3057       3068       3067  
      2936       2937       2948       2947       3057       3058       3069       3068  
      2938       2939       2950       2949       3059       3060       3071       3070  
      2939       2940       2951       2950       3060       3061       3072       3071  
      2940       2941       2952       2951       3061       3062       3073       3072  
      2941       2942       2953       2952       3062       3063       3074       3073  
      2942       2943       2954       2953       3063       3064       3075       3074  
      2943       2944       2955       2954       3064       3065       3076       3075  
      2944       2945       2956       2955       3065       3066       3077       3076  
      2945       2946       2957       2956       3066       3067       3078       3077  
      2946       2947       2958       2957       3067       3068       3079       3078  
      2947       2948       2959       2958       3068       3069       3080       3079  
      2949       2950       2961       2960       3070       3071       3082       3081  
      2950       2951       2962       2961       3071       3072       3083       3082  
      2951       2952       2963       2962       3072       3073       3084       3083  
      2952       2953       2964       2963       3073       3074       3085       3084  
      2953       2954       2965       2964       3074       3075       3086       3085  
      2954       2955       2966       2965       3075       3076       3087       3086  
      2955       2956       2967       2966       3076       3077       3088       3087  
      2956       2957       2968       2967       3077       3078       3089       3088  
      2957       2958       2969       2968       3078       3079       3090       3089  
      2958       2959       2970       2969       3079       3080       3091       3090  
      2960       2961       2972       2971       3081       3082       3093       3092  
      2961       2962       2973       2972       3082       3083       3094       3093  
      2962       2963       2974       2973       3083       3084       3095       3094  
      2963       2964       2975       2974       3084       3085       3096       3095  
      2964       2965       2976       2975       3085       3086       3097       3096  
      2965       2966       2977       2976       3086       3087       3098       3097  
      2966       2967       2978       2977       3087       3088       3099       3098  
      2967       2968       2979       2978       3088       3089       3100       3099  
      2968       2969       2980       2979       3089       3090       3101       3100  
      2969       2970       2981       2980       3090       3091       3102       3101  
      2971       2972       2983       2982       3092       3093       3104       3103  
      2972       2973       2984       2983       3093       3094       3105       3104  
      2973       2974       2985       2984       3094       3095       3106       3105  
      2974       2975       2986       2985       3095       3096       3107       3106  
      2975       2976       2987       2986       3096       3097       3108       3107  
      2976       2977       2988       2987       3097       3098       3109       3108  
      2977       2978       2989       2988       3098       3099       3110       3109  
      2978       2979       2990       2989       3099       3100       3111       3110  
      2979       2980       2991       2990       3100       3101       3112       3111  
      2980       2981       2992       2991       3101       3102       3113       3112  
      2982       2983       2994       2993       3103       3104       3115       3114  
      2983       2984       2995       2994       3104       3105       3116       3115  
      2984       2985       2996       2995       3105       3106       3117       3116  
      2985       2986       2997       2996       3106       3107       3118       3117  
      2986       2987       2998       2997       3107       3108       3119       3118  
      2987       2988       2999       2998       3108       3109       3120       3119  
      2988       2989       3000       2999       3109       3110       3121       3120  
      2989       2990       3001       3000       3110       3111       3122       3121  
      2990       2991       3002       3001       3111       3112       3123       3122  
      2991       2992       3003       3002       3112       3113       3124       3123  
      2993       2994       3005       3004       3114       3115       3126       3125  
      2994       2995       3006       3005       3115       3116       3127       3126  
      2995       2996       3007       3006       3116       3117       3128       3127  
      2996       2997       3008       3007       3117       3118       3129       3128  
      2997       2998       3009       3008       3118       3119       3130       3129  
      2998       2999       3010       3009       3119       3120       3131       3130  
      2999       3000       3011       3010       3120       3121       3132       3131  
      3000       3001       3012       3011       3121       3122       3133       3132  
      3001       3002       3013       3012       3122       3123       3134       3133  
      3002       3003       3014       3013       3123       3124       3135       3134  
      3004       3005       3016       3015       3125       3126       3137       3136  
      3005       3006       3017       3016       3126       3127       3138       3137  
      3006       3007       3018       3017       3127       3128       3139       3138  
      3007       3008       3019       3018       3128       3129       3140       3139  
      3008       3009       3020       3019       3129       3130       3141       3140  
      3009       3010       3021       3020       3130       3131       3142       3141  
      3010       3011       3022       3021       3131       3132       3143       3142  
      3011       3012       3023       3022       3132       3133       3144       3143  
      3012       3013       3024       3023       3133       3134       3145       3144  
      3013       3014       3025       3024       3134       3135       3146       3145  
      3026       3027       3038       3037       3147       3148       3159       3158  
      3027       3028       3039       3038       3148       3149       3160       3159  
      3028       3029       3040       3039       3149       3150       3161       3160  
      3029       3030       3041       3040       3150       3151       3162       3161  
      3030       3031       3042       3041       3151       3152       3163       3162  
      3031       3032       3043       3042       3152       3153       3164       3163  
      3032       3033       3044       3043       3153       3154       3165       3164  
      3033       3034       3045       3044       3154       3155       3166       3165  
      3034       3035       3046       3045       3155       3156       3167       3166  
      3035       3036       3047       3046       3156       3157       3168       3167  
      3037       3038       3049       3048       3158       3159       3170       3169  
      3038       3039       3050       3049       3159       3160       3171       3170  
      3039       3040       3051       3050       3160       3161       3172       3171  
      3040       3041       3052       3051       3161       3162       3173       3172  
      3041       3042       3053       3052       3162       3163       3174       3173  
      3042       3043       3054       3053       3163       3164       3175       3174  
      3043       3044       3055       3054       3164       3165       3176       3175  
      3044       3045       3056       3055       3165       3166       3177       3176  
      3045       3046       3057       3056       3166       3167       3178       3177  
      3046       3047       3058       3057       3167       3168       3179       3178  
      3048       3049       3060       3059       3169       3170       3181       3180  
      3049       3050       3061       3060       3170       3171       3182       3181  
      3050       3051       3062       3061       3171       3172       3183       3182  
      3051       3052       3063       3062       3172       3173       3184       3183  
      3052       3053       3064       3063       3173       3174       3185       3184  
      3053       3054       3065       3064       3174       3175       3186       3185  
      3054       3055       3066       3065       3175       3176       3187       3186  
      3055       3056       3067       3066       3176       3177       3188       3187  
      3056       3057       3068       3067       3177       3178       3189       3188  
      3057       3058       3069       3068       3178       3179       3190       3189  
      3059       3060       3071       3070       3180       3181       3192       3191  
      3060       3061       3072       3071       3181       3182       3193       3192  
      3061       3062       3073       3072       3182       3183       3194       3193  
      3062       3063       3074       3073       3183       3184       3195       3194  
      3063       3064       3075       3074       3184       3185       3196       3195  
      3064       3065       3076       3075       3185       3186       3197       3196  
      3065       3066       3077       3076       3186       3187       3198       3197  
      3066       3067       3078       3077       3187       3188       3199       3198  
      3067       3068       3079       3078       3188       3189       3200       3199  
      3068       3069       3080       3079       3189       3190       3201       3200  
      3070       3071       3082       3081       3191       3192       3203       3202  
      3071       3072       3083       3082       3192       3193       3204       3203  
      3072       3073       3084       3083       3193       3194       3205       3204  
      3073       3074       3085       3084       3194       3195       3206       3205  
      3074       3075       3086       3085       3195       3196       3207       3206  
      3075       3076       3087       3086       3196       3197       3208       3207  
      3076       3077       3088       3087       3197       3198       3209       3208  
      3077       3078       3089       3088       3198       3199       3210       3209  
      3078       3079       3090       3089       3199       3200       3211       3210  
      3079       3080       3091       3090       3200       3201       3212       3211  
      3081       3082       3093       3092       3202       3203       3214       3213  
      3082       3083       3094       3093       3203       3204       3215       3214  
      3083       3084       3095       3094       3204       3205       3216       3215  
      3084       3085       3096       3095       3205       3206       3217       3216  
      3085       3086       3097       3096       3206       3207       3218       3217  
      3086       3087       3098       3097       3207       3208       3219       3218  
      3087       3088       3099       3098       3208       3209       3220       3219  
      3088       3089       3100       3099       3209       3210       3221       3220  
      3089       3090       3101       3100       3210       3211       3222       3221  
      3090       3091       3102       3101       3211       3212       3223       3222  
      3092       3093       3104       3103       3213       3214       3225       3224  
      3093       3094       3105       3104       3214       3215       3226       3225  
      3094       3095       3106       3105       3215       3216       3227       3226  
      3095       3096       3107       3106       3216       3217       3228       3227  
      3096       3097       3108       3107       3217       3218       3229       3228  
      3097       3098       3109       3108       3218       3219       3230       3229  
      3098       3099       3110       3109       3219       3220       3231       3230  
      3099       3100       3111       3110       3220       3221       3232       3231  
      3100       3101       3112       3111       3221       3222       3233       3232  
      3101       3102       3113       3112       3222       3223       3234       3233  
      3103       3104       3115       3114       3224       3225       3236       3235  
      3104       3105       3116       3115       3225       3226       3237       3236  
      3105       3106       3117       3116       3226       3227       3238       3237  
      3106       3107       3118       3117       3227       3228       3239       3238  
      3107       3108       3119       3118       3228       3229       3240       3239  
      3108       3109       3120       3119       3229       3230       3241       3240  
      3109       3110       3121       3120       3230       3231       3242       3241  
      3110       3111       3122       3121       3231       3232       3243       3242  
      3111       3112       3123       3122       3232       3233       3244       3243  
      3112       3113       3124       3123       3233       3234       3245       3244  
      3114       3115       3126       3125       3235       3236       3247       3246  
      3115       3116       3127       3126       3236       3237       3248       3247  
      3116       3117       3128       3127       3237       3238       3249       3248  
      3117       3118       3129       3128       3238       3239       3250       3249  
      3118       3119       3130       3129       3239       3240       3251       3250  
      3119       3120       3131       3130       3240       3241       3252       3251  
      3120       3121       3132       3131       3241       3242       3253       3252  
      3121       3122       3133       3132       3242       3243       3254       3253  
      3122       3123       3134       3133       3243       3244       3255       3254  
      3123       3124       3135       3134       3244       3245       3256       3255  
      3125       3126       3137       3136       3246       3247       3258       3257  
      3126       3127       3138       3137       3247       3248       3259       3258  
      3127       3128       3139       3138       3248       3249       3260       3259  
      3128       3129       3140       3139       3249       3250       3261       3260  
      3129       3130       3141       3140       3250       3251       3262       3261  
      3130       3131       3142       3141       3251       3252       3263       3262  
      3131       3132       3143       3142       3252       3253       3264       3263  
      3132       3133       3144       3143       3253       3254       3265       3264  
      3133       3134       3145       3144       3254       3255       3266       3265  
      3134       3135       3146       3145       3255       3256       3267       3266  
      3147       3148       3159       3158       3268       3269       3280       3279  
      3148       3149       3160       3159       3269       3270       3281       3280  
      3149       3150       3161       3160       3270       3271       3282       3281  
      3150       3151       3162       3161       3271       3272       3283       3282  
      3151       3152       3163       3162       3272       3273       3284       3283  
      3152       3153       3164       3163       3273       3274       3285       3284  
      3153       3154       3165       3164       3274       3275       3286       3285  
      3154       3155       3166       3165       3275       3276       3287       3286  
      3155       3156       3167       3166       3276       3277       3288       3287  
      3156       3157       3168       3167       3277       3278       3289       3288  
      3158       3159       3170       3169       3279       3280       3291       3290  
      3159       3160       3171       3170       3280       3281       3292       3291  
      3160       3161       3172       3171       3281       3282       3293       3292  
      3161       3162       3173       3172       3282       3283       3294       3293  
      3162       3163       3174       3173       3283       3284       3295       3294  
      3163       3164       3175       3174       3284       3285       3296       3295  
      3164       3165       3176       3175       3285       3286       3297       3296  
      3165       3166       3177       3176       3286       3287       3298       3297  
      3166       3167       3178       3177       3287       3288       3299       3298  
      3167       3168       3179       3178       3288       3289       3300       3299  
      3169       3170       3181       3180       3290       3291       3302       3301  
      3170       3171       3182       3181       3291       3292       3303       3302  
      3171       3172       3183       3182       3292       3293       3304       3303  
      3172       3173       3184       3183       3293       3294       3305       3304  
      3173       3174       3185       3184       3294       3295       3306       3305  
      3174       3175       3186       3185       3295       3296       3307       3306  
      3175       3176       3187       3186       3296       3297       3308       3307  
      3176       3177       3188       3187       3297       3298       3309       3308  
      3177       3178       3189       3188       3298       3299       3310       3309  
      3178       3179       3190       3189       3299       3300       3311       3310  
      3180       3181       3192       3191       3301       3302       3313       3312  
      3181       3182       3193       3192       3302       3303       3314       3313  
      3182       3183       3194       3193       3303       3304       3315       3314  
      3183       3184       3195       3194       3304       3305       3316       3315  
      3184       3185       3196       3195       3305       3306       3317       3316  
      3185       3186       3197       3196       3306       3307       3318       3317  
      3186       3187       3198       3197       3307       3308       3319       3318  
      3187       3188       3199       3198       3308       3309       3320       3319  
      3188       3189       3200       3199       3309       3310       3321       3320  
      3189       3190       3201       3200       3310       3311       3322       3321  
      3191       3192       3203       3202       3312       3313       3324       3323  
      3192       3193       3204       3203       3313       3314       3325       3324  
      3193       3194       3205       3204       3314       3315       3326       3325  
      3194       3195       3206       3205       3315       3316       3327       3326  
      3195       3196       3207       3206       3316       3317       3328       3327  
      3196       3197       3208       3207       3317       3318       3329       3328  
      3197       3198       3209       3208       3318       3319       3330       3329  
      3198       3199       3210       3209       3319       3320       3331       3330  
      3199       3200       3211       3210       3320       3321       3332       3331  
      3200       3201       3212       3211       3321       3322       3333       3332  
      3202       3203       3214       3213       3323       3324       3335       3334  
      3203       3204       3215       3214       3324       3325       3336       3335  
      3204       3205       3216       3215       3325       3326       3337       3336  
      3205       3206       3217       3216       3326       3327       3338       3337  
      3206       3207       3218       3217       3327       3328       3339       3338  
      3207       3208       3219       3218       3328       3329       3340       3339  
      3208       3209       3220       3219       3329       3330       3341       3340  
      3209       3210       3221       3220       3330       3331       3342       3341  
      3210       3211       3222       3221       3331       3332       3343       3342  
      3211       3212       3223       3222       3332       3333       3344       3343  
      3213       3214       3225       3224       3334       3335       3346       3345  
      3214       3215       3226       3225       3335       3336       3347       3346  
      3215       3216       3227       3226       3336       3337       3348       3347  
      3216       3217       3228       3227       3337       3338       3349       3348  
      3217       3218       3229       3228       3338       3339       3350       3349  
      3218       3219       3230       3229       3339       3340       3351       3350  
      3219       3220       3231       3230       3340       3341       3352       3351  
      3220       3221       3232       3231       3341       3342       3353       3352  
      3221       3222       3233       3232       3342       3343       3354       3353  
      3222       3223       3234       3233       3343       3344       3355       3354  
      3224       3225       3236       3235       3345       3346       3357       3356  
      3225       3226       3237       3236       3346       3347       3358       3357  
      3226       3227       3238       3237       3347       3348       3359       3358  
      3227       3228       3239       3238       3348       3349       3360       3359  
      3228       3229       3240       3239       3349       3350       3361       3360  
      3229       3230       3241       3240       3350       3351       3362       3361  
      3230       3231       3242       3241       3351       3352       3363       3362  
      3231       3232       3243       3242       3352       3353       3364       3363  
      3232       3233       3244       3243       3353       3354       3365       3364  
      3233       3234       3245       3244       3354       3355       3366       3365  
      3235       3236       3247       3246       3356       3357       3368       3367  
      3236       3237       3248       3247       3357       3358       3369       3368  
      3237       3238       3249       3248       3358       3359       3370       3369  
      3238       3239       3250       3249       3359       3360       3371       3370  
      3239       3240       3251       3250       3360       3361       3372       3371  
      3240       3241       3252       3251       3361       3362       3373       3372  
      3241       3242       3253       3252       3362       3363       3374       3373  
      3242       3243       3254       3253       3363       3364       3375       3374  
      3243       3244       3255       3254       3364       3365       3376       3375  
      3244       3245       3256       3255       3365       3366       3377       3376  
      3246       3247       3258       3257       3367       3368       3379       3378  
      3247       3248       3259       3258       3368       3369       3380       3379  
      3248       3249       3260       3259       3369       3370       3381       3380  
      3249       3250       3261       3260       3370       3371       3382       3381  
      3250       3251       3262       3261       3371       3372       3383       3382  
      3251       3252       3263       3262       3372       3373       3384       3383  
      3252       3253       3264       3263       3373       3374       3385       3384  
      3253       3254       3265       3264       3374       3375       3386       3385  
      3254       3255       3266       3265       3375       3376       3387       3386  
      3255       3256       3267       3266       3376       3377       3388       3387  
      3268       3269       3280       3279       3389       3390       3401       3400  
      3269       3270       3281       3280       3390       3391       3402       3401  
      3270       3271       3282       3281       3391       3392       3403       3402  
      3271       3272       3283       3282       3392       3393       3404       3403  
      3272       3273       3284       3283       3393       3394       3405       3404  
      3273       3274       3285       3284       3394       3395       3406       3405  
      3274       3275       3286       3285       3395       3396       3407       3406  
      3275       3276       3287       3286       3396       3397       3408       3407  
      3276       3277       3288       3287       3397       3398       3409       3408  
      3277       3278       3289       3288       3398       3399       3410       3409  
      3279       3280       3291       3290       3400       3401       3412       3411  
      3280       3281       3292       3291       3401       3402       3413       3412  
      3281       3282       3293       3292       3402       3403       3414       3413  
      3282       3283       3294       3293       3403       3404       3415       3414  
      3283       3284       3295       3294       3404       3405       3416       3415  
      3284       3285       3296       3295       3405       3406       3417       3416  
      3285       3286       3297       3296       3406       3407       3418       3417  
      3286       3287       3298       3297       3407       3408       3419       3418  
      3287       3288       3299       3298       3408       3409       3420       3419  
      3288       3289       3300       3299       3409       3410       3421       3420  
      3290       3291       3302       3301       3411       3412       3423       3422  
      3291       3292       3303       3302       3412       3413       3424       3423  
      3292       3293       3304       3303       3413       3414       3425       3424  
      3293       3294       3305       3304       3414       3415       3426       3425  
      3294       3295       3306       3305       3415       3416       3427       3426  
      3295       3296       3307       3306       3416       3417       3428       3427  
      3296       3297       3308       3307       3417       3418       3429       3428  
      3297       3298       3309       3308       3418       3419       3430       3429  
      3298       3299       3310       3309       3419       3420       3431       3430  
      3299       3300       3311       3310       3420       3421       3432       3431  
      3301       3302       3313       3312       3422       3423       3434       3433  
      3302       3303       3314       3313       3423       3424       3435       3434  
      3303       3304       3315       3314       3424       3425       3436       3435  
      3304       3305       3316       3315       3425       3426       3437       3436  
      3305       3306       3317       3316       3426       3427       3438       3437  
      3306       3307       3318       3317       3427       3428       3439       3438  
      3307       3308       3319       3318       3428       3429       3440       3439  
      3308       3309       3320       3319       3429       3430       3441       3440  
      3309       3310       3321       3320       3430       3431       3442       3441  
      3310       3311       3322       3321       3431       3432       3443       3442  
      3312       3313       3324       3323       3433       3434       3445       3444  
      3313       3314       3325       3324       3434       3435       3446       3445  
      3314       3315       3326       3325       3435       3436       3447       3446  
      3315       3316       3327       3326       3436       3437       3448       3447  
      3316       3317       3328       3327       3437       3438       3449       3448  
      3317       3318       3329       3328       3438       3439       3450       3449  
      3318       3319       3330       3329       3439       3440       3451       3450  
      3319       3320       3331       3330       3440       3441       3452       3451  
      3320       3321       3332       3331       3441       3442       3453       3452  
      3321       3322       3333       3332       3442       3443       3454       3453  
      3323       3324       3335       3334       3444       3445       3456       3455  
      3324       3325       3336       3335       3445       3446       3457       3456  
      3325       3326       3337       3336       3446       3447       3458       3457  
      3326       3327       3338       3337       3447       3448       3459       3458  
      3327       3328       3339       3338       3448       3449       3460       3459  
      3328       3329       3340       3339       3449       3450       3461       3460  
      3329       3330       3341       3340       3450       3451       3462       3461  
      3330       3331       3342       3341       3451       3452       3463       3462  
      3331       3332       3343       3342       3452       3453       3464       3463  
      3332       3333       3344       3343       3453       3454       3465       3464  
      3334       3335       3346       3345       3455       3456       3467       3466  
      3335       3336       3347       3346       3456       3457       3468       3467  
      3336       3337       3348       3347       3457       3458       3469       3468  
      3337       3338       3349       3348       3458       3459       3470       3469  
      3338       3339       3350       3349       3459       3460       3471       3470  
      3339       3340       3351       3350       3460       3461       3472       3471  
      3340       3341       3352       3351       3461       3462       3473       3472  
      3341       3342       3353       3352       3462       3463       3474       3473  
      3342       3343       3354       3353       3463       3464       3475       3474  
      3343       3344       3355       3354       3464       3465       3476       3475  
      3345       3346       3357       3356       3466       3467       3478       3477  
      3346       3347       3358       3357       3467       3468       3479       3478  
      3347       3348       3359       3358       3468       3469       3480       3479  
      3348       3349       3360       3359       3469       3470       3481       3480  
      3349       3350       3361       3360       3470       3471       3482       3481  
      3350       3351       3362       3361       3471       3472       3483       3482  
      3351       3352       3363       3362       3472       3473       3484       3483  
      3352       3353       3364       3363       3473       3474       3485       3484  
      3353       3354       3365       3364       3474       3475       3486       3485  
      3354       3355       3366       3365       3475       3476       3487       3486  
      3356       3357       3368       3367       3477       3478       3489       3488  
      3357       3358       3369       3368       3478       3479       3490       3489  
      3358       3359       3370       3369       3479       3480       3491       3490  
      3359       3360       3371       3370       3480       3481       3492       3491  
      3360       3361       3372       3371       3481       3482       3493       3492  
      3361       3362       3373       3372       3482       3483       3494       3493  
      3362       3363       3374       3373       3483       3484       3495       3494  
      3363       3364       3375       3374       3484       3485       3496       3495  
      3364       3365       3376       3375       3485       3486       3497       3496  
      3365       3366       3377       3376       3486       3487       3498       3497  
      3367       3368       3379       3378       3488       3489       3500       3499  
      3368       3369       3380       3379       3489       3490       3501       3500  
      3369       3370       3381       3380       3490       3491       3502       3501  
      3370       3371       3382       3381       3491       3492       3503       3502  
      3371       3372       3383       3382       3492       3493       3504       3503  
      3372       3373       3384       3383       3493       3494       3505       3504  
      3373       3374       3385       3384       3494       3495       3506       3505  
      3374       3375       3386       3385       3495       3496       3507       3506  
      3375       3376       3387       3386       3496       3497       3508       3507  
      3376       3377       3388       3387       3497       3498       3509       3508  
      3389       3390       3401       3400       3510       3511       3522       3521  
      3390       3391       3402       3401       3511       3512       3523       3522  
      3391       3392       3403       3402       3512       3513       3524       3523  
      3392       3393       3404       3403       3513       3514       3525       3524  
      3393       3394       3405       3404       3514       3515       3526       3525  
      3394       3395       3406       3405       3515       3516       3527       3526  
      3395       3396       3407       3406       3516       3517       3528       3527  
      3396       3397       3408       3407       3517       3518       3529       3528  
      3397       3398       3409       3408       3518       3519       3530       3529  
      3398       3399       3410       3409       3519       3520       3531       3530  
      3400       3401       3412       3411       3521       3522       3533       3532  
      3401       3402       3413       3412       3522       3523       3534       3533  
      3402       3403       3414       3413       3523       3524       3535       3534  
      3403       3404       3415       3414       3524       3525       3536       3535  
      3404       3405       3416       3415       3525       3526       3537       3536  
      3405       3406       3417       3416       3526       3527       3538       3537  
      3406       3407       3418       3417       3527       3528       3539       3538  
      3407       3408       3419       3418       3528       3529       3540       3539  
      3408       3409       3420       3419       3529       3530       3541       3540  
      3409       3410       3421       3420       3530       3531       3542       3541  
      3411       3412       3423       3422       3532       3533       3544       3543  
      3412       3413       3424       3423       3533       3534       3545       3544  
      3413       3414       3425       3424       3534       3535       3546       3545  
      3414       3415       3426       3425       3535       3536       3547       3546  
      3415       3416       3427       3426       3536       3537       3548       3547  
      3416       3417       3428       3427       3537       3538       3549       3548  
      3417       3418       3429       3428       3538       3539       3550       3549  
      3418       3419       3430       3429       3539       3540       3551       3550  
      3419       3420       3431       3430       3540       3541       3552       3551  
      3420       3421       3432       3431       3541       3542       3553       3552  
      3422       3423       3434       3433       3543       3544       3555       3554  
      3423       3424       3435       3434       3544       3545       3556       3555  
      3424       3425       3436       3435       3545       3546       3557       3556  
      3425       3426       3437       3436       3546       3547       3558       3557  
      3426       3427       3438       3437       3547       3548       3559       3558  
      3427       3428       3439       3438       3548       3549       3560       3559  
      3428       3429       3440       3439       3549       3550       3561       3560  
      3429       3430       3441       3440       3550       3551       3562       3561  
      3430       3431       3442       3441       3551       3552       3563       3562  
      3431       3432       3443       3442       3552       3553       3564       3563  
      3433       3434       3445       3444       3554       3555       3566       3565  
      3434       3435       3446       3445       3555       3556       3567       3566  
      3435       3436       3447       3446       3556       3557       3568       3567  
      3436       3437       3448       3447       3557       3558       3569       3568  
      3437       3438       3449       3448       3558       3559       3570       3569  
      3438       3439       3450       3449       3559       3560       3571       3570  
      3439       3440       3451       3450       3560       3561       3572       3571  
      3440       3441       3452       3451       3561       3562       3573       3572  
      3441       3442       3453       3452       3562       3563       3574       3573  
      3442       3443       3454       3453       3563       3564       3575       3574  
      3444       3445       3456       3455       3565       3566       3577       3576  
      3445       3446       3457       3456       3566       3567       3578       3577  
      3446       3447       3458       3457       3567       3568       3579       3578  
      3447       3448       3459       3458       3568       3569       3580       3579  
      3448       3449       3460       3459       3569       3570       3581       3580  
      3449       3450       3461       3460       3570       3571       3582       3581  
      3450       3451       3462       3461       3571       3572       3583       3582  
      3451       3452       3463       3462       3572       3573       3584       3583  
      3452       3453       3464       3463       3573       3574       3585       3584  
      3453       3454       3465       3464       3574       3575       3586       3585  
      3455       3456       3467       3466       3576       3577       3588       3587  
      3456       3457       3468       3467       3577       3578       3589       3588  
      3457       3458       3469       3468       3578       3579       3590       3589  
      3458       3459       3470       3469       3579       3580       3591       3590  
      3459       3460       3471       3470       3580       3581       3592       3591  
      3460       3461       3472       3471       3581       3582       3593       3592  
      3461       3462       3473       3472       3582       3583       3594       3593  
      3462       3463       3474       3473       3583       3584       3595       3594  
      3463       3464       3475       3474       3584       3585       3596       3595  
      3464       3465       3476       3475       3585       3586       3597       3596  
      3466       3467       3478       3477       3587       3588       3599       3598  
      3467       3468       3479       3478       3588       3589       3600       3599  
      3468       3469       3480       3479       3589       3590       3601       3600  
      3469       3470       3481       3480       3590       3591       3602       3601  
      3470       3471       3482       3481       3591       3592       3603       3602  
      3471       3472       3483       3482       3592       3593       3604       3603  
      3472       3473       3484       3483       3593       3594       3605       3604  
      3473       3474       3485       3484       3594       3595       3606       3605  
      3474       3475       3486       3485       3595       3596       3607       3606  
      3475       3476       3487       3486       3596       3597       3608       3607  
      3477       3478       3489       3488       3598       3599       3610       3609  
      3478       3479       3490       3489       3599       3600       3611       3610  
      3479       3480       3491       3490       3600       3601       3612       3611  
      3480       3481       3492       3491       3601       3602       3613       3612  
      3481       3482       3493       3492       3602       3603       3614       3613  
      3482       3483       3494       3493       3603       3604       3615       3614  
      3483       3484       3495       3494       3604       3605       3616       3615  
      3484       3485       3496       3495       3605       3606       3617       3616  
      3485       3486       3497       3496       3606       3607       3618       3617  
      3486       3487       3498       3497       3607       3608       3619       3618  
      3488       3489       3500       3499       3609       3610       3621       3620  
      3489       3490       3501       3500       3610       3611       3622       3621  
      3490       3491       3502       3501       3611       3612       3623       3622  
      3491       3492       3503       3502       3612       3613       3624       3623  
      3492       3493       3504       3503       3613       3614       3625       3624  
      3493       3494       3505       3504       3614       3615       3626       3625  
      3494       3495       3506       3505       3615       3616       3627       3626  
      3495       3496       3507       3506       3616       3617       3628       3627  
      3496       3497       3508       3507       3617       3618       3629       3628  
      3497       3498       3509       3508       3618       3619       3630       3629  
      3510       3511       3522       3521       3631       3632       3643       3642  
      3511       3512       3523       3522       3632       3633       3644       3643  
      3512       3513       3524       3523       3633       3634       3645       3644  
      3513       3514       3525       3524       3634       3635       3646       3645  
      3514       3515       3526       3525       3635       3636       3647       3646  
      3515       3516       3527       3526       3636       3637       3648       3647  
      3516       3517       3528       3527       3637       3638       3649       3648  
      3517       3518       3529       3528       3638       3639       3650       3649  
      3518       3519       3530       3529       3639       3640       3651       3650  
      3519       3520       3531       3530       3640       3641       3652       3651  
      3521       3522       3533       3532       3642       3643       3654       3653  
      3522       3523       3534       3533       3643       3644       3655       3654  
      3523       3524       3535       3534       3644       3645       3656       3655  
      3524       3525       3536       3535       3645       3646       3657       3656  
      3525       3526       3537       3536       3646       3647       3658       3657  
      3526       3527       3538       3537       3647       3648       3659       3658  
      3527       3528       3539       3538       3648       3649       3660       3659  
      3528       3529       3540       3539       3649       3650       3661       3660  
      3529       3530       3541       3540       3650       3651       3662       3661  
      3530       3531       3542       3541       3651       3652       3663       3662  
      3532       3533       3544       3543       3653       3654       3665       3664  
      3533       3534       3545       3544       3654       3655       3666       3665  
      3534       3535       3546       3545       3655       3656       3667       3666  
      3535       3536       3547       3546       3656       3657       3668       3667  
      3536       3537       3548       3547       3657       3658       3669       3668  
      3537       3538       3549       3548       3658       3659       3670       3669  
      3538       3539       3550       3549       3659       3660       3671       3670  
      3539       3540       3551       3550       3660       3661       3672       3671  
      3540       3541       3552       3551       3661       3662       3673       3672  
      3541       3542       3553       3552       3662       3663       3674       3673  
      3543       3544       3555       3554       3664       3665       3676       3675  
      3544       3545       3556       3555       3665       3666       3677       3676  
      3545       3546       3557       3556       3666       3667       3678       3677  
      3546       3547       3558       3557       3667       3668       3679       3678  
      3547       3548       3559       3558       3668       3669       3680       3679  
      3548       3549       3560       3559       3669       3670       3681       3680  
      3549       3550       3561       3560       3670       3671       3682       3681  
      3550       3551       3562       3561       3671       3672       3683       3682  
      3551       3552       3563       3562       3672       3673       3684       3683  
      3552       3553       3564       3563       3673       3674       3685       3684  
      3554       3555       3566       3565       3675       3676       3687       3686  
      3555       3556       3567       3566       3676       3677       3688       3687  
      3556       3557       3568       3567       3677       3678       3689       3688  
      3557       3558       3569       3568       3678       3679       3690       3689  
      3558       3559       3570       3569       3679       3680       3691       3690  
      3559       3560       3571       3570       3680       3681       3692       3691  
      3560       3561       3572       3571       3681       3682       3693       3692  
      3561       3562       3573       3572       3682       3683       3694       3693  
      3562       3563       3574       3573       3683       3684       3695       3694  
      3563       3564       3575       3574       3684       3685       3696       3695  
      3565       3566       3577       3576       3686       3687       3698       3697  
      3566       3567       3578       3577       3687       3688       3699       3698  
      3567       3568       3579       3578       3688       3689       3700       3699  
      3568       3569       3580       3579       3689       3690       3701       3700  
      3569       3570       3581       3580       3690       3691       3702       3701  
      3570       3571       3582       3581       3691       3692       3703       3702  
      3571       3572       3583       3582       3692       3693       3704       3703  
      3572       3573       3584       3583       3693       3694       3705       3704  
      3573       3574       3585       3584       3694       3695       3706       3705  
      3574       3575       3586       3585       3695       3696       3707       3706  
      3576       3577       3588       3587       3697       3698       3709       3708  
      3577       3578       3589       3588       3698       3699       3710       3709  
      3578       3579       3590       3589       3699       3700       3711       3710  
      3579       3580       3591       3590       3700       3701       3712       3711  
      3580       3581       3592       3591       3701       3702       3713       3712  
      3581       3582       3593       3592       3702       3703       3714       3713  
      3582       3583       3594       3593       3703       3704       3715       3714  
      3583       3584       3595       3594       3704       3705       3716       3715  
      3584       3585       3596       3595       3705       3706       3717       3716  
      3585       3586       3597       3596       3706       3707       3718       3717  
      3587       3588       3599       3598       3708       3709       3720       3719  
      3588       3589       3600       3599       3709       3710       3721       3720  
      3589       3590       3601       3600       3710       3711       3722       3721  
      3590       3591       3602       3601       3711       3712       3723       3722  
      3591       3592       3603       3602       3712       3713       3724       3723  
      3592       3593       3604       3603       3713       3714       3725       3724  
      3593       3594       3605       3604       3714       3715       3726       3725  
      3594       3595       3606       3605       3715       3716       3727       3726  
      3595       3596       3607       3606       3716       3717       3728       3727  
      3596       3597       3608       3607       3717       3718       3729       3728  
      3598       3599       3610       3609       3719       3720       3731       3730  
      3599       3600       3611       3610       3720       3721       3732       3731  
      3600       3601       3612       3611       3721       3722       3733       3732  
      3601       3602       3613       3612       3722       3723       3734       3733  
      3602       3603       3614       3613       3723       3724       3735       3734  
      3603       3604       3615       3614       3724       3725       3736       3735  
      3604       3605       3616       3615       3725       3726       3737       3736  
      3605       3606       3617       3616       3726       3727       3738       3737  
      3606       3607       3618       3617       3727       3728       3739       3738  
      3607       3608       3619       3618       3728       3729       3740       3739  
      3609       3610       3621       3620       3730       3731       3742       3741  
      3610       3611       3622       3621       3731       3732       3743       3742  
      3611       3612       3623       3622       3732       3733       3744       3743  
      3612       3613       3624       3623       3733       3734       3745       3744  
      3613       3614       3625       3624       3734       3735       3746       3745  
      3614       3615       3626       3625       3735       3736       3747       3746  
      3615       3616       3627       3626       3736       3737       3748       3747  
      3616       3617       3628       3627       3737       3738       3749       3748  
      3617       3618       3629       3628       3738       3739       3750       3749  
      3618       3619       3630       3629       3739       3740       3751       3750  
      3631       3632       3643       3642       3752       3753       3764       3763  
      3632       3633       3644       3643       3753       3754       3765       3764  
      3633       3634       3645       3644       3754       3755       3766       3765  
      3634       3635       3646       3645       3755       3756       3767       3766  
      3635       3636       3647       3646       3756       3757       3768       3767  
      3636       3637       3648       3647       3757       3758       3769       3768  
      3637       3638       3649       3648       3758       3759       3770       3769  
      3638       3639       3650       3649       3759       3760       3771       3770  
      3639       3640       3651       3650       3760       3761       3772       3771  
      3640       3641       3652       3651       3761       3762       3773       3772  
      3642       3643       3654       3653       3763       3764       3775       3774  
      3643       3644       3655       3654       3764       3765       3776       3775  
      3644       3645       3656       3655       3765       3766       3777       3776  
      3645       3646       3657       3656       3766       3767       3778       3777  
      3646       3647       3658       3657       3767       3768       3779       3778  
      3647       3648       3659       3658       3768       3769       3780       3779  
      3648       3649       3660       3659       3769       3770       3781       3780  
      3649       3650       3661       3660       3770       3771       3782       3781  
      3650       3651       3662       3661       3771       3772       3783       3782  
      3651       3652       3663       3662       3772       3773       3784       3783  
      3653       3654       3665       3664       3774       3775       3786       3785  
      3654       3655       3666       3665       3775       3776       3787       3786  
      3655       3656       3667       3666       3776       3777       3788       3787  
      3656       3657       3668       3667       3777       3778       3789       3788  
      3657       3658       3669       3668       3778       3779       3790       3789  
      3658       3659       3670       3669       3779       3780       3791       3790  
      3659       3660       3671       3670       3780       3781       3792       3791  
      3660       3661       3672       3671       3781       3782       3793       3792  
      3661       3662       3673       3672       3782       3783       3794       3793  
      3662       3663       3674       3673       3783       3784       3795       3794  
      3664       3665       3676       3675       3785       3786       3797       3796  
      3665       3666       3677       3676       3786       3787       3798       3797  
      3666       3667       3678       3677       3787       3788       3799       3798  
      3667       3668       3679       3678       3788       3789       3800       3799  
      3668       3669       3680       3679       3789       3790       3801       3800  
      3669       3670       3681       3680       3790       3791       3802       3801  
      3670       3671       3682       3681       3791       3792       3803       3802  
      3671       3672       3683       3682       3792       3793       3804       3803  
      3672       3673       3684       3683       3793       3794       3805       3804  
      3673       3674       3685       3684       3794       3795       3806       3805  
      3675       3676       3687       3686       3796       3797       3808       3807  
      3676       3677       3688       3687       3797       3798       3809       3808  
      3677       3678       3689       3688       3798       3799       3810       3809  
      3678       3679       3690       3689       3799       3800       3811       3810  
      3679       3680       3691       3690       3800       3801       3812       3811  
      3680       3681       3692       3691       3801       3802       3813       3812  
      3681       3682       3693       3692       3802       3803       3814       3813  
      3682       3683       3694       3693       3803       3804       3815       3814  
      3683       3684       3695       3694       3804       3805       3816       3815  
      3684       3685       3696       3695       3805       3806       3817       3816  
      3686       3687       3698       3697       3807       3808       3819       3818  
      3687       3688       3699       3698       3808       3809       3820       3819  
      3688       3689       3700       3699       3809       3810       3821       3820  
      3689       3690       3701       3700       3810       3811       3822       3821  
      3690       3691       3702       3701       3811       3812       3823       3822  
      3691       3692       3703       3702       3812       3813       3824       3823  
      3692       3693       3704       3703       3813       3814       3825       3824  
      3693       3694       3705       3704       3814       3815       3826       3825  
      3694       3695       3706       3705       3815       3816       3827       3826  
      3695       3696       3707       3706       3816       3817       3828       3827  
      3697       3698       3709       3708       3818       3819       3830       3829  
      3698       3699       3710       3709       3819       3820       3831       3830  
      3699       3700       3711       3710       3820       3821       3832       3831  
      3700       3701       3712       3711       3821       3822       3833       3832  
      3701       3702       3713       3712       3822       3823       3834       3833  
      3702       3703       3714       3713       3823       3824       3835       3834  
      3703       3704       3715       3714       3824       3825       3836       3835  
      3704       3705       3716       3715       3825       3826       3837       3836  
      3705       3706       3717       3716       3826       3827       3838       3837  
      3706       3707       3718       3717       3827       3828       3839       3838  
      3708       3709       3720       3719       3829       3830       3841       3840  
      3709       3710       3721       3720       3830       3831       3842       3841  
      3710       3711       3722       3721       3831       3832       3843       3842  
      3711       3712       3723       3722       3832       3833       3844       3843  
      3712       3713       3724       3723       3833       3834       3845       3844  
      3713       3714       3725       3724       3834       3835       3846       3845  
      3714       3715       3726       3725       3835       3836       3847       3846  
      3715       3716       3727       3726       3836       3837       3848       3847  
      3716       3717       3728       3727       3837       3838       3849       3848  
      3717       3718       3729       3728       3838       3839       3850       3849  
      3719       3720       3731       3730       3840       3841       3852       3851  
      3720       3721       3732       3731       3841       3842       3853       3852  
      3721       3722       3733       3732       3842       3843       3854       3853  
      3722       3723       3734       3733       3843       3844       3855       3854  
      3723       3724       3735       3734       3844       3845       3856       3855  
      3724       3725       3736       3735       3845       3846       3857       3856  
      3725       3726       3737       3736       3846       3847       3858       3857  
      3726       3727       3738       3737       3847       3848       3859       3858  
      3727       3728       3739       3738       3848       3849       3860       3859  
      3728       3729       3740       3739       3849       3850       3861       3860  
      3730       3731       3742       3741       3851       3852       3863       3862  
      3731       3732       3743       3742       3852       3853       3864       3863  
      3732       3733       3744       3743       3853       3854       3865       3864  
      3733       3734       3745       3744       3854       3855       3866       3865  
      3734       3735       3746       3745       3855       3856       3867       3866  
      3735       3736       3747       3746       3856       3857       3868       3867  
      3736       3737       3748       3747       3857       3858       3869       3868  
      3737       3738       3749       3748       3858       3859       3870       3869  
      3738       3739       3750       3749       3859       3860       3871       3870  
      3739       3740       3751       3750       3860       3861       3872       3871  
      3752       3753       3764       3763       3873       3874       3885       3884  
      3753       3754       3765       3764       3874       3875       3886       3885  
      3754       3755       3766       3765       3875       3876       3887       3886  
      3755       3756       3767       3766       3876       3877       3888       3887  
      3756       3757       3768       3767       3877       3878       3889       3888  
      3757       3758       3769       3768       3878       3879       3890       3889  
      3758       3759       3770       3769       3879       3880       3891       3890  
      3759       3760       3771       3770       3880       3881       3892       3891  
      3760       3761       3772       3771       3881       3882       3893       3892  
      3761       3762       3773       3772       3882       3883       3894       3893  
      3763       3764       3775       3774       3884       3885       3896       3895  
      3764       3765       3776       3775       3885       3886       3897       3896  
      3765       3766       3777       3776       3886       3887       3898       3897  
      3766       3767       3778       3777       3887       3888       3899       3898  
      3767       3768       3779       3778       3888       3889       3900       3899  
      3768       3769       3780       3779       3889       3890       3901       3900  
      3769       3770       3781       3780       3890       3891       3902       3901  
      3770       3771       3782       3781       3891       3892       3903       3902  
      3771       3772       3783       3782       3892       3893       3904       3903  
      3772       3773       3784       3783       3893       3894       3905       3904  
      3774       3775       3786       3785       3895       3896       3907       3906  
      3775       3776       3787       3786       3896       3897       3908       3907  
      3776       3777       3788       3787       3897       3898       3909       3908  
      3777       3778       3789       3788       3898       3899       3910       3909  
      3778       3779       3790       3789       3899       3900       3911       3910  
      3779       3780       3791       3790       3900       3901       3912       3911  
      3780       3781       3792       3791       3901       3902       3913       3912  
      3781       3782       3793       3792       3902       3903       3914       3913  
      3782       3783       3794       3793       3903       3904       3915       3914  
      3783       3784       3795       3794       3904       3905       3916       3915  
      3785       3786       3797       3796       3906       3907       3918       3917  
      3786       3787       3798       3797       3907       3908       3919       3918  
      3787       3788       3799       3798       3908       3909       3920       3919  
      3788       3789       3800       3799       3909       3910       3921       3920  
      3789       3790       3801       3800       3910       3911       3922       3921  
      3790       3791       3802       3801       3911       3912       3923       3922  
      3791       3792       3803       3802       3912       3913       3924       3923  
      3792       3793       3804       3803       3913       3914       3925       3924  
      3793       3794       3805       3804       3914       3915       3926       3925  
      3794       3795       3806       3805       3915       3916       3927       3926  
      3796       3797       3808       3807       3917       3918       3929       3928  
      3797       3798       3809       3808       3918       3919       3930       3929  
      3798       3799       3810       3809       3919       3920       3931       3930  
      3799       3800       3811       3810       3920       3921       3932       3931  
      3800       3801       3812       3811       3921       3922       3933       3932  
      3801       3802       3813       3812       3922       3923       3934       3933  
      3802       3803       3814       3813       3923       3924       3935       3934  
      3803       3804       3815       3814       3924       3925       3936       3935  
      3804       3805       3816       3815       3925       3926       3937       3936  
      3805       3806       3817       3816       3926       3927       3938       3937  
      3807       3808       3819       3818       3928       3929       3940       3939  
      3808       3809       3820       3819       3929       3930       3941       3940  
      3809       3810       3821       3820       3930       3931       3942       3941  
      3810       3811       3822       3821       3931       3932       3943       3942  
      3811       3812       3823       3822       3932       3933       3944       3943  
      3812       3813       3824       3823       3933       3934       3945       3944  
      3813       3814       3825       3824       3934       3935       3946       3945  
      3814       3815       3826       3825       3935       3936       3947       3946  
      3815       3816       3827       3826       3936       3937       3948       3947  
      3816       3817       3828       3827       3937       3938       3949       3948  
      3818       3819       3830       3829       3939       3940       3951       3950  
      3819       3820       3831       3830       3940       3941       3952       3951  
      3820       3821       3832       3831       3941       3942       3953       3952  
      3821       3822       3833       3832       3942       3943       3954       3953  
      3822       3823       3834       3833       3943       3944       3955       3954  
      3823       3824       3835       3834       3944       3945       3956       3955  
      3824       3825       3836       3835       3945       3946       3957       3956  
      3825       3826       3837       3836       3946       3947       3958       3957  
      3826       3827       3838       3837       3947       3948       3959       3958  
      3827       3828       3839       3838       3948       3949       3960       3959  
      3829       3830       3841       3840       3950       3951       3962       3961  
      3830       3831       3842       3841       3951       3952       3963       3962  
      3831       3832       3843       3842       3952       3953       3964       3963  
      3832       3833       3844       3843       3953       3954       3965       3964  
      3833       3834       3845       3844       3954       3955       3966       3965  
      3834       3835       3846       3845       3955       3956       3967       3966  
      3835       3836       3847       3846       3956       3957       3968       3967  
      3836       3837       3848       3847       3957       3958       3969       3968  
      3837       3838       3849       3848       3958       3959       3970       3969  
      3838       3839       3850       3849       3959       3960       3971       3970  
      3840       3841       3852       3851       3961       3962       3973       3972  
      3841       3842       3853       3852       3962       3963       3974       3973  
      3842       3843       3854       3853       3963       3964       3975       3974  
      3843       3844       3855       3854       3964       3965       3976       3975  
      3844       3845       3856       3855       3965       3966       3977       3976  
      3845       3846       3857       3856       3966       3967       3978       3977  
      3846       3847       3858       3857       3967       3968       3979       3978  
      3847       3848       3859       3858       3968       3969       3980       3979  
      3848       3849       3860       3859       3969       3970       3981       3980  
      3849       3850       3861       3860       3970       3971       3982       3981  
      3851       3852       3863       3862       3972       3973       3984       3983  
      3852       3853       3864       3863       3973       3974       3985       3984  
      3853       3854       3865       3864       3974       3975       3986       3985  
      3854       3855       3866       3865       3975       3976       3987       3986  
      3855       3856       3867       3866       3976       3977       3988       3987  
      3856       3857       3868       3867       3977       3978       3989       3988  
      3857       3858       3869       3868       3978       3979       3990       3989  
      3858       3859       3870       3869       3979       3980       3991       3990  
      3859       3860       3871       3870       3980       3981       3992       3991  
      3860       3861       3872       3871       3981       3982       3993       3992  
      3873       3874       3885       3884       3994       3995       4006       4005  
      3874       3875       3886       3885       3995       3996       4007       4006  
      3875       3876       3887       3886       3996       3997       4008       4007  
      3876       3877       3888       3887       3997       3998       4009       4008  
      3877       3878       3889       3888       3998       3999       4010       4009  
      3878       3879       3890       3889       3999       4000       4011       4010  
      3879       3880       3891       3890       4000       4001       4012       4011  
      3880       3881       3892       3891       4001       4002       4013       4012  
      3881       3882       3893       3892       4002       4003       4014       4013  
      3882       3883       3894       3893       4003       4004       4015       4014  
      3884       3885       3896       3895       4005       4006       4017       4016  
      3885       3886       3897       3896       4006       4007       4018       4017  
      3886       3887       3898       3897       4007       4008       4019       4018  
      3887       3888       3899       3898       4008       4009       4020       4019  
      3888       3889       3900       3899       4009       4010       4021       4020  
      3889       3890       3901       3900       4010       4011       4022       4021  
      3890       3891       3902       3901       4011       4012       4023       4022  
      3891       3892       3903       3902       4012       4013       4024       4023  
      3892       3893       3904       3903       4013       4014       4025       4024  
      3893       3894       3905       3904       4014       4015       4026       4025  
      3895       3896       3907       3906       4016       4017       4028       4027  
      3896       3897       3908       3907       4017       4018       4029       4028  
      3897       3898       3909       3908       4018       4019       4030       4029  
      3898       3899       3910       3909       4019       4020       4031       4030  
      3899       3900       3911       3910       4020       4021       4032       4031  
      3900       3901       3912       3911       4021       4022       4033       4032  
      3901       3902       3913       3912       4022       4023       4034       4033  
      3902       3903       3914       3913       4023       4024       4035       4034  
      3903       3904       3915       3914       4024       4025       4036       4035  
      3904       3905       3916       3915       4025       4026       4037       4036  
      3906       3907       3918       3917       4027       4028       4039       4038  
      3907       3908       3919       3918       4028       4029       4040       4039  
      3908       3909       3920       3919       4029       4030       4041       4040  
      3909       3910       3921       3920       4030       4031       4042       4041  
      3910       3911       3922       3921       4031       4032       4043       4042  
      3911       3912       3923       3922       4032       4033       4044       4043  
      3912       3913       3924       3923       4033       4034       4045       4044  
      3913       3914       3925       3924       4034       4035       4046       4045  
      3914       3915       3926       3925       4035       4036       4047       4046  
      3915       3916       3927       3926       4036       4037       4048       4047  
      3917       3918       3929       3928       4038       4039       4050       4049  
      3918       3919       3930       3929       4039       4040       4051       4050  
      3919       3920       3931       3930       4040       4041       4052       4051  
      3920       3921       3932       3931       4041       4042       4053       4052  
      3921       3922       3933       3932       4042       4043       4054       4053  
      3922       3923       3934       3933       4043       4044       4055       4054  
      3923       3924       3935       3934       4044       4045       4056       4055  
      3924       3925       3936       3935       4045       4046       4057       4056  
      3925       3926       3937       3936       4046       4047       4058       4057  
      3926       3927       3938       3937       4047       4048       4059       4058  
      3928       3929       3940       3939       4049       4050       4061       4060  
      3929       3930       3941       3940       4050       4051       4062       4061  
      3930       3931       3942       3941       4051       4052       4063       4062  
      3931       3932       3943       3942       4052       4053       4064       4063  
      3932       3933       3944       3943       4053       4054       4065       4064  
      3933       3934       3945       3944       4054       4055       4066       4065  
      3934       3935       3946       3945       4055       4056       4067       4066  
      3935       3936       3947       3946       4056       4057       4068       4067  
      3936       3937       3948       3947       4057       4058       4069       4068  
      3937       3938       3949       3948       4058       4059       4070       4069  
      3939       3940       3951       3950       4060       4061       4072       4071  
      3940       3941       3952       3951       4061       4062       4073       4072  
      3941       3942       3953       3952       4062       4063       4074       4073  
      3942       3943       3954       3953       4063       4064       4075       4074  
      3943       3944       3955       3954       4064       4065       4076       4075  
      3944       3945       3956       3955       4065       4066       4077       4076  
      3945       3946       3957       3956       4066       4067       4078       4077  
      3946       3947       3958       3957       4067       4068       4079       4078  
      3947       3948       3959       3958       4068       4069       4080       4079  
      3948       3949       3960       3959       4069       4070       4081       4080  
      3950       3951       3962       3961       4071       4072       4083       4082  
      3951       3952       3963       3962       4072       4073       4084       4083  
      3952       3953       3964       3963       4073       4074       4085       4084  
      3953       3954       3965       3964       4074       4075       4086       4085  
      3954       3955       3966       3965       4075       4076       4087       4086  
      3955       3956       3967       3966       4076       4077       4088       4087  
      3956       3957       3968       3967       4077       4078       4089       4088  
      3957       3958       3969       3968       4078       4079       4090       4089  
      3958       3959       3970       3969       4079       4080       4091       4090  
      3959       3960       3971       3970       4080       4081       4092       4091  
      3961       3962       3973       3972       4082       4083       4094       4093  
      3962       3963       3974       3973       4083       4084       4095       4094  
      3963       3964       3975       3974       4084       4085       4096       4095  
      3964       3965       3976       3975       4085       4086       4097       4096  
      3965       3966       3977       3976       4086       4087       4098       4097  
      3966       3967       3978       3977       4087       4088       4099       4098  
      3967       3968       3979       3978       4088       4089       4100       4099  
      3968       3969       3980       3979       4089       4090       4101       4100  
      3969       3970       3981       3980       4090       4091       4102       4101  
      3970       3971       3982       3981       4091       4092       4103       4102  
      3972       3973       3984       3983       4093       4094       4105       4104  
      3973       3974       3985       3984       4094       4095       4106       4105  
      3974       3975       3986       3985       4095       4096       4107       4106  
      3975       3976       3987       3986       4096       4097       4108       4107  
      3976       3977       3988       3987       4097       4098       4109       4108  
      3977       3978       3989       3988       4098       4099       4110       4109  
      3978       3979       3990       3989       4099       4100       4111       4110  
      3979       3980       3991       3990       4100       4101       4112       4111  
      3980       3981       3992       3991       4101       4102       4113       4112  
      3981       3982       3993       3992       4102       4103       4114       4113  
      3994       3995       4006       4005       4115       4116       4127       4126  
      3995       3996       4007       4006       4116       4117       4128       4127  
      3996       3997       4008       4007       4117       4118       4129       4128  
      3997       3998       4009       4008       4118       4119       4130       4129  
      3998       3999       4010       4009       4119       4120       4131       4130  
      3999       4000       4011       4010       4120       4121       4132       4131  
      4000       4001       4012       4011       4121       4122       4133       4132  
      4001       4002       4013       4012       4122       4123       4134       4133  
      4002       4003       4014       4013       4123       4124       4135       4134  
      4003       4004       4015       4014       4124       4125       4136       4135  
      4005       4006       4017       4016       4126       4127       4138       4137  
      4006       4007       4018       4017       4127       4128       4139       4138  
      4007       4008       4019       4018       4128       4129       4140       4139  
      4008       4009       4020       4019       4129       4130       4141       4140  
      4009       4010       4021       4020       4130       4131       4142       4141  
      4010       4011       4022       4021       4131       4132       4143       4142  
      4011       4012       4023       4022       4132       4133       4144       4143  
      4012       4013       4024       4023       4133       4134       4145       4144  
      4013       4014       4025       4024       4134       4135       4146       4145  
      4014       4015       4026       4025       4135       4136       4147       4146  
      4016       4017       4028       4027       4137       4138       4149       4148  
      4017       4018       4029       4028       4138       4139       4150       4149  
      4018       4019       4030       4029       4139       4140       4151       4150  
      4019       4020       4031       4030       4140       4141       4152       4151  
      4020       4021       4032       4031       4141       4142       4153       4152  
      4021       4022       4033       4032       4142       4143       4154       4153  
      4022       4023       4034       4033       4143       4144       4155       4154  
      4023       4024       4035       4034       4144       4145       4156       4155  
      4024       4025       4036       4035       4145       4146       4157       4156  
      4025       4026       4037       4036       4146       4147       4158       4157  
      4027       4028       4039       4038       4148       4149       4160       4159  
      4028       4029       4040       4039       4149       4150       4161       4160  
      4029       4030       4041       4040       4150       4151       4162       4161  
      4030       4031       4042       4041       4151       4152       4163       4162  
      4031       4032       4043       4042       4152       4153       4164       4163  
      4032       4033       4044       4043       4153       4154       4165       4164  
      4033       4034       4045       4044       4154       4155       4166       4165  
      4034       4035       4046       4045       4155       4156       4167       4166  
      4035       4036       4047       4046       4156       4157       4168       4167  
      4036       4037       4048       4047       4157       4158       4169       4168  
      4038       4039       4050       4049       4159       4160       4171       4170  
      4039       4040       4051       4050       4160       4161       4172       4171  
      4040       4041       4052       4051       4161       4162       4173       4172  
      4041       4042       4053       4052       4162       4163       4174       4173  
      4042       4043       4054       4053       4163       4164       4175       4174  
      4043       4044       4055       4054       4164       4165       4176       4175  
      4044       4045       4056       4055       4165       4166       4177       4176  
      4045       4046       4057       4056       4166       4167       4178       4177  
      4046       4047       4058       4057       4167       4168       4179       4178  
      4047       4048       4059       4058       4168       4169       4180       4179  
      4049       4050       4061       4060       4170       4171       4182       4181  
      4050       4051       4062       4061       4171       4172       4183       4182  
      4051       4052       4063       4062       4172       4173       4184       4183  
      4052       4053       4064       4063       4173       4174       4185       4184  
      4053       4054       4065       4064       4174       4175       4186       4185  
      4054       4055       4066       4065       4175       4176       4187       4186  
      4055       4056       4067       4066       4176       4177       4188       4187  
      4056       4057       4068       4067       4177       4178       4189       4188  
      4057       4058       4069       4068       4178       4179       4190       4189  
      4058       4059       4070       4069       4179       4180       4191       4190  
      4060       4061       4072       4071       4181       4182       4193       4192  
      4061       4062       4073       4072       4182       4183       4194       4193  
      4062       4063       4074       4073       4183       4184       4195       4194  
      4063       4064       4075       4074       4184       4185       4196       4195  
      4064       4065       4076       4075       4185       4186       4197       4196  
      4065       4066       4077       4076       4186       4187       4198       4197  
      4066       4067       4078       4077       4187       4188       4199       4198  
      4067       4068       4079       4078       4188       4189       4200       4199  
      4068       4069       4080       4079       4189       4190       4201       4200  
      4069       4070       4081       4080       4190       4191       4202       4201  
      4071       4072       4083       4082       4192       4193       4204       4203  
      4072       4073       4084       4083       4193       4194       4205       4204  
      4073       4074       4085       4084       4194       4195       4206       4205  
      4074       4075       4086       4085       4195       4196       4207       4206  
      4075       4076       4087       4086       4196       4197       4208       4207  
      4076       4077       4088       4087       4197       4198       4209       4208  
      4077       4078       4089       4088       4198       4199       4210       4209  
      4078       4079       4090       4089       4199       4200       4211       4210  
      4079       4080       4091       4090       4200       4201       4212       4211  
      4080       4081       4092       4091       4201       4202       4213       4212  
      4082       4083       4094       4093       4203       4204       4215       4214  
      4083       4084       4095       4094       4204       4205       4216       4215  
      4084       4085       4096       4095       4205       4206       4217       4216  
      4085       4086       4097       4096       4206       4207       4218       4217  
      4086       4087       4098       4097       4207       4208       4219       4218  
      4087       4088       4099       4098       4208       4209       4220       4219  
      4088       4089       4100       4099       4209       4210       4221       4220  
      4089       4090       4101       4100       4210       4211       4222       4221  
      4090       4091       4102       4101       4211       4212       4223       4222  
      4091       4092       4103       4102       4212       4213       4224       4223  
      4093       4094       4105       4104       4214       4215       4226       4225  
      4094       4095       4106       4105       4215       4216       4227       4226  
      4095       4096       4107       4106       4216       4217       4228       4227  
      4096       4097       4108       4107       4217       4218       4229       4228  
      4097       4098       4109       4108       4218       4219       4230       4229  
      4098       4099       4110       4109       4219       4220       4231       4230  
      4099       4100       4111       4110       4220       4221       4232       4231  
      4100       4101       4112       4111       4221       4222       4233       4232  
      4101       4102       4113       4112       4222       4223       4234       4233  
      4102       4103       4114       4113       4223       4224       4235       4234  
      4115       4116       4127       4126       4236       4237       4248       4247  
      4116       4117       4128       4127       4237       4238       4249       4248  
      4117       4118       4129       4128       4238       4239       4250       4249  
      4118       4119       4130       4129       4239       4240       4251       4250  
      4119       4120       4131       4130       4240       4241       4252       4251  
      4120       4121       4132       4131       4241       4242       4253       4252  
      4121       4122       4133       4132       4242       4243       4254       4253  
      4122       4123       4134       4133       4243       4244       4255       4254  
      4123       4124       4135       4134       4244       4245       4256       4255  
      4124       4125       4136       4135       4245       4246       4257       4256  
      4126       4127       4138       4137       4247       4248       4259       4258  
      4127       4128       4139       4138       4248       4249       4260       4259  
      4128       4129       4140       4139       4249       4250       4261       4260  
      4129       4130       4141       4140       4250       4251       4262       4261  
      4130       4131       4142       4141       4251       4252       4263       4262  
      4131       4132       4143       4142       4252       4253       4264       4263  
      4132       4133       4144       4143       4253       4254       4265       4264  
      4133       4134       4145       4144       4254       4255       4266       4265  
      4134       4135       4146       4145       4255       4256       4267       4266  
      4135       4136       4147       4146       4256       4257       4268       4267  
      4137       4138       4149       4148       4258       4259       4270       4269  
      4138       4139       4150       4149       4259       4260       4271       4270  
      4139       4140       4151       4150       4260       4261       4272       4271  
      4140       4141       4152       4151       4261       4262       4273       4272  
      4141       4142       4153       4152       4262       4263       4274       4273  
      4142       4143       4154       4153       4263       4264       4275       4274  
      4143       4144       4155       4154       4264       4265       4276       4275  
      4144       4145       4156       4155       4265       4266       4277       4276  
      4145       4146       4157       4156       4266       4267       4278       4277  
      4146       4147       4158       4157       4267       4268       4279       4278  
      4148       4149       4160       4159       4269       4270       4281       4280  
      4149       4150       4161       4160       4270       4271       4282       4281  
      4150       4151       4162       4161       4271       4272       4283       4282  
      4151       4152       4163       4162       4272       4273       4284       4283  
      4152       4153       4164       4163       4273       4274       4285       4284  
      4153       4154       4165       4164       4274       4275       4286       4285  
      4154       4155       4166       4165       4275       4276       4287       4286  
      4155       4156       4167       4166       4276       4277       4288       4287  
      4156       4157       4168       4167       4277       4278       4289       4288  
      4157       4158       4169       4168       4278       4279       4290       4289  
      4159       4160       4171       4170       4280       4281       4292       4291  
      4160       4161       4172       4171       4281       4282       4293       4292  
      4161       4162       4173       4172       4282       4283       4294       4293  
      4162       4163       4174       4173       4283       4284       4295       4294  
      4163       4164       4175       4174       4284       4285       4296       4295  
      4164       4165       4176       4175       4285       4286       4297       4296  
      4165       4166       4177       4176       4286       4287       4298       4297  
      4166       4167       4178       4177       4287       4288       4299       4298  
      4167       4168       4179       4178       4288       4289       4300       4299  
      4168       4169       4180       4179       4289       4290       4301       4300  
      4170       4171       4182       4181       4291       4292       4303       4302  
      4171       4172       4183       4182       4292       4293       4304       4303  
      4172       4173       4184       4183       4293       4294       4305       4304  
      4173       4174       4185       4184       4294       4295       4306       4305  
      4174       4175       4186       4185       4295       4296       4307       4306  
      4175       4176       4187       4186       4296       4297       4308       4307  
      4176       4177       4188       4187       4297       4298       4309       4308  
      4177       4178       4189       4188       4298       4299       4310       4309  
      4178       4179       4190       4189       4299       4300       4311       4310  
      4179       4180       4191       4190       4300       4301       4312       4311  
      4181       4182       4193       4192       4302       4303       4314       4313  
      4182       4183       4194       4193       4303       4304       4315       4314  
      4183       4184       4195       4194       4304       4305       4316       4315  
      4184       4185       4196       4195       4305       4306       4317       4316  
      4185       4186       4197       4196       4306       4307       4318       4317  
      4186       4187       4198       4197       4307       4308       4319       4318  
      4187       4188       4199       4198       4308       4309       4320       4319  
      4188       4189       4200       4199       4309       4310       4321       4320  
      4189       4190       4201       4200       4310       4311       4322       4321  
      4190       4191       4202       4201       4311       4312       4323       4322  
      4192       4193       4204       4203       4313       4314       4325       4324  
      4193       4194       4205       4204       4314       4315       4326       4325  
      4194       4195       4206       4205       4315       4316       4327       4326  
      4195       4196       4207       4206       4316       4317       4328       4327  
      4196       4197       4208       4207       4317       4318       4329       4328  
      4197       4198       4209       4208       4318       4319       4330       4329  
      4198       4199       4210       4209       4319       4320       4331       4330  
      4199       4200       4211       4210       4320       4321       4332       4331  
      4200       4201       4212       4211       4321       4322       4333       4332  
      4201       4202       4213       4212       4322       4323       4334       4333  
      4203       4204       4215       4214       4324       4325       4336       4335  
      4204       4205       4216       4215       4325       4326       4337       4336  
      4205       4206       4217       4216       4326       4327       4338       4337  
      4206       4207       4218       4217       4327       4328       4339       4338  
      4207       4208       4219       4218       4328       4329       4340       4339  
      4208       4209       4220       4219       4329       4330       4341       4340  
      4209       4210       4221       4220       4330       4331       4342       4341  
      4210       4211       4222       4221       4331       4332       4343       4342  
      4211       4212       4223       4222       4332       4333       4344       4343  
      4212       4213       4224       4223       4333       4334       4345       4344  
      4214       4215       4226       4225       4335       4336       4347       4346  
      4215       4216       4227       4226       4336       4337       4348       4347  
      4216       4217       4228       4227       4337       4338       4349       4348  
      4217       4218       4229       4228       4338       4339       4350       4349  
      4218       4219       4230       4229       4339       4340       4351       4350  
      4219       4220       4231       4230       4340       4341       4352       4351  
      4220       4221       4232       4231       4341       4342       4353       4352  
      4221       4222       4233       4232       4342       4343       4354       4353  
      4222       4223       4234       4233       4343       4344       4355       4354  
      4223       4224       4235       4234       4344       4345       4356       4355  
      4236       4237       4248       4247       4357       4358       4369       4368  
      4237       4238       4249       4248       4358       4359       4370       4369  
      4238       4239       4250       4249       4359       4360       4371       4370  
      4239       4240       4251       4250       4360       4361       4372       4371  
      4240       4241       4252       4251       4361       4362       4373       4372  
      4241       4242       4253       4252       4362       4363       4374       4373  
      4242       4243       4254       4253       4363       4364       4375       4374  
      4243       4244       4255       4254       4364       4365       4376       4375  
      4244       4245       4256       4255       4365       4366       4377       4376  
      4245       4246       4257       4256       4366       4367       4378       4377  
      4247       4248       4259       4258       4368       4369       4380       4379  
      4248       4249       4260       4259       4369       4370       4381       4380  
      4249       4250       4261       4260       4370       4371       4382       4381  
      4250       4251       4262       4261       4371       4372       4383       4382  
      4251       4252       4263       4262       4372       4373       4384       4383  
      4252       4253       4264       4263       4373       4374       4385       4384  
      4253       4254       4265       4264       4374       4375       4386       4385  
      4254       4255       4266       4265       4375       4376       4387       4386  
      4255       4256       4267       4266       4376       4377       4388       4387  
      4256       4257       4268       4267       4377       4378       4389       4388  
      4258       4259       4270       4269       4379       4380       4391       4390  
      4259       4260       4271       4270       4380       4381       4392       4391  
      4260       4261       4272       4271       4381       4382       4393       4392  
      4261       4262       4273       4272       4382       4383       4394       4393  
      4262       4263       4274       4273       4383       4384       4395       4394  
      4263       4264       4275       4274       4384       4385       4396       4395  
      4264       4265       4276       4275       4385       4386       4397       4396  
      4265       4266       4277       4276       4386       4387       4398       4397  
      4266       4267       4278       4277       4387       4388       4399       4398  
      4267       4268       4279       4278       4388       4389       4400       4399  
      4269       4270       4281       4280       4390       4391       4402       4401  
      4270       4271       4282       4281       4391       4392       4403       4402  
      4271       4272       4283       4282       4392       4393       4404       4403  
      4272       4273       4284       4283       4393       4394       4405       4404  
      4273       4274       4285       4284       4394       4395       4406       4405  
      4274       4275       4286       4285       4395       4396       4407       4406  
      4275       4276       4287       4286       4396       4397       4408       4407  
      4276       4277       4288       4287       4397       4398       4409       4408  
      4277       4278       4289       4288       4398       4399       4410       4409  
      4278       4279       4290       4289       4399       4400       4411       4410  
      4280       4281       4292       4291       4401       4402       4413       4412  
      4281       4282       4293       4292       4402       4403       4414       4413  
      4282       4283       4294       4293       4403       4404       4415       4414  
      4283       4284       4295       4294       4404       4405       4416       4415  
      4284       4285       4296       4295       4405       4406       4417       4416  
      4285       4286       4297       4296       4406       4407       4418       4417  
      4286       4287       4298       4297       4407       4408       4419       4418  
      4287       4288       4299       4298       4408       4409       4420       4419  
      4288       4289       4300       4299       4409       4410       4421       4420  
      4289       4290       4301       4300       4410       4411       4422       4421  
      4291       4292       4303       4302       4412       4413       4424       4423  
      4292       4293       4304       4303       4413       4414       4425       4424  
      4293       4294       4305       4304       4414       4415       4426       4425  
      4294       4295       4306       4305       4415       4416       4427       4426  
      4295       4296       4307       4306       4416       4417       4428       4427  
      4296       4297       4308       4307       4417       4418       4429       4428  
      4297       4298       4309       4308       4418       4419       4430       4429  
      4298       4299       4310       4309       4419       4420       4431       4430  
      4299       4300       4311       4310       4420       4421       4432       4431  
      4300       4301       4312       4311       4421       4422       4433       4432  
      4302       4303       4314       4313       4423       4424       4435       4434  
      4303       4304       4315       4314       4424       4425       4436       4435  
      4304       4305       4316       4315       4425       4426       4437       4436  
      4305       4306       4317       4316       4426       4427       4438       4437  
      4306       4307       4318       4317       4427       4428       4439       4438  
      4307       4308       4319       4318       4428       4429       4440       4439  
      4308       4309       4320       4319       4429       4430       4441       4440  
      4309       4310       4321       4320       4430       4431       4442       4441  
      4310       4311       4322       4321       4431       4432       4443       4442  
      4311       4312       4323       4322       4432       4433       4444       4443  
      4313       4314       4325       4324       4434       4435       4446       4445  
      4314       4315       4326       4325       4435       4436       4447       4446  
      4315       4316       4327       4326       4436       4437       4448       4447  
      4316       4317       4328       4327       4437       4438       4449       4448  
      4317       4318       4329       4328       4438       4439       4450       4449  
      4318       4319       4330       4329       4439       4440       4451       4450  
      4319       4320       4331       4330       4440       4441       4452       4451  
      4320       4321       4332       4331       4441       4442       4453       4452  
      4321       4322       4333       4332       4442       4443       4454       4453  
      4322       4323       4334       4333       4443       4444       4455       4454  
      4324       4325       4336       4335       4445       4446       4457       4456  
      4325       4326       4337       4336       4446       4447       4458       4457  
      4326       4327       4338       4337       4447       4448       4459       4458  
      4327       4328       4339       4338       4448       4449       4460       4459  
      4328       4329       4340       4339       4449       4450       4461       4460  
      4329       4330       4341       4340       4450       4451       4462       4461  
      4330       4331       4342       4341       4451       4452       4463       4462  
      4331       4332       4343       4342       4452       4453       4464       4463  
      4332       4333       4344       4343       4453       4454       4465       4464  
      4333       4334       4345       4344       4454       4455       4466       4465  
      4335       4336       4347       4346       4456       4457       4468       4467  
      4336       4337       4348       4347       4457       4458       4469       4468  
      4337       4338       4349       4348       4458       4459       4470       4469  
      4338       4339       4350       4349       4459       4460       4471       4470  
      4339       4340       4351       4350       4460       4461       4472       4471  
      4340       4341       4352       4351       4461       4462       4473       4472  
      4341       4342       4353       4352       4462       4463       4474       4473  
      4342       4343       4354       4353       4463       4464       4475       4474  
      4343       4344       4355       4354       4464       4465       4476       4475  
      4344       4345       4356       4355       4465       4466       4477       4476  
      4357       4358       4369       4368       4478       4479       4490       4489  
      4358       4359       4370       4369       4479       4480       4491       4490  
      4359       4360       4371       4370       4480       4481       4492       4491  
      4360       4361       4372       4371       4481       4482       4493       4492  
      4361       4362       4373       4372       4482       4483       4494       4493  
      4362       4363       4374       4373       4483       4484       4495       4494  
      4363       4364       4375       4374       4484       4485       4496       4495  
      4364       4365       4376       4375       4485       4486       4497       4496  
      4365       4366       4377       4376       4486       4487       4498       4497  
      4366       4367       4378       4377       4487       4488       4499       4498  
      4368       4369       4380       4379       4489       4490       4501       4500  
      4369       4370       4381       4380       4490       4491       4502       4501  
      4370       4371       4382       4381       4491       4492       4503       4502  
      4371       4372       4383       4382       4492       4493       4504       4503  
      4372       4373       4384       4383       4493       4494       4505       4504  
      4373       4374       4385       4384       4494       4495       4506       4505  
      4374       4375       4386       4385       4495       4496       4507       4506  
      4375       4376       4387       4386       4496       4497       4508       4507  
      4376       4377       4388       4387       4497       4498       4509       4508  
      4377       4378       4389       4388       4498       4499       4510       4509  
      4379       4380       4391       4390       4500       4501       4512       4511  
      4380       4381       4392       4391       4501       4502       4513       4512  
      4381       4382       4393       4392       4502       4503       4514       4513  
      4382       4383       4394       4393       4503       4504       4515       4514  
      4383       4384       4395       4394       4504       4505       4516       4515  
      4384       4385       4396       4395       4505       4506       4517       4516  
      4385       4386       4397       4396       4506       4507       4518       4517  
      4386       4387       4398       4397       4507       4508       4519       4518  
      4387       4388       4399       4398       4508       4509       4520       4519  
      4388       4389       4400       4399       4509       4510       4521       4520  
      4390       4391       4402       4401       4511       4512       4523       4522  
      4391       4392       4403       4402       4512       4513       4524       4523  
      4392       4393       4404       4403       4513       4514       4525       4524  
      4393       4394       4405       4404       4514       4515       4526       4525  
      4394       4395       4406       4405       4515       4516       4527       4526  
      4395       4396       4407       4406       4516       4517       4528       4527  
      4396       4397       4408       4407       4517       4518       4529       4528  
      4397       4398       4409       4408       4518       4519       4530       4529  
      4398       4399       4410       4409       4519       4520       4531       4530  
      4399       4400       4411       4410       4520       4521       4532       4531  
      4401       4402       4413       4412       4522       4523       4534       4533  
      4402       4403       4414       4413       4523       4524       4535       4534  
      4403       4404       4415       4414       4524       4525       4536       4535  
      4404       4405       4416       4415       4525       4526       4537       4536  
      4405       4406       4417       4416       4526       4527       4538       4537  
      4406       4407       4418       4417       4527       4528       4539       4538  
      4407       4408       4419       4418       4528       4529       4540       4539  
      4408       4409       4420       4419       4529       4530       4541       4540  
      4409       4410       4421       4420       4530       4531       4542       4541  
      4410       4411       4422       4421       4531       4532       4543       4542  
      4412       4413       4424       4423       4533       4534       4545       4544  
      4413       4414       4425       4424       4534       4535       4546       4545  
      4414       4415       4426       4425       4535       4536       4547       4546  
      4415       4416       4427       4426       4536       4537       4548       4547  
      4416       4417       4428       4427       4537       4538       4549       4548  
      4417       4418       4429       4428       4538       4539       4550       4549  
      4418       4419       4430       4429       4539       4540       4551       4550  
      4419       4420       4431       4430       4540       4541       4552       4551  
      4420       4421       4432       4431       4541       4542       4553       4552  
      4421       4422       4433       4432       4542       4543       4554       4553  
      4423       4424       4435       4434       4544       4545       4556       4555  
      4424       4425       4436       4435       4545       4546       4557       4556  
      4425       4426       4437       4436       4546       4547       4558       4557  
      4426       4427       4438       4437       4547       4548       4559       4558  
      4427       4428       4439       4438       4548       4549       4560       4559  
      4428       4429       4440       4439       4549       4550       4561       4560  
      4429       4430       4441       4440       4550       4551       4562       4561  
      4430       4431       4442       4441       4551       4552       4563       4562  
      4431       4432       4443       4442       4552       4553       4564       4563  
      4432       4433       4444       4443       4553       4554       4565       4564  
      4434       4435       4446       4445       4555       4556       4567       4566  
      4435       4436       4447       4446       4556       4557       4568       4567  
      4436       4437       4448       4447       4557       4558       4569       4568  
      4437       4438       4449       4448       4558       4559       4570       4569  
      4438       4439       4450       4449       4559       4560       4571       4570  
      4439       4440       4451       4450       4560       4561       4572       4571  
      4440       4441       4452       4451       4561       4562       4573       4572  
      4441       4442       4453       4452       4562       4563       4574       4573  
      4442       4443       4454       4453       4563       4564       4575       4574  
      4443       4444       4455       4454       4564       4565       4576       4575  
      4445       4446       4457       4456       4566       4567       4578       4577  
      4446       4447       4458       4457       4567       4568       4579       4578  
      4447       4448       4459       4458       4568       4569       4580       4579  
      4448       4449       4460       4459       4569       4570       4581       4580  
      4449       4450       4461       4460       4570       4571       4582       4581  
      4450       4451       4462       4461       4571       4572       4583       4582  
      4451       4452       4463       4462       4572       4573       4584       4583  
      4452       4453       4464       4463       4573       4574       4585       4584  
      4453       4454       4465       4464       4574       4575       4586       4585  
      4454       4455       4466       4465       4575       4576       4587       4586  
      4456       4457       4468       4467       4577       4578       4589       4588  
      4457       4458       4469       4468       4578       4579       4590       4589  
      4458       4459       4470       4469       4579       4580       4591       4590  
      4459       4460       4471       4470       4580       4581       4592       4591  
      4460       4461       4472       4471       4581       4582       4593       4592  
      4461       4462       4473       4472       4582       4583       4594       4593  
      4462       4463       4474       4473       4583       4584       4595       4594  
      4463       4464       4475       4474       4584       4585       4596       4595  
      4464       4465       4476       4475       4585       4586       4597       4596  
      4465       4466       4477       4476       4586       4587       4598       4597  
      4478       4479       4490       4489       4599       4600       4611       4610  
      4479       4480       4491       4490       4600       4601       4612       4611  
      4480       4481       4492       4491       4601       4602       4613       4612  
      4481       4482       4493       4492       4602       4603       4614       4613  
      4482       4483       4494       4493       4603       4604       4615       4614  
      4483       4484       4495       4494       4604       4605       4616       4615  
      4484       4485       4496       4495       4605       4606       4617       4616  
      4485       4486       4497       4496       4606       4607       4618       4617  
      4486       4487       4498       4497       4607       4608       4619       4618  
      4487       4488       4499       4498       4608       4609       4620       4619  
      4489       4490       4501       4500       4610       4611       4622       4621  
      4490       4491       4502       4501       4611       4612       4623       4622  
      4491       4492       4503       4502       4612       4613       4624       4623  
      4492       4493       4504       4503       4613       4614       4625       4624  
      4493       4494       4505       4504       4614       4615       4626       4625  
      4494       4495       4506       4505       4615       4616       4627       4626  
      4495       4496       4507       4506       4616       4617       4628       4627  
      4496       4497       4508       4507       4617       4618       4629       4628  
      4497       4498       4509       4508       4618       4619       4630       4629  
      4498       4499       4510       4509       4619       4620       4631       4630  
      4500       4501       4512       4511       4621       4622       4633       4632  
      4501       4502       4513       4512       4622       4623       4634       4633  
      4502       4503       4514       4513       4623       4624       4635       4634  
      4503       4504       4515       4514       4624       4625       4636       4635  
      4504       4505       4516       4515       4625       4626       4637       4636  
      4505       4506       4517       4516       4626       4627       4638       4637  
      4506       4507       4518       4517       4627       4628       4639       4638  
      4507       4508       4519       4518       4628       4629       4640       4639  
      4508       4509       4520       4519       4629       4630       4641       4640  
      4509       4510       4521       4520       4630       4631       4642       4641  
      4511       4512       4523       4522       4632       4633       4644       4643  
      4512       4513       4524       4523       4633       4634       4645       4644  
      4513       4514       4525       4524       4634       4635       4646       4645  
      4514       4515       4526       4525       4635       4636       4647       4646  
      4515       4516       4527       4526       4636       4637       4648       4647  
      4516       4517       4528       4527       4637       4638       4649       4648  
      4517       4518       4529       4528       4638       4639       4650       4649  
      4518       4519       4530       4529       4639       4640       4651       4650  
      4519       4520       4531       4530       4640       4641       4652       4651  
      4520       4521       4532       4531       4641       4642       4653       4652  
      4522       4523       4534       4533       4643       4644       4655       4654  
      4523       4524       4535       4534       4644       4645       4656       4655  
      4524       4525       4536       4535       4645       4646       4657       4656  
      4525       4526       4537       4536       4646       4647       4658       4657  
      4526       4527       4538       4537       4647       4648       4659       4658  
      4527       4528       4539       4538       4648       4649       4660       4659  
      4528       4529       4540       4539       4649       4650       4661       4660  
      4529       4530       4541       4540       4650       4651       4662       4661  
      4530       4531       4542       4541       4651       4652       4663       4662  
      4531       4532       4543       4542       4652       4653       4664       4663  
      4533       4534       4545       4544       4654       4655       4666       4665  
      4534       4535       4546       4545       4655       4656       4667       4666  
      4535       4536       4547       4546       4656       4657       4668       4667  
      4536       4537       4548       4547       4657       4658       4669       4668  
      4537       4538       4549       4548       4658       4659       4670       4669  
      4538       4539       4550       4549       4659       4660       4671       4670  
      4539       4540       4551       4550       4660       4661       4672       4671  
      4540       4541       4552       4551       4661       4662       4673       4672  
      4541       4542       4553       4552       4662       4663       4674       4673  
      4542       4543       4554       4553       4663       4664       4675       4674  
      4544       4545       4556       4555       4665       4666       4677       4676  
      4545       4546       4557       4556       4666       4667       4678       4677  
      4546       4547       4558       4557       4667       4668       4679       4678  
      4547       4548       4559       4558       4668       4669       4680       4679  
      4548       4549       4560       4559       4669       4670       4681       4680  
      4549       4550       4561       4560       4670       4671       4682       4681  
      4550       4551       4562       4561       4671       4672       4683       4682  
      4551       4552       4563       4562       4672       4673       4684       4683  
      4552       4553       4564       4563       4673       4674       4685       4684  
      4553       4554       4565       4564       4674       4675       4686       4685  
      4555       4556       4567       4566       4676       4677       4688       4687  
      4556       4557       4568       4567       4677       4678       4689       4688  
      4557       4558       4569       4568       4678       4679       4690       4689  
      4558       4559       4570       4569       4679       4680       4691       4690  
      4559       4560       4571       4570       4680       4681       4692       4691  
      4560       4561       4572       4571       4681       4682       4693       4692  
      4561       4562       4573       4572       4682       4683       4694       4693  
      4562       4563       4574       4573       4683       4684       4695       4694  
      4563       4564       4575       4574       4684       4685       4696       4695  
      4564       4565       4576       4575       4685       4686       4697       4696  
      4566       4567       4578       4577       4687       4688       4699       4698  
      4567       4568       4579       4578       4688       4689       4700       4699  
      4568       4569       4580       4579       4689       4690       4701       4700  
      4569       4570       4581       4580       4690       4691       4702       4701  
      4570       4571       4582       4581       4691       4692       4703       4702  
      4571       4572       4583       4582       4692       4693       4704       4703  
      4572       4573       4584       4583       4693       4694       4705       4704  
      4573       4574       4585       4584       4694       4695       4706       4705  
      4574       4575       4586       4585       4695       4696       4707       4706  
      4575       4576       4587       4586       4696       4697       4708       4707  
      4577       4578       4589       4588       4698       4699       4710       4709  
      4578       4579       4590       4589       4699       4700       4711       4710  
      4579       4580       4591       4590       4700       4701       4712       4711  
      4580       4581       4592       4591       4701       4702       4713       4712  
      4581       4582       4593       4592       4702       4703       4714       4713  
      4582       4583       4594       4593       4703       4704       4715       4714  
      4583       4584       4595       4594       4704       4705       4716       4715  
      4584       4585       4596       4595       4705       4706       4717       4716  
      4585       4586       4597       4596       4706       4707       4718       4717  
      4586       4587       4598       4597       4707       4708       4719       4718  
      4599       4600       4611       4610       4720       4721       4732       4731  
      4600       4601       4612       4611       4721       4722       4733       4732  
      4601       4602       4613       4612       4722       4723       4734       4733  
      4602       4603       4614       4613       4723       4724       4735       4734  
      4603       4604       4615       4614       4724       4725       4736       4735  
      4604       4605       4616       4615       4725       4726       4737       4736  
      4605       4606       4617       4616       4726       4727       4738       4737  
      4606       4607       4618       4617       4727       4728       4739       4738  
      4607       4608       4619       4618       4728       4729       4740       4739  
      4608       4609       4620       4619       4729       4730       4741       4740  
      4610       4611       4622       4621       4731       4732       4743       4742  
      4611       4612       4623       4622       4732       4733       4744       4743  
      4612       4613       4624       4623       4733       4734       4745       4744  
      4613       4614       4625       4624       4734       4735       4746       4745  
      4614       4615       4626       4625       4735       4736       4747       4746  
      4615       4616       4627       4626       4736       4737       4748       4747  
      4616       4617       4628       4627       4737       4738       4749       4748  
      4617       4618       4629       4628       4738       4739       4750       4749  
      4618       4619       4630       4629       4739       4740       4751       4750  
      4619       4620       4631       4630       4740       4741       4752       4751  
      4621       4622       4633       4632       4742       4743       4754       4753  
      4622       4623       4634       4633       4743       4744       4755       4754  
      4623       4624       4635       4634       4744       4745       4756       4755  
      4624       4625       4636       4635       4745       4746       4757       4756  
      4625       4626       4637       4636       4746       4747       4758       4757  
      4626       4627       4638       4637       4747       4748       4759       4758  
      4627       4628       4639       4638       4748       4749       4760       4759  
      4628       4629       4640       4639       4749       4750       4761       4760  
      4629       4630       4641       4640       4750       4751       4762       4761  
      4630       4631       4642       4641       4751       4752       4763       4762  
      4632       4633       4644       4643       4753       4754       4765       4764  
      4633       4634       4645       4644       4754       4755       4766       4765  
      4634       4635       4646       4645       4755       4756       4767       4766  
      4635       4636       4647       4646       4756       4757       4768       4767  
      4636       4637       4648       4647       4757       4758       4769       4768  
      4637       4638       4649       4648       4758       4759       4770       4769  
      4638       4639       4650       4649       4759       4760       4771       4770  
      4639       4640       4651       4650       4760       4761       4772       4771  
      4640       4641       4652       4651       4761       4762       4773       4772  
      4641       4642       4653       4652       4762       4763       4774       4773  
      4643       4644       4655       4654       4764       4765       4776       4775  
      4644       4645       4656       4655       4765       4766       4777       4776  
      4645       4646       4657       4656       4766       4767       4778       4777  
      4646       4647       4658       4657       4767       4768       4779       4778  
      4647       4648       4659       4658       4768       4769       4780       4779  
      4648       4649       4660       4659       4769       4770       4781       4780  
      4649       4650       4661       4660       4770       4771       4782       4781  
      4650       4651       4662       4661       4771       4772       4783       4782  
      4651       4652       4663       4662       4772       4773       4784       4783  
      4652       4653       4664       4663       4773       4774       4785       4784  
      4654       4655       4666       4665       4775       4776       4787       4786  
      4655       4656       4667       4666       4776       4777       4788       4787  
      4656       4657       4668       4667       4777       4778       4789       4788  
      4657       4658       4669       4668       4778       4779       4790       4789  
      4658       4659       4670       4669       4779       4780       4791       4790  
      4659       4660       4671       4670       4780       4781       4792       4791  
      4660       4661       4672       4671       4781       4782       4793       4792  
      4661       4662       4673       4672       4782       4783       4794       4793  
      4662       4663       4674       4673       4783       4784       4795       4794  
      4663       4664       4675       4674       4784       4785       4796       4795  
      4665       4666       4677       4676       4786       4787       4798       4797  
      4666       4667       4678       4677       4787       4788       4799       4798  
      4667       4668       4679       4678       4788       4789       4800       4799  
      4668       4669       4680       4679       4789       4790       4801       4800  
      4669       4670       4681       4680       4790       4791       4802       4801  
      4670       4671       4682       4681       4791       4792       4803       4802  
      4671       4672       4683       4682       4792       4793       4804       4803  
      4672       4673       4684       4683       4793       4794       4805       4804  
      4673       4674       4685       4684       4794       4795       4806       4805  
      4674       4675       4686       4685       4795       4796       4807       4806  
      4676       4677       4688       4687       4797       4798       4809       4808  
      4677       4678       4689       4688       4798       4799       4810       4809  
      4678       4679       4690       4689       4799       4800       4811       4810  
      4679       4680       4691       4690       4800       4801       4812       4811  
      4680       4681       4692       4691       4801       4802       4813       4812  
      4681       4682       4693       4692       4802       4803       4814       4813  
      4682       4683       4694       4693       4803       4804       4815       4814  
      4683       4684       4695       4694       4804       4805       4816       4815  
      4684       4685       4696       4695       4805       4806       4817       4816  
      4685       4686       4697       4696       4806       4807       4818       4817  
      4687       4688       4699       4698       4808       4809       4820       4819  
      4688       4689       4700       4699       4809       4810       4821       4820  
      4689       4690       4701       4700       4810       4811       4822       4821  
      4690       4691       4702       4701       4811       4812       4823       4822  
      4691       4692       4703       4702       4812       4813       4824       4823  
      4692       4693       4704       4703       4813       4814       4825       4824  
      4693       4694       4705       4704       4814       4815       4826       4825  
      4694       4695       4706       4705       4815       4816       4827       4826  
      4695       4696       4707       4706       4816       4817       4828       4827  
      4696       4697       4708       4707       4817       4818       4829       4828  
      4698       4699       4710       4709       4819       4820       4831       4830  
      4699       4700       4711       4710       4820       4821       4832       4831  
      4700       4701       4712       4711       4821       4822       4833       4832  
      4701       4702       4713       4712       4822       4823       4834       4833  
      4702       4703       4714       4713       4823       4824       4835       4834  
      4703       4704       4715       4714       4824       4825       4836       4835  
      4704       4705       4716       4715       4825       4826       4837       4836  
      4705       4706       4717       4716       4826       4827       4838       4837  
      4706       4707       4718       4717       4827       4828       4839       4838  
      4707       4708       4719       4718       4828       4829       4840       4839  
      4720       4721       4732       4731       4841       4842       4853       4852  
      4721       4722       4733       4732       4842       4843       4854       4853  
      4722       4723       4734       4733       4843       4844       4855       4854  
      4723       4724       4735       4734       4844       4845       4856       4855  
      4724       4725       4736       4735       4845       4846       4857       4856  
      4725       4726       4737       4736       4846       4847       4858       4857  
      4726       4727       4738       4737       4847       4848       4859       4858  
      4727       4728       4739       4738       4848       4849       4860       4859  
      4728       4729       4740       4739       4849       4850       4861       4860  
      4729       4730       4741       4740       4850       4851       4862       4861  
      4731       4732       4743       4742       4852       4853       4864       4863  
      4732       4733       4744       4743       4853       4854       4865       4864  
      4733       4734       4745       4744       4854       4855       4866       4865  
      4734       4735       4746       4745       4855       4856       4867       4866  
      4735       4736       4747       4746       4856       4857       4868       4867  
      4736       4737       4748       4747       4857       4858       4869       4868  
      4737       4738       4749       4748       4858       4859       4870       4869  
      4738       4739       4750       4749       4859       4860       4871       4870  
      4739       4740       4751       4750       4860       4861       4872       4871  
      4740       4741       4752       4751       4861       4862       4873       4872  
      4742       4743       4754       4753       4863       4864       4875       4874  
      4743       4744       4755       4754       4864       4865       4876       4875  
      4744       4745       4756       4755       4865       4866       4877       4876  
      4745       4746       4757       4756       4866       4867       4878       4877  
      4746       4747       4758       4757       4867       4868       4879       4878  
      4747       4748       4759       4758       4868       4869       4880       4879  
      4748       4749       4760       4759       4869       4870       4881       4880  
      4749       4750       4761       4760       4870       4871       4882       4881  
      4750       4751       4762       4761       4871       4872       4883       4882  
      4751       4752       4763       4762       4872       4873       4884       4883  
      4753       4754       4765       4764       4874       4875       4886       4885  
      4754       4755       4766       4765       4875       4876       4887       4886  
      4755       4756       4767       4766       4876       4877       4888       4887  
      4756       4757       4768       4767       4877       4878       4889       4888  
      4757       4758       4769       4768       4878       4879       4890       4889  
      4758       4759       4770       4769       4879       4880       4891       4890  
      4759       4760       4771       4770       4880       4881       4892       4891  
      4760       4761       4772       4771       4881       4882       4893       4892  
      4761       4762       4773       4772       4882       4883       4894       4893  
      4762       4763       4774       4773       4883       4884       4895       4894  
      4764       4765       4776       4775       4885       4886       4897       4896  
      4765       4766       4777       4776       4886       4887       4898       4897  
      4766       4767       4778       4777       4887       4888       4899       4898  
      4767       4768       4779       4778       4888       4889       4900       4899  
      4768       4769       4780       4779       4889       4890       4901       4900  
      4769       4770       4781       4780       4890       4891       4902       4901  
      4770       4771       4782       4781       4891       4892       4903       4902  
      4771       4772       4783       4782       4892       4893       4904       4903  
      4772       4773       4784       4783       4893       4894       4905       4904  
      4773       4774       4785       4784       4894       4895       4906       4905  
      4775       4776       4787       4786       4896       4897       4908       4907  
      4776       4777       4788       4787       4897       4898       4909       4908  
      4777       4778       4789       4788       4898       4899       4910       4909  
      4778       4779       4790       4789       4899       4900       4911       4910  
      4779       4780       4791       4790       4900       4901       4912       4911  
      4780       4781       4792       4791       4901       4902       4913       4912  
      4781       4782       4793       4792       4902       4903       4914       4913  
      4782       4783       4794       4793       4903       4904       4915       4914  
      4783       4784       4795       4794       4904       4905       4916       4915  
      4784       4785       4796       4795       4905       4906       4917       4916  
      4786       4787       4798       4797       4907       4908       4919       4918  
      4787       4788       4799       4798       4908       4909       4920       4919  
      4788       4789       4800       4799       4909       4910       4921       4920  
      4789       4790       4801       4800       4910       4911       4922       4921  
      4790       4791       4802       4801       4911       4912       4923       4922  
      4791       4792       4803       4802       4912       4913       4924       4923  
      4792       4793       4804       4803       4913       4914       4925       4924  
      4793       4794       4805       4804       4914       4915       4926       4925  
      4794       4795       4806       4805       4915       4916       4927       4926  
      4795       4796       4807       4806       4916       4917       4928       4927  
      4797       4798       4809       4808       4918       4919       4930       4929  
      4798       4799       4810       4809       4919       4920       4931       4930  
      4799       4800       4811       4810       4920       4921       4932       4931  
      4800       4801       4812       4811       4921       4922       4933       4932  
      4801       4802       4813       4812       4922       4923       4934       4933  
      4802       4803       4814       4813       4923       4924       4935       4934  
      4803       4804       4815       4814       4924       4925       4936       4935  
      4804       4805       4816       4815       4925       4926       4937       4936  
      4805       4806       4817       4816       4926       4927       4938       4937  
      4806       4807       4818       4817       4927       4928       4939       4938  
      4808       4809       4820       4819       4929       4930       4941       4940  
      4809       4810       4821       4820       4930       4931       4942       4941  
      4810       4811       4822       4821       4931       4932       4943       4942  
      4811       4812       4823       4822       4932       4933       4944       4943  
      4812       4813       4824       4823       4933       4934       4945       4944  
      4813       4814       4825       4824       4934       4935       4946       4945  
      4814       4815       4826       4825       4935       4936       4947       4946  
      4815       4816       4827       4826       4936       4937       4948       4947  
      4816       4817       4828       4827       4937       4938       4949       4948  
      4817       4818       4829       4828       4938       4939       4950       4949  
      4819       4820       4831       4830       4940       4941       4952       4951  
      4820       4821       4832       4831       4941       4942       4953       4952  
      4821       4822       4833       4832       4942       4943       4954       4953  
      4822       4823       4834       4833       4943       4944       4955       4954  
      4823       4824       4835       4834       4944       4945       4956       4955  
      4824       4825       4836       4835       4945       4946       4957       4956  
      4825       4826       4837       4836       4946       4947       4958       4957  
      4826       4827       4838       4837       4947       4948       4959       4958  
      4827       4828       4839       4838       4948       4949       4960       4959  
      4828       4829       4840       4839       4949       4950       4961       4960  
      4841       4842       4853       4852       4962       4963       4974       4973  
      4842       4843       4854       4853       4963       4964       4975       4974  
      4843       4844       4855       4854       4964       4965       4976       4975  
      4844       4845       4856       4855       4965       4966       4977       4976  
      4845       4846       4857       4856       4966       4967       4978       4977  
      4846       4847       4858       4857       4967       4968       4979       4978  
      4847       4848       4859       4858       4968       4969       4980       4979  
      4848       4849       4860       4859       4969       4970       4981       4980  
      4849       4850       4861       4860       4970       4971       4982       4981  
      4850       4851       4862       4861       4971       4972       4983       4982  
      4852       4853       4864       4863       4973       4974       4985       4984  
      4853       4854       4865       4864       4974       4975       4986       4985  
      4854       4855       4866       4865       4975       4976       4987       4986  
      4855       4856       4867       4866       4976       4977       4988       4987  
      4856       4857       4868       4867       4977       4978       4989       4988  
      4857       4858       4869       4868       4978       4979       4990       4989  
      4858       4859       4870       4869       4979       4980       4991       4990  
      4859       4860       4871       4870       4980       4981       4992       4991  
      4860       4861       4872       4871       4981       4982       4993       4992  
      4861       4862       4873       4872       4982       4983       4994       4993  
      4863       4864       4875       4874       4984       4985       4996       4995  
      4864       4865       4876       4875       4985       4986       4997       4996  
      4865       4866       4877       4876       4986       4987       4998       4997  
      4866       4867       4878       4877       4987       4988       4999       4998  
      4867       4868       4879       4878       4988       4989       5000       4999  
      4868       4869       4880       4879       4989       4990       5001       5000  
      4869       4870       4881       4880       4990       4991       5002       5001  
      4870       4871       4882       4881       4991       4992       5003       5002  
      4871       4872       4883       4882       4992       4993       5004       5003  
      4872       4873       4884       4883       4993       4994       5005       5004  
      4874       4875       4886       4885       4995       4996       5007       5006  
      4875       4876       4887       4886       4996       4997       5008       5007  
      4876       4877       4888       4887       4997       4998       5009       5008  
      4877       4878       4889       4888       4998       4999       5010       5009  
      4878       4879       4890       4889       4999       5000       5011       5010  
      4879       4880       4891       4890       5000       5001       5012       5011  
      4880       4881       4892       4891       5001       5002       5013       5012  
      4881       4882       4893       4892       5002       5003       5014       5013  
      4882       4883       4894       4893       5003       5004       5015       5014  
      4883       4884       4895       4894       5004       5005       5016       5015  
      4885       4886       4897       4896       5006       5007       5018       5017  
      4886       4887       4898       4897       5007       5008       5019       5018  
      4887       4888       4899       4898       5008       5009       5020       5019  
      4888       4889       4900       4899       5009       5010       5021       5020  
      4889       4890       4901       4900       5010       5011       5022       5021  
      4890       4891       4902       4901       5011       5012       5023       5022  
      4891       4892       4903       4902       5012       5013       5024       5023  
      4892       4893       4904       4903       5013       5014       5025       5024  
      4893       4894       4905       4904       5014       5015       5026       5025  
      4894       4895       4906       4905       5015       5016       5027       5026  
      4896       4897       4908       4907       5017       5018       5029       5028  
      4897       4898       4909       4908       5018       5019       5030       5029  
      4898       4899       4910       4909       5019       5020       5031       5030  
      4899       4900       4911       4910       5020       5021       5032       5031  
      4900       4901       4912       4911       5021       5022       5033       5032  
      4901       4902       4913       4912       5022       5023       5034       5033  
      4902       4903       4914       4913       5023       5024       5035       5034  
      4903       4904       4915       4914       5024       5025       5036       5035  
      4904       4905       4916       4915       5025       5026       5037       5036  
      4905       4906       4917       4916       5026       5027       5038       5037  
      4907       4908       4919       4918       5028       5029       5040       5039  
      4908       4909       4920       4919       5029       5030       5041       5040  
      4909       4910       4921       4920       5030       5031       5042       5041  
      4910       4911       4922       4921       5031       5032       5043       5042  
      4911       4912       4923       4922       5032       5033       5044       5043  
      4912       4913       4924       4923       5033       5034       5045       5044  
      4913       4914       4925       4924       5034       5035       5046       5045  
      4914       4915       4926       4925       5035       5036       5047       5046  
      4915       4916       4927       4926       5036       5037       5048       5047  
      4916       4917       4928       4927       5037       5038       5049       5048  
      4918       4919       4930       4929       5039       5040       5051       5050  
      4919       4920       4931       4930       5040       5041       5052       5051  
      4920       4921       4932       4931       5041       5042       5053       5052  
      4921       4922       4933       4932       5042       5043       5054       5053  
      4922       4923       4934       4933       5043       5044       5055       5054  
      4923       4924       4935       4934       5044       5045       5056       5055  
      4924       4925       4936       4935       5045       5046       5057       5056  
      4925       4926       4937       4936       5046       5047       5058       5057  
      4926       4927       4938       4937       5047       5048       5059       5058  
      4927       4928       4939       4938       5048       5049       5060       5059  
      4929       4930       4941       4940       5050       5051       5062       5061  
      4930       4931       4942       4941       5051       5052       5063       5062  
      4931       4932       4943       4942       5052       5053       5064       5063  
      4932       4933       4944       4943       5053       5054       5065       5064  
      4933       4934       4945       4944       5054       5055       5066       5065  
      4934       4935       4946       4945       5055       5056       5067       5066  
      4935       4936       4947       4946       5056       5057       5068       5067  
      4936       4937       4948       4947       5057       5058       5069       5068  
      4937       4938       4949       4948       5058       5059       5070       5069  
      4938       4939       4950       4949       5059       5060       5071       5070  
      4940       4941       4952       4951       5061       5062       5073       5072  
      4941       4942       4953       4952       5062       5063       5074       5073  
      4942       4943       4954       4953       5063       5064       5075       5074  
      4943       4944       4955       4954       5064       5065       5076       5075  
      4944       4945       4956       4955       5065       5066       5077       5076  
      4945       4946       4957       4956       5066       5067       5078       5077  
      4946       4947       4958       4957       5067       5068       5079       5078  
      4947       4948       4959       4958       5068       5069       5080       5079  
      4948       4949       4960       4959       5069       5070       5081       5080  
      4949       4950       4961       4960       5070       5071       5082       5081  
      4962       4963       4974       4973       5083       5084       5095       5094  
      4963       4964       4975       4974       5084       5085       5096       5095  
      4964       4965       4976       4975       5085       5086       5097       5096  
      4965       4966       4977       4976       5086       5087       5098       5097  
      4966       4967       4978       4977       5087       5088       5099       5098  
      4967       4968       4979       4978       5088       5089       5100       5099  
      4968       4969       4980       4979       5089       5090       5101       5100  
      4969       4970       4981       4980       5090       5091       5102       5101  
      4970       4971       4982       4981       5091       5092       5103       5102  
      4971       4972       4983       4982       5092       5093       5104       5103  
      4973       4974       4985       4984       5094       5095       5106       5105  
      4974       4975       4986       4985       5095       5096       5107       5106  
      4975       4976       4987       4986       5096       5097       5108       5107  
      4976       4977       4988       4987       5097       5098       5109       5108  
      4977       4978       4989       4988       5098       5099       5110       5109  
      4978       4979       4990       4989       5099       5100       5111       5110  
      4979       4980       4991       4990       5100       5101       5112       5111  
      4980       4981       4992       4991       5101       5102       5113       5112  
      4981       4982       4993       4992       5102       5103       5114       5113  
      4982       4983       4994       4993       5103       5104       5115       5114  
      4984       4985       4996       4995       5105       5106       5117       5116  
      4985       4986       4997       4996       5106       5107       5118       5117  
      4986       4987       4998       4997       5107       5108       5119       5118  
      4987       4988       4999       4998       5108       5109       5120       5119  
      4988       4989       5000       4999       5109       5110       5121       5120  
      4989       4990       5001       5000       5110       5111       5122       5121  
      4990       4991       5002       5001       5111       5112       5123       5122  
      4991       4992       5003       5002       5112       5113       5124       5123  
      4992       4993       5004       5003       5113       5114       5125       5124  
      4993       4994       5005       5004       5114       5115       5126       5125  
      4995       4996       5007       5006       5116       5117       5128       5127  
      4996       4997       5008       5007       5117       5118       5129       5128  
      4997       4998       5009       5008       5118       5119       5130       5129  
      4998       4999       5010       5009       5119       5120       5131       5130  
      4999       5000       5011       5010       5120       5121       5132       5131  
      5000       5001       5012       5011       5121       5122       5133       5132  
      5001       5002       5013       5012       5122       5123       5134       5133  
      5002       5003       5014       5013       5123       5124       5135       5134  
      5003       5004       5015       5014       5124       5125       5136       5135  
      5004       5005       5016       5015       5125       5126       5137       5136  
      5006       5007       5018       5017       5127       5128       5139       5138  
      5007       5008       5019       5018       5128       5129       5140       5139  
      5008       5009       5020       5019       5129       5130       5141       5140  
      5009       5010       5021       5020       5130       5131       5142       5141  
      5010       5011       5022       5021       5131       5132       5143       5142  
      5011       5012       5023       5022       5132       5133       5144       5143  
      5012       5013       5024       5023       5133       5134       5145       5144  
      5013       5014       5025       5024       5134       5135       5146       5145  
      5014       5015       5026       5025       5135       5136       5147       5146  
      5015       5016       5027       5026       5136       5137       5148       5147  
      5017       5018       5029       5028       5138       5139       5150       5149  
      5018       5019       5030       5029       5139       5140       5151       5150  
      5019       5020       5031       5030       5140       5141       5152       5151  
      5020       5021       5032       5031       5141       5142       5153       5152  
      5021       5022       5033       5032       5142       5143       5154       5153  
      5022       5023       5034       5033       5143       5144       5155       5154  
      5023       5024       5035       5034       5144       5145       5156       5155  
      5024       5025       5036       5035       5145       5146       5157       5156  
      5025       5026       5037       5036       5146       5147       5158       5157  
      5026       5027       5038       5037       5147       5148       5159       5158  
      5028       5029       5040       5039       5149       5150       5161       5160  
      5029       5030       5041       5040       5150       5151       5162       5161  
      5030       5031       5042       5041       5151       5152       5163       5162  
      5031       5032       5043       5042       5152       5153       5164       5163  
      5032       5033       5044       5043       5153       5154       5165       5164  
      5033       5034       5045       5044       5154       5155       5166       5165  
      5034       5035       5046       5045       5155       5156       5167       5166  
      5035       5036       5047       5046       5156       5157       5168       5167  
      5036       5037       5048       5047       5157       5158       5169       5168  
      5037       5038       5049       5048       5158       5159       5170       5169  
      5039       5040       5051       5050       5160       5161       5172       5171  
      5040       5041       5052       5051       5161       5162       5173       5172  
      5041       5042       5053       5052       5162       5163       5174       5173  
      5042       5043       5054       5053       5163       5164       5175       5174  
      5043       5044       5055       5054       5164       5165       5176       5175  
      5044       5045       5056       5055       5165       5166       5177       5176  
      5045       5046       5057       5056       5166       5167       5178       5177  
      5046       5047       5058       5057       5167       5168       5179       5178  
      5047       5048       5059       5058       5168       5169       5180       5179  
      5048       5049       5060       5059       5169       5170       5181       5180  
      5050       5051       5062       5061       5171       5172       5183       5182  
      5051       5052       5063       5062       5172       5173       5184       5183  
      5052       5053       5064       5063       5173       5174       5185       5184  
      5053       5054       5065       5064       5174       5175       5186       5185  
      5054       5055       5066       5065       5175       5176       5187       5186  
      5055       5056       5067       5066       5176       5177       5188       5187  
      5056       5057       5068       5067       5177       5178       5189       5188  
      5057       5058       5069       5068       5178       5179       5190       5189  
      5058       5059       5070       5069       5179       5180       5191       5190  
      5059       5060       5071       5070       5180       5181       5192       5191  
      5061       5062       5073       5072       5182       5183       5194       5193  
      5062       5063       5074       5073       5183       5184       5195       5194  
      5063       5064       5075       5074       5184       5185       5196       5195  
      5064       5065       5076       5075       5185       5186       5197       5196  
      5065       5066       5077       5076       5186       5187       5198       5197  
      5066       5067       5078       5077       5187       5188       5199       5198  
      5067       5068       5079       5078       5188       5189       5200       5199  
      5068       5069       5080       5079       5189       5190       5201       5200  
      5069       5070       5081       5080       5190       5191       5202       5201  
      5070       5071       5082       5081       5191       5192       5203       5202  
      5083       5084       5095       5094       5204       5205       5216       5215  
      5084       5085       5096       5095       5205       5206       5217       5216  
      5085       5086       5097       5096       5206       5207       5218       5217  
      5086       5087       5098       5097       5207       5208       5219       5218  
      5087       5088       5099       5098       5208       5209       5220       5219  
      5088       5089       5100       5099       5209       5210       5221       5220  
      5089       5090       5101       5100       5210       5211       5222       5221  
      5090       5091       5102       5101       5211       5212       5223       5222  
      5091       5092       5103       5102       5212       5213       5224       5223  
      5092       5093       5104       5103       5213       5214       5225       5224  
      5094       5095       5106       5105       5215       5216       5227       5226  
      5095       5096       5107       5106       5216       5217       5228       5227  
      5096       5097       5108       5107       5217       5218       5229       5228  
      5097       5098       5109       5108       5218       5219       5230       5229  
      5098       5099       5110       5109       5219       5220       5231       5230  
      5099       5100       5111       5110       5220       5221       5232       5231  
      5100       5101       5112       5111       5221       5222       5233       5232  
      5101       5102       5113       5112       5222       5223       5234       5233  
      5102       5103       5114       5113       5223       5224       5235       5234  
      5103       5104       5115       5114       5224       5225       5236       5235  
      5105       5106       5117       5116       5226       5227       5238       5237  
      5106       5107       5118       5117       5227       5228       5239       5238  
      5107       5108       5119       5118       5228       5229       5240       5239  
      5108       5109       5120       5119       5229       5230       5241       5240  
      5109       5110       5121       5120       5230       5231       5242       5241  
      5110       5111       5122       5121       5231       5232       5243       5242  
      5111       5112       5123       5122       5232       5233       5244       5243  
      5112       5113       5124       5123       5233       5234       5245       5244  
      5113       5114       5125       5124       5234       5235       5246       5245  
      5114       5115       5126       5125       5235       5236       5247       5246  
      5116       5117       5128       5127       5237       5238       5249       5248  
      5117       5118       5129       5128       5238       5239       5250       5249  
      5118       5119       5130       5129       5239       5240       5251       5250  
      5119       5120       5131       5130       5240       5241       5252       5251  
      5120       5121       5132       5131       5241       5242       5253       5252  
      5121       5122       5133       5132       5242       5243       5254       5253  
      5122       5123       5134       5133       5243       5244       5255       5254  
      5123       5124       5135       5134       5244       5245       5256       5255  
      5124       5125       5136       5135       5245       5246       5257       5256  
      5125       5126       5137       5136       5246       5247       5258       5257  
      5127       5128       5139       5138       5248       5249       5260       5259  
      5128       5129       5140       5139       5249       5250       5261       5260  
      5129       5130       5141       5140       5250       5251       5262       5261  
      5130       5131       5142       5141       5251       5252       5263       5262  
      5131       5132       5143       5142       5252       5253       5264       5263  
      5132       5133       5144       5143       5253       5254       5265       5264  
      5133       5134       5145       5144       5254       5255       5266       5265  
      5134       5135       5146       5145       5255       5256       5267       5266  
      5135       5136       5147       5146       5256       5257       5268       5267  
      5136       5137       5148       5147       5257       5258       5269       5268  
      5138       5139       5150       5149       5259       5260       5271       5270  
      5139       5140       5151       5150       5260       5261       5272       5271  
      5140       5141       5152       5151       5261       5262       5273       5272  
      5141       5142       5153       5152       5262       5263       5274       5273  
      5142       5143       5154       5153       5263       5264       5275       5274  
      5143       5144       5155       5154       5264       5265       5276       5275  
      5144       5145       5156       5155       5265       5266       5277       5276  
      5145       5146       5157       5156       5266       5267       5278       5277  
      5146       5147       5158       5157       5267       5268       5279       5278  
      5147       5148       5159       5158       5268       5269       5280       5279  
      5149       5150       5161       5160       5270       5271       5282       5281  
      5150       5151       5162       5161       5271       5272       5283       5282  
      5151       5152       5163       5162       5272       5273       5284       5283  
      5152       5153       5164       5163       5273       5274       5285       5284  
      5153       5154       5165       5164       5274       5275       5286       5285  
      5154       5155       5166       5165       5275       5276       5287       5286  
      5155       5156       5167       5166       5276       5277       5288       5287  
      5156       5157       5168       5167       5277       5278       5289       5288  
      5157       5158       5169       5168       5278       5279       5290       5289  
      5158       5159       5170       5169       5279       5280       5291       5290  
      5160       5161       5172       5171       5281       5282       5293       5292  
      5161       5162       5173       5172       5282       5283       5294       5293  
      5162       5163       5174       5173       5283       5284       5295       5294  
      5163       5164       5175       5174       5284       5285       5296       5295  
      5164       5165       5176       5175       5285       5286       5297       5296  
      5165       5166       5177       5176       5286       5287       5298       5297  
      5166       5167       5178       5177       5287       5288       5299       5298  
      5167       5168       5179       5178       5288       5289       5300       5299  
      5168       5169       5180       5179       5289       5290       5301       5300  
      5169       5170       5181       5180       5290       5291       5302       5301  
      5171       5172       5183       5182       5292       5293       5304       5303  
      5172       5173       5184       5183       5293       5294       5305       5304  
      5173       5174       5185       5184       5294       5295       5306       5305  
      5174       5175       5186       5185       5295       5296       5307       5306  
      5175       5176       5187       5186       5296       5297       5308       5307  
      5176       5177       5188       5187       5297       5298       5309       5308  
      5177       5178       5189       5188       5298       5299       5310       5309  
      5178       5179       5190       5189       5299       5300       5311       5310  
      5179       5180       5191       5190       5300       5301       5312       5311  
      5180       5181       5192       5191       5301       5302       5313       5312  
      5182       5183       5194       5193       5303       5304       5315       5314  
      5183       5184       5195       5194       5304       5305       5316       5315  
      5184       5185       5196       5195       5305       5306       5317       5316  
      5185       5186       5197       5196       5306       5307       5318       5317  
      5186       5187       5198       5197       5307       5308       5319       5318  
      5187       5188       5199       5198       5308       5309       5320       5319  
      5188       5189       5200       5199       5309       5310       5321       5320  
      5189       5190       5201       5200       5310       5311       5322       5321  
      5190       5191       5202       5201       5311       5312       5323       5322  
      5191       5192       5203       5202       5312       5313       5324       5323  
      5204       5205       5216       5215       5325       5326       5337       5336  
      5205       5206       5217       5216       5326       5327       5338       5337  
      5206       5207       5218       5217       5327       5328       5339       5338  
      5207       5208       5219       5218       5328       5329       5340       5339  
      5208       5209       5220       5219       5329       5330       5341       5340  
      5209       5210       5221       5220       5330       5331       5342       5341  
      5210       5211       5222       5221       5331       5332       5343       5342  
      5211       5212       5223       5222       5332       5333       5344       5343  
      5212       5213       5224       5223       5333       5334       5345       5344  
      5213       5214       5225       5224       5334       5335       5346       5345  
      5215       5216       5227       5226       5336       5337       5348       5347  
      5216       5217       5228       5227       5337       5338       5349       5348  
      5217       5218       5229       5228       5338       5339       5350       5349  
      5218       5219       5230       5229       5339       5340       5351       5350  
      5219       5220       5231       5230       5340       5341       5352       5351  
      5220       5221       5232       5231       5341       5342       5353       5352  
      5221       5222       5233       5232       5342       5343       5354       5353  
      5222       5223       5234       5233       5343       5344       5355       5354  
      5223       5224       5235       5234       5344       5345       5356       5355  
      5224       5225       5236       5235       5345       5346       5357       5356  
      5226       5227       5238       5237       5347       5348       5359       5358  
      5227       5228       5239       5238       5348       5349       5360       5359  
      5228       5229       5240       5239       5349       5350       5361       5360  
      5229       5230       5241       5240       5350       5351       5362       5361  
      5230       5231       5242       5241       5351       5352       5363       5362  
      5231       5232       5243       5242       5352       5353       5364       5363  
      5232       5233       5244       5243       5353       5354       5365       5364  
      5233       5234       5245       5244       5354       5355       5366       5365  
      5234       5235       5246       5245       5355       5356       5367       5366  
      5235       5236       5247       5246       5356       5357       5368       5367  
      5237       5238       5249       5248       5358       5359       5370       5369  
      5238       5239       5250       5249       5359       5360       5371       5370  
      5239       5240       5251       5250       5360       5361       5372       5371  
      5240       5241       5252       5251       5361       5362       5373       5372  
      5241       5242       5253       5252       5362       5363       5374       5373  
      5242       5243       5254       5253       5363       5364       5375       5374  
      5243       5244       5255       5254       5364       5365       5376       5375  
      5244       5245       5256       5255       5365       5366       5377       5376  
      5245       5246       5257       5256       5366       5367       5378       5377  
      5246       5247       5258       5257       5367       5368       5379       5378  
      5248       5249       5260       5259       5369       5370       5381       5380  
      5249       5250       5261       5260       5370       5371       5382       5381  
      5250       5251       5262       5261       5371       5372       5383       5382  
      5251       5252       5263       5262       5372       5373       5384       5383  
      5252       5253       5264       5263       5373       5374       5385       5384  
      5253       5254       5265       5264       5374       5375       5386       5385  
      5254       5255       5266       5265       5375       5376       5387       5386  
      5255       5256       5267       5266       5376       5377       5388       5387  
      5256       5257       5268       5267       5377       5378       5389       5388  
      5257       5258       5269       5268       5378       5379       5390       5389  
      5259       5260       5271       5270       5380       5381       5392       5391  
      5260       5261       5272       5271       5381       5382       5393       5392  
      5261       5262       5273       5272       5382       5383       5394       5393  
      5262       5263       5274       5273       5383       5384       5395       5394  
      5263       5264       5275       5274       5384       5385       5396       5395  
      5264       5265       5276       5275       5385       5386       5397       5396  
      5265       5266       5277       5276       5386       5387       5398       5397  
      5266       5267       5278       5277       5387       5388       5399       5398  
      5267       5268       5279       5278       5388       5389       5400       5399  
      5268       5269       5280       5279       5389       5390       5401       5400  
      5270       5271       5282       5281       5391       5392       5403       5402  
      5271       5272       5283       5282       5392       5393       5404       5403  
      5272       5273       5284       5283       5393       5394       5405       5404  
      5273       5274       5285       5284       5394       5395       5406       5405  
      5274       5275       5286       5285       5395       5396       5407       5406  
      5275       5276       5287       5286       5396       5397       5408       5407  
      5276       5277       5288       5287       5397       5398       5409       5408  
      5277       5278       5289       5288       5398       5399       5410       5409  
      5278       5279       5290       5289       5399       5400       5411       5410  
      5279       5280       5291       5290       5400       5401       5412       5411  
      5281       5282       5293       5292       5402       5403       5414       5413  
      5282       5283       5294       5293       5403       5404       5415       5414  
      5283       5284       5295       5294       5404       5405       5416       5415  
      5284       5285       5296       5295       5405       5406       5417       5416  
      5285       5286       5297       5296       5406       5407       5418       5417  
      5286       5287       5298       5297       5407       5408       5419       5418  
      5287       5288       5299       5298       5408       5409       5420       5419  
      5288       5289       5300       5299       5409       5410       5421       5420  
      5289       5290       5301       5300       5410       5411       5422       5421  
      5290       5291       5302       5301       5411       5412       5423       5422  
      5292       5293       5304       5303       5413       5414       5425       5424  
      5293       5294       5305       5304       5414       5415       5426       5425  
      5294       5295       5306       5305       5415       5416       5427       5426  
      5295       5296       5307       5306       5416       5417       5428       5427  
      5296       5297       5308       5307       5417       5418       5429       5428  
      5297       5298       5309       5308       5418       5419       5430       5429  
      5298       5299       5310       5309       5419       5420       5431       5430  
      5299       5300       5311       5310       5420       5421       5432       5431  
      5300       5301       5312       5311       5421       5422       5433       5432  
      5301       5302       5313       5312       5422       5423       5434       5433  
      5303       5304       5315       5314       5424       5425       5436       5435  
      5304       5305       5316       5315       5425       5426       5437       5436  
      5305       5306       5317       5316       5426       5427       5438       5437  
      5306       5307       5318       5317       5427       5428       5439       5438  
      5307       5308       5319       5318       5428       5429       5440       5439  
      5308       5309       5320       5319       5429       5430       5441       5440  
      5309       5310       5321       5320       5430       5431       5442       5441  
      5310       5311       5322       5321       5431       5432       5443       5442  
      5311       5312       5323       5322       5432       5433       5444       5443  
      5312       5313       5324       5323       5433       5434       5445       5444  
      5325       5326       5337       5336       5446       5447       5458       5457  
      5326       5327       5338       5337       5447       5448       5459       5458  
      5327       5328       5339       5338       5448       5449       5460       5459  
      5328       5329       5340       5339       5449       5450       5461       5460  
      5329       5330       5341       5340       5450       5451       5462       5461  
      5330       5331       5342       5341       5451       5452       5463       5462  
      5331       5332       5343       5342       5452       5453       5464       5463  
      5332       5333       5344       5343       5453       5454       5465       5464  
      5333       5334       5345       5344       5454       5455       5466       5465  
      5334       5335       5346       5345       5455       5456       5467       5466  
      5336       5337       5348       5347       5457       5458       5469       5468  
      5337       5338       5349       5348       5458       5459       5470       5469  
      5338       5339       5350       5349       5459       5460       5471       5470  
      5339       5340       5351       5350       5460       5461       5472       5471  
      5340       5341       5352       5351       5461       5462       5473       5472  
      5341       5342       5353       5352       5462       5463       5474       5473  
      5342       5343       5354       5353       5463       5464       5475       5474  
      5343       5344       5355       5354       5464       5465       5476       5475  
      5344       5345       5356       5355       5465       5466       5477       5476  
      5345       5346       5357       5356       5466       5467       5478       5477  
      5347       5348       5359       5358       5468       5469       5480       5479  
      5348       5349       5360       5359       5469       5470       5481       5480  
      5349       5350       5361       5360       5470       5471       5482       5481  
      5350       5351       5362       5361       5471       5472       5483       5482  
      5351       5352       5363       5362       5472       5473       5484       5483  
      5352       5353       5364       5363       5473       5474       5485       5484  
      5353       5354       5365       5364       5474       5475       5486       5485  
      5354       5355       5366       5365       5475       5476       5487       5486  
      5355       5356       5367       5366       5476       5477       5488       5487  
      5356       5357       5368       5367       5477       5478       5489       5488  
      5358       5359       5370       5369       5479       5480       5491       5490  
      5359       5360       5371       5370       5480       5481       5492       5491  
      5360       5361       5372       5371       5481       5482       5493       5492  
      5361       5362       5373       5372       5482       5483       5494       5493  
      5362       5363       5374       5373       5483       5484       5495       5494  
      5363       5364       5375       5374       5484       5485       5496       5495  
      5364       5365       5376       5375       5485       5486       5497       5496  
      5365       5366       5377       5376       5486       5487       5498       5497  
      5366       5367       5378       5377       5487       5488       5499       5498  
      5367       5368       5379       5378       5488       5489       5500       5499  
      5369       5370       5381       5380       5490       5491       5502       5501  
      5370       5371       5382       5381       5491       5492       5503       5502  
      5371       5372       5383       5382       5492       5493       5504       5503  
      5372       5373       5384       5383       5493       5494       5505       5504  
      5373       5374       5385       5384       5494       5495       5506       5505  
      5374       5375       5386       5385       5495       5496       5507       5506  
      5375       5376       5387       5386       5496       5497       5508       5507  
      5376       5377       5388       5387       5497       5498       5509       5508  
      5377       5378       5389       5388       5498       5499       5510       5509  
      5378       5379       5390       5389       5499       5500       5511       5510  
      5380       5381       5392       5391       5501       5502       5513       5512  
      5381       5382       5393       5392       5502       5503       5514       5513  
      5382       5383       5394       5393       5503       5504       5515       5514  
      5383       5384       5395       5394       5504       5505       5516       5515  
      5384       5385       5396       5395       5505       5506       5517       5516  
      5385       5386       5397       5396       5506       5507       5518       5517  
      5386       5387       5398       5397       5507       5508       5519       5518  
      5387       5388       5399       5398       5508       5509       5520       5519  
      5388       5389       5400       5399       5509       5510       5521       5520  
      5389       5390       5401       5400       5510       5511       5522       5521  
      5391       5392       5403       5402       5512       5513       5524       5523  
      5392       5393       5404       5403       5513       5514       5525       5524  
      5393       5394       5405       5404       5514       5515       5526       5525  
      5394       5395       5406       5405       5515       5516       5527       5526  
      5395       5396       5407       5406       5516       5517       5528       5527  
      5396       5397       5408       5407       5517       5518       5529       5528  
      5397       5398       5409       5408       5518       5519       5530       5529  
      5398       5399       5410       5409       5519       5520       5531       5530  
      5399       5400       5411       5410       5520       5521       5532       5531  
      5400       5401       5412       5411       5521       5522       5533       5532  
      5402       5403       5414       5413       5523       5524       5535       5534  
      5403       5404       5415       5414       5524       5525       5536       5535  
      5404       5405       5416       5415       5525       5526       5537       5536  
      5405       5406       5417       5416       5526       5527       5538       5537  
      5406       5407       5418       5417       5527       5528       5539       5538  
      5407       5408       5419       5418       5528       5529       5540       5539  
      5408       5409       5420       5419       5529       5530       5541       5540  
      5409       5410       5421       5420       5530       5531       5542       5541  
      5410       5411       5422       5421       5531       5532       5543       5542  
      5411       5412       5423       5422       5532       5533       5544       5543  
      5413       5414       5425       5424       5534       5535       5546       5545  
      5414       5415       5426       5425       5535       5536       5547       5546  
      5415       5416       5427       5426       5536       5537       5548       5547  
      5416       5417       5428       5427       5537       5538       5549       5548  
      5417       5418       5429       5428       5538       5539       5550       5549  
      5418       5419       5430       5429       5539       5540       5551       5550  
      5419       5420       5431       5430       5540       5541       5552       5551  
      5420       5421       5432       5431       5541       5542       5553       5552  
      5421       5422       5433       5432       5542       5543       5554       5553  
      5422       5423       5434       5433       5543       5544       5555       5554  
      5424       5425       5436       5435       5545       5546       5557       5556  
      5425       5426       5437       5436       5546       5547       5558       5557  
      5426       5427       5438       5437       5547       5548       5559       5558  
      5427       5428       5439       5438       5548       5549       5560       5559  
      5428       5429       5440       5439       5549       5550       5561       5560  
      5429       5430       5441       5440       5550       5551       5562       5561  
      5430       5431       5442       5441       5551       5552       5563       5562  
      5431       5432       5443       5442       5552       5553       5564       5563  
      5432       5433       5444       5443       5553       5554       5565       5564  
      5433       5434       5445       5444       5554       5555       5566       5565  
      5446       5447       5458       5457       5567       5568       5579       5578  
      5447       5448       5459       5458       5568       5569       5580       5579  
      5448       5449       5460       5459       5569       5570       5581       5580  
      5449       5450       5461       5460       5570       5571       5582       5581  
      5450       5451       5462       5461       5571       5572       5583       5582  
      5451       5452       5463       5462       5572       5573       5584       5583  
      5452       5453       5464       5463       5573       5574       5585       5584  
      5453       5454       5465       5464       5574       5575       5586       5585  
      5454       5455       5466       5465       5575       5576       5587       5586  
      5455       5456       5467       5466       5576       5577       5588       5587  
      5457       5458       5469       5468       5578       5579       5590       5589  
      5458       5459       5470       5469       5579       5580       5591       5590  
      5459       5460       5471       5470       5580       5581       5592       5591  
      5460       5461       5472       5471       5581       5582       5593       5592  
      5461       5462       5473       5472       5582       5583       5594       5593  
      5462       5463       5474       5473       5583       5584       5595       5594  
      5463       5464       5475       5474       5584       5585       5596       5595  
      5464       5465       5476       5475       5585       5586       5597       5596  
      5465       5466       5477       5476       5586       5587       5598       5597  
      5466       5467       5478       5477       5587       5588       5599       5598  
      5468       5469       5480       5479       5589       5590       5601       5600  
      5469       5470       5481       5480       5590       5591       5602       5601  
      5470       5471       5482       5481       5591       5592       5603       5602  
      5471       5472       5483       5482       5592       5593       5604       5603  
      5472       5473       5484       5483       5593       5594       5605       5604  
      5473       5474       5485       5484       5594       5595       5606       5605  
      5474       5475       5486       5485       5595       5596       5607       5606  
      5475       5476       5487       5486       5596       5597       5608       5607  
      5476       5477       5488       5487       5597       5598       5609       5608  
      5477       5478       5489       5488       5598       5599       5610       5609  
      5479       5480       5491       5490       5600       5601       5612       5611  
      5480       5481       5492       5491       5601       5602       5613       5612  
      5481       5482       5493       5492       5602       5603       5614       5613  
      5482       5483       5494       5493       5603       5604       5615       5614  
      5483       5484       5495       5494       5604       5605       5616       5615  
      5484       5485       5496       5495       5605       5606       5617       5616  
      5485       5486       5497       5496       5606       5607       5618       5617  
      5486       5487       5498       5497       5607       5608       5619       5618  
      5487       5488       5499       5498       5608       5609       5620       5619  
      5488       5489       5500       5499       5609       5610       5621       5620  
      5490       5491       5502       5501       5611       5612       5623       5622  
      5491       5492       5503       5502       5612       5613       5624       5623  
      5492       5493       5504       5503       5613       5614       5625       5624  
      5493       5494       5505       5504       5614       5615       5626       5625  
      5494       5495       5506       5505       5615       5616       5627       5626  
      5495       5496       5507       5506       5616       5617       5628       5627  
      5496       5497       5508       5507       5617       5618       5629       5628  
      5497       5498       5509       5508       5618       5619       5630       5629  
      5498       5499       5510       5509       5619       5620       5631       5630  
      5499       5500       5511       5510       5620       5621       5632       5631  
      5501       5502       5513       5512       5622       5623       5634       5633  
      5502       5503       5514       5513       5623       5624       5635       5634  
      5503       5504       5515       5514       5624       5625       5636       5635  
      5504       5505       5516       5515       5625       5626       5637       5636  
      5505       5506       5517       5516       5626       5627       5638       5637  
      5506       5507       5518       5517       5627       5628       5639       5638  
      5507       5508       5519       5518       5628       5629       5640       5639  
      5508       5509       5520       5519       5629       5630       5641       5640  
      5509       5510       5521       5520       5630       5631       5642       5641  
      5510       5511       5522       5521       5631       5632       5643       5642  
      5512       5513       5524       5523       5633       5634       5645       5644  
      5513       5514       5525       5524       5634       5635       5646       5645  
      5514       5515       5526       5525       5635       5636       5647       5646  
      5515       5516       5527       5526       5636       5637       5648       5647  
      5516       5517       5528       5527       5637       5638       5649       5648  
      5517       5518       5529       5528       5638       5639       5650       5649  
      5518       5519       5530       5529       5639       5640       5651       5650  
      5519       5520       5531       5530       5640       5641       5652       5651  
      5520       5521       5532       5531       5641       5642       5653       5652  
      5521       5522       5533       5532       5642       5643       5654       5653  
      5523       5524       5535       5534       5644       5645       5656       5655  
      5524       5525       5536       5535       5645       5646       5657       5656  
      5525       5526       5537       5536       5646       5647       5658       5657  
      5526       5527       5538       5537       5647       5648       5659       5658  
      5527       5528       5539       5538       5648       5649       5660       5659  
      5528       5529       5540       5539       5649       5650       5661       5660  
      5529       5530       5541       5540       5650       5651       5662       5661  
      5530       5531       5542       5541       5651       5652       5663       5662  
      5531       5532       5543       5542       5652       5653       5664       5663  
      5532       5533       5544       5543       5653       5654       5665       5664  
      5534       5535       5546       5545       5655       5656       5667       5666  
      5535       5536       5547       5546       5656       5657       5668       5667  
      5536       5537       5548       5547       5657       5658       5669       5668  
      5537       5538       5549       5548       5658       5659       5670       5669  
      5538       5539       5550       5549       5659       5660       5671       5670  
      5539       5540       5551       5550       5660       5661       5672       5671  
      5540       5541       5552       5551       5661       5662       5673       5672  
      5541       5542       5553       5552       5662       5663       5674       5673  
      5542       5543       5554       5553       5663       5664       5675       5674  
      5543       5544       5555       5554       5664       5665       5676       5675  
      5545       5546       5557       5556       5666       5667       5678       5677  
      5546       5547       5558       5557       5667       5668       5679       5678  
      5547       5548       5559       5558       5668       5669       5680       5679  
      5548       5549       5560       5559       5669       5670       5681       5680  
      5549       5550       5561       5560       5670       5671       5682       5681  
      5550       5551       5562       5561       5671       5672       5683       5682  
      5551       5552       5563       5562       5672       5673       5684       5683  
      5552       5553       5564       5563       5673       5674       5685       5684  
      5553       5554       5565       5564       5674       5675       5686       5685  
      5554       5555       5566       5565       5675       5676       5687       5686  
      5567       5568       5579       5578       5688       5689       5700       5699  
      5568       5569       5580       5579       5689       5690       5701       5700  
      5569       5570       5581       5580       5690       5691       5702       5701  
      5570       5571       5582       5581       5691       5692       5703       5702  
      5571       5572       5583       5582       5692       5693       5704       5703  
      5572       5573       5584       5583       5693       5694       5705       5704  
      5573       5574       5585       5584       5694       5695       5706       5705  
      5574       5575       5586       5585       5695       5696       5707       5706  
      5575       5576       5587       5586       5696       5697       5708       5707  
      5576       5577       5588       5587       5697       5698       5709       5708  
      5578       5579       5590       5589       5699       5700       5711       5710  
      5579       5580       5591       5590       5700       5701       5712       5711  
      5580       5581       5592       5591       5701       5702       5713       5712  
      5581       5582       5593       5592       5702       5703       5714       5713  
      5582       5583       5594       5593       5703       5704       5715       5714  
      5583       5584       5595       5594       5704       5705       5716       5715  
      5584       5585       5596       5595       5705       5706       5717       5716  
      5585       5586       5597       5596       5706       5707       5718       5717  
      5586       5587       5598       5597       5707       5708       5719       5718  
      5587       5588       5599       5598       5708       5709       5720       5719  
      5589       5590       5601       5600       5710       5711       5722       5721  
      5590       5591       5602       5601       5711       5712       5723       5722  
      5591       5592       5603       5602       5712       5713       5724       5723  
      5592       5593       5604       5603       5713       5714       5725       5724  
      5593       5594       5605       5604       5714       5715       5726       5725  
      5594       5595       5606       5605       5715       5716       5727       5726  
      5595       5596       5607       5606       5716       5717       5728       5727  
      5596       5597       5608       5607       5717       5718       5729       5728  
      5597       5598       5609       5608       5718       5719       5730       5729  
      5598       5599       5610       5609       5719       5720       5731       5730  
      5600       5601       5612       5611       5721       5722       5733       5732  
      5601       5602       5613       5612       5722       5723       5734       5733  
      5602       5603       5614       5613       5723       5724       5735       5734  
      5603       5604       5615       5614       5724       5725       5736       5735  
      5604       5605       5616       5615       5725       5726       5737       5736  
      5605       5606       5617       5616       5726       5727       5738       5737  
      5606       5607       5618       5617       5727       5728       5739       5738  
      5607       5608       5619       5618       5728       5729       5740       5739  
      5608       5609       5620       5619       5729       5730       5741       5740  
      5609       5610       5621       5620       5730       5731       5742       5741  
      5611       5612       5623       5622       5732       5733       5744       5743  
      5612       5613       5624       5623       5733       5734       5745       5744  
      5613       5614       5625       5624       5734       5735       5746       5745  
      5614       5615       5626       5625       5735       5736       5747       5746  
      5615       5616       5627       5626       5736       5737       5748       5747  
      5616       5617       5628       5627       5737       5738       5749       5748  
      5617       5618       5629       5628       5738       5739       5750       5749  
      5618       5619       5630       5629       5739       5740       5751       5750  
      5619       5620       5631       5630       5740       5741       5752       5751  
      5620       5621       5632       5631       5741       5742       5753       5752  
      5622       5623       5634       5633       5743       5744       5755       5754  
      5623       5624       5635       5634       5744       5745       5756       5755  
      5624       5625       5636       5635       5745       5746       5757       5756  
      5625       5626       5637       5636       5746       5747       5758       5757  
      5626       5627       5638       5637       5747       5748       5759       5758  
      5627       5628       5639       5638       5748       5749       5760       5759  
      5628       5629       5640       5639       5749       5750       5761       5760  
      5629       5630       5641       5640       5750       5751       5762       5761  
      5630       5631       5642       5641       5751       5752       5763       5762  
      5631       5632       5643       5642       5752       5753       5764       5763  
      5633       5634       5645       5644       5754       5755       5766       5765  
      5634       5635       5646       5645       5755       5756       5767       5766  
      5635       5636       5647       5646       5756       5757       5768       5767  
      5636       5637       5648       5647       5757       5758       5769       5768  
      5637       5638       5649       5648       5758       5759       5770       5769  
      5638       5639       5650       5649       5759       5760       5771       5770  
      5639       5640       5651       5650       5760       5761       5772       5771  
      5640       5641       5652       5651       5761       5762       5773       5772  
      5641       5642       5653       5652       5762       5763       5774       5773  
      5642       5643       5654       5653       5763       5764       5775       5774  
      5644       5645       5656       5655       5765       5766       5777       5776  
      5645       5646       5657       5656       5766       5767       5778       5777  
      5646       5647       5658       5657       5767       5768       5779       5778  
      5647       5648       5659       5658       5768       5769       5780       5779  
      5648       5649       5660       5659       5769       5770       5781       5780  
      5649       5650       5661       5660       5770       5771       5782       5781  
      5650       5651       5662       5661       5771       5772       5783       5782  
      5651       5652       5663       5662       5772       5773       5784       5783  
      5652       5653       5664       5663       5773       5774       5785       5784  
      5653       5654       5665       5664       5774       5775       5786       5785  
      5655       5656       5667       5666       5776       5777       5788       5787  
      5656       5657       5668       5667       5777       5778       5789       5788  
      5657       5658       5669       5668       5778       5779       5790       5789  
      5658       5659       5670       5669       5779       5780       5791       5790  
      5659       5660       5671       5670       5780       5781       5792       5791  
      5660       5661       5672       5671       5781       5782       5793       5792  
      5661       5662       5673       5672       5782       5783       5794       5793  
      5662       5663       5674       5673       5783       5784       5795       5794  
      5663       5664       5675       5674       5784       5785       5796       5795  
      5664       5665       5676       5675       5785       5786       5797       5796  
      5666       5667       5678       5677       5787       5788       5799       5798  
      5667       5668       5679       5678       5788       5789       5800       5799  
      5668       5669       5680       5679       5789       5790       5801       5800  
      5669       5670       5681       5680       5790       5791       5802       5801  
      5670       5671       5682       5681       5791       5792       5803       5802  
      5671       5672       5683       5682       5792       5793       5804       5803  
      5672       5673       5684       5683       5793       5794       5805       5804  
      5673       5674       5685       5684       5794       5795       5806       5805  
      5674       5675       5686       5685       5795       5796       5807       5806  
      5675       5676       5687       5686       5796       5797       5808       5807  
      5688       5689       5700       5699       5809       5810       5821       5820  
      5689       5690       5701       5700       5810       5811       5822       5821  
      5690       5691       5702       5701       5811       5812       5823       5822  
      5691       5692       5703       5702       5812       5813       5824       5823  
      5692       5693       5704       5703       5813       5814       5825       5824  
      5693       5694       5705       5704       5814       5815       5826       5825  
      5694       5695       5706       5705       5815       5816       5827       5826  
      5695       5696       5707       5706       5816       5817       5828       5827  
      5696       5697       5708       5707       5817       5818       5829       5828  
      5697       5698       5709       5708       5818       5819       5830       5829  
      5699       5700       5711       5710       5820       5821       5832       5831  
      5700       5701       5712       5711       5821       5822       5833       5832  
      5701       5702       5713       5712       5822       5823       5834       5833  
      5702       5703       5714       5713       5823       5824       5835       5834  
      5703       5704       5715       5714       5824       5825       5836       5835  
      5704       5705       5716       5715       5825       5826       5837       5836  
      5705       5706       5717       5716       5826       5827       5838       5837  
      5706       5707       5718       5717       5827       5828       5839       5838  
      5707       5708       5719       5718       5828       5829       5840       5839  
      5708       5709       5720       5719       5829       5830       5841       5840  
      5710       5711       5722       5721       5831       5832       5843       5842  
      5711       5712       5723       5722       5832       5833       5844       5843  
      5712       5713       5724       5723       5833       5834       5845       5844  
      5713       5714       5725       5724       5834       5835       5846       5845  
      5714       5715       5726       5725       5835       5836       5847       5846  
      5715       5716       5727       5726       5836       5837       5848       5847  
      5716       5717       5728       5727       5837       5838       5849       5848  
      5717       5718       5729       5728       5838       5839       5850       5849  
      5718       5719       5730       5729       5839       5840       5851       5850  
      5719       5720       5731       5730       5840       5841       5852       5851  
      5721       5722       5733       5732       5842       5843       5854       5853  
      5722       5723       5734       5733       5843       5844       5855       5854  
      5723       5724       5735       5734       5844       5845       5856       5855  
      5724       5725       5736       5735       5845       5846       5857       5856  
      5725       5726       5737       5736       5846       5847       5858       5857  
      5726       5727       5738       5737       5847       5848       5859       5858  
      5727       5728       5739       5738       5848       5849       5860       5859  
      5728       5729       5740       5739       5849       5850       5861       5860  
      5729       5730       5741       5740       5850       5851       5862       5861  
      5730       5731       5742       5741       5851       5852       5863       5862  
      5732       5733       5744       5743       5853       5854       5865       5864  
      5733       5734       5745       5744       5854       5855       5866       5865  
      5734       5735       5746       5745       5855       5856       5867       5866  
      5735       5736       5747       5746       5856       5857       5868       5867  
      5736       5737       5748       5747       5857       5858       5869       5868  
      5737       5738       5749       5748       5858       5859       5870       5869  
      5738       5739       5750       5749       5859       5860       5871       5870  
      5739       5740       5751       5750       5860       5861       5872       5871  
      5740       5741       5752       5751       5861       5862       5873       5872  
      5741       5742       5753       5752       5862       5863       5874       5873  
      5743       5744       5755       5754       5864       5865       5876       5875  
      5744       5745       5756       5755       5865       5866       5877       5876  
      5745       5746       5757       5756       5866       5867       5878       5877  
      5746       5747       5758       5757       5867       5868       5879       5878  
      5747       5748       5759       5758       5868       5869       5880       5879  
      5748       5749       5760       5759       5869       5870       5881       5880  
      5749       5750       5761       5760       5870       5871       5882       5881  
      5750       5751       5762       5761       5871       5872       5883       5882  
      5751       5752       5763       5762       5872       5873       5884       5883  
      5752       5753       5764       5763       5873       5874       5885       5884  
      5754       5755       5766       5765       5875       5876       5887       5886  
      5755       5756       5767       5766       5876       5877       5888       5887  
      5756       5757       5768       5767       5877       5878       5889       5888  
      5757       5758       5769       5768       5878       5879       5890       5889  
      5758       5759       5770       5769       5879       5880       5891       5890  
      5759       5760       5771       5770       5880       5881       5892       5891  
      5760       5761       5772       5771       5881       5882       5893       5892  
      5761       5762       5773       5772       5882       5883       5894       5893  
      5762       5763       5774       5773       5883       5884       5895       5894  
      5763       5764       5775       5774       5884       5885       5896       5895  
      5765       5766       5777       5776       5886       5887       5898       5897  
      5766       5767       5778       5777       5887       5888       5899       5898  
      5767       5768       5779       5778       5888       5889       5900       5899  
      5768       5769       5780       5779       5889       5890       5901       5900  
      5769       5770       5781       5780       5890       5891       5902       5901  
      5770       5771       5782       5781       5891       5892       5903       5902  
      5771       5772       5783       5782       5892       5893       5904       5903  
      5772       5773       5784       5783       5893       5894       5905       5904  
      5773       5774       5785       5784       5894       5895       5906       5905  
      5774       5775       5786       5785       5895       5896       5907       5906  
      5776       5777       5788       5787       5897       5898       5909       5908  
      5777       5778       5789       5788       5898       5899       5910       5909  
      5778       5779       5790       5789       5899       5900       5911       5910  
      5779       5780       5791       5790       5900       5901       5912       5911  
      5780       5781       5792       5791       5901       5902       5913       5912  
      5781       5782       5793       5792       5902       5903       5914       5913  
      5782       5783       5794       5793       5903       5904       5915       5914  
      5783       5784       5795       5794       5904       5905       5916       5915  
      5784       5785       5796       5795       5905       5906       5917       5916  
      5785       5786       5797       5796       5906       5907       5918       5917  
      5787       5788       5799       5798       5908       5909       5920       5919  
      5788       5789       5800       5799       5909       5910       5921       5920  
      5789       5790       5801       5800       5910       5911       5922       5921  
      5790       5791       5802       5801       5911       5912       5923       5922  
      5791       5792       5803       5802       5912       5913       5924       5923  
      5792       5793       5804       5803       5913       5914       5925       5924  
      5793       5794       5805       5804       5914       5915       5926       5925  
      5794       5795       5806       5805       5915       5916       5927       5926  
      5795       5796       5807       5806       5916       5917       5928       5927  
      5796       5797       5808       5807       5917       5918       5929       5928  
      5809       5810       5821       5820       5930       5931       5942       5941  
      5810       5811       5822       5821       5931       5932       5943       5942  
      5811       5812       5823       5822       5932       5933       5944       5943  
      5812       5813       5824       5823       5933       5934       5945       5944  
      5813       5814       5825       5824       5934       5935       5946       5945  
      5814       5815       5826       5825       5935       5936       5947       5946  
      5815       5816       5827       5826       5936       5937       5948       5947  
      5816       5817       5828       5827       5937       5938       5949       5948  
      5817       5818       5829       5828       5938       5939       5950       5949  
      5818       5819       5830       5829       5939       5940       5951       5950  
      5820       5821       5832       5831       5941       5942       5953       5952  
      5821       5822       5833       5832       5942       5943       5954       5953  
      5822       5823       5834       5833       5943       5944       5955       5954  
      5823       5824       5835       5834       5944       5945       5956       5955  
      5824       5825       5836       5835       5945       5946       5957       5956  
      5825       5826       5837       5836       5946       5947       5958       5957  
      5826       5827       5838       5837       5947       5948       5959       5958  
      5827       5828       5839       5838       5948       5949       5960       5959  
      5828       5829       5840       5839       5949       5950       5961       5960  
      5829       5830       5841       5840       5950       5951       5962       5961  
      5831       5832       5843       5842       5952       5953       5964       5963  
      5832       5833       5844       5843       5953       5954       5965       5964  
      5833       5834       5845       5844       5954       5955       5966       5965  
      5834       5835       5846       5845       5955       5956       5967       5966  
      5835       5836       5847       5846       5956       5957       5968       5967  
      5836       5837       5848       5847       5957       5958       5969       5968  
      5837       5838       5849       5848       5958       5959       5970       5969  
      5838       5839       5850       5849       5959       5960       5971       5970  
      5839       5840       5851       5850       5960       5961       5972       5971  
      5840       5841       5852       5851       5961       5962       5973       5972  
      5842       5843       5854       5853       5963       5964       5975       5974  
      5843       5844       5855       5854       5964       5965       5976       5975  
      5844       5845       5856       5855       5965       5966       5977       5976  
      5845       5846       5857       5856       5966       5967       5978       5977  
      5846       5847       5858       5857       5967       5968       5979       5978  
      5847       5848       5859       5858       5968       5969       5980       5979  
      5848       5849       5860       5859       5969       5970       5981       5980  
      5849       5850       5861       5860       5970       5971       5982       5981  
      5850       5851       5862       5861       5971       5972       5983       5982  
      5851       5852       5863       5862       5972       5973       5984       5983  
      5853       5854       5865       5864       5974       5975       5986       5985  
      5854       5855       5866       5865       5975       5976       5987       5986  
      5855       5856       5867       5866       5976       5977       5988       5987  
      5856       5857       5868       5867       5977       5978       5989       5988  
      5857       5858       5869       5868       5978       5979       5990       5989  
      5858       5859       5870       5869       5979       5980       5991       5990  
      5859       5860       5871       5870       5980       5981       5992       5991  
      5860       5861       5872       5871       5981       5982       5993       5992  
      5861       5862       5873       5872       5982       5983       5994       5993  
      5862       5863       5874       5873       5983       5984       5995       5994  
      5864       5865       5876       5875       5985       5986       5997       5996  
      5865       5866       5877       5876       5986       5987       5998       5997  
      5866       5867       5878       5877       5987       5988       5999       5998  
      5867       5868       5879       5878       5988       5989       6000       5999  
      5868       5869       5880       5879       5989       5990       6001       6000  
      5869       5870       5881       5880       5990       5991       6002       6001  
      5870       5871       5882       5881       5991       5992       6003       6002  
      5871       5872       5883       5882       5992       5993       6004       6003  
      5872       5873       5884       5883       5993       5994       6005       6004  
      5873       5874       5885       5884       5994       5995       6006       6005  
      5875       5876       5887       5886       5996       5997       6008       6007  
      5876       5877       5888       5887       5997       5998       6009       6008  
      5877       5878       5889       5888       5998       5999       6010       6009  
      5878       5879       5890       5889       5999       6000       6011       6010  
      5879       5880       5891       5890       6000       6001       6012       6011  
      5880       5881       5892       5891       6001       6002       6013       6012  
      5881       5882       5893       5892       6002       6003       6014       6013  
      5882       5883       5894       5893       6003       6004       6015       6014  
      5883       5884       5895       5894       6004       6005       6016       6015  
      5884       5885       5896       5895       6005       6006       6017       6016  
      5886       5887       5898       5897       6007       6008       6019       6018  
      5887       5888       5899       5898       6008       6009       6020       6019  
      5888       5889       5900       5899       6009       6010       6021       6020  
      5889       5890       5901       5900       6010       6011       6022       6021  
      5890       5891       5902       5901       6011       6012       6023       6022  
      5891       5892       5903       5902       6012       6013       6024       6023  
      5892       5893       5904       5903       6013       6014       6025       6024  
      5893       5894       5905       5904       6014       6015       6026       6025  
      5894       5895       5906       5905       6015       6016       6027       6026  
      5895       5896       5907       5906       6016       6017       6028       6027  
      5897       5898       5909       5908       6018       6019       6030       6029  
      5898       5899       5910       5909       6019       6020       6031       6030  
      5899       5900       5911       5910       6020       6021       6032       6031  
      5900       5901       5912       5911       6021       6022       6033       6032  
      5901       5902       5913       5912       6022       6023       6034       6033  
      5902       5903       5914       5913       6023       6024       6035       6034  
      5903       5904       5915       5914       6024       6025       6036       6035  
      5904       5905       5916       5915       6025       6026       6037       6036  
      5905       5906       5917       5916       6026       6027       6038       6037  
      5906       5907       5918       5917       6027       6028       6039       6038  
      5908       5909       5920       5919       6029       6030       6041       6040  
      5909       5910       5921       5920       6030       6031       6042       6041  
      5910       5911       5922       5921       6031       6032       6043       6042  
      5911       5912       5923       5922       6032       6033       6044       6043  
      5912       5913       5924       5923       6033       6034       6045       6044  
      5913       5914       5925       5924       6034       6035       6046       6045  
      5914       5915       5926       5925       6035       6036       6047       6046  
      5915       5916       5927       5926       6036       6037       6048       6047  
      5916       5917       5928       5927       6037       6038       6049       6048  
      5917       5918       5929       5928       6038       6039       6050       6049  
      5930       5931       5942       5941       6051       6052       6063       6062  
      5931       5932       5943       5942       6052       6053       6064       6063  
      5932       5933       5944       5943       6053       6054       6065       6064  
      5933       5934       5945       5944       6054       6055       6066       6065  
      5934       5935       5946       5945       6055       6056       6067       6066  
      5935       5936       5947       5946       6056       6057       6068       6067  
      5936       5937       5948       5947       6057       6058       6069       6068  
      5937       5938       5949       5948       6058       6059       6070       6069  
      5938       5939       5950       5949       6059       6060       6071       6070  
      5939       5940       5951       5950       6060       6061       6072       6071  
      5941       5942       5953       5952       6062       6063       6074       6073  
      5942       5943       5954       5953       6063       6064       6075       6074  
      5943       5944       5955       5954       6064       6065       6076       6075  
      5944       5945       5956       5955       6065       6066       6077       6076  
      5945       5946       5957       5956       6066       6067       6078       6077  
      5946       5947       5958       5957       6067       6068       6079       6078  
      5947       5948       5959       5958       6068       6069       6080       6079  
      5948       5949       5960       5959       6069       6070       6081       6080  
      5949       5950       5961       5960       6070       6071       6082       6081  
      5950       5951       5962       5961       6071       6072       6083       6082  
      5952       5953       5964       5963       6073       6074       6085       6084  
      5953       5954       5965       5964       6074       6075       6086       6085  
      5954       5955       5966       5965       6075       6076       6087       6086  
      5955       5956       5967       5966       6076       6077       6088       6087  
      5956       5957       5968       5967       6077       6078       6089       6088  
      5957       5958       5969       5968       6078       6079       6090       6089  
      5958       5959       5970       5969       6079       6080       6091       6090  
      5959       5960       5971       5970       6080       6081       6092       6091  
      5960       5961       5972       5971       6081       6082       6093       6092  
      5961       5962       5973       5972       6082       6083       6094       6093  
      5963       5964       5975       5974       6084       6085       6096       6095  
      5964       5965       5976       5975       6085       6086       6097       6096  
      5965       5966       5977       5976       6086       6087       6098       6097  
      5966       5967       5978       5977       6087       6088       6099       6098  
      5967       5968       5979       5978       6088       6089       6100       6099  
      5968       5969       5980       5979       6089       6090       6101       6100  
      5969       5970       5981       5980       6090       6091       6102       6101  
      5970       5971       5982       5981       6091       6092       6103       6102  
      5971       5972       5983       5982       6092       6093       6104       6103  
      5972       5973       5984       5983       6093       6094       6105       6104  
      5974       5975       5986       5985       6095       6096       6107       6106  
      5975       5976       5987       5986       6096       6097       6108       6107  
      5976       5977       5988       5987       6097       6098       6109       6108  
      5977       5978       5989       5988       6098       6099       6110       6109  
      5978       5979       5990       5989       6099       6100       6111       6110  
      5979       5980       5991       5990       6100       6101       6112       6111  
      5980       5981       5992       5991       6101       6102       6113       6112  
      5981       5982       5993       5992       6102       6103       6114       6113  
      5982       5983       5994       5993       6103       6104       6115       6114  
      5983       5984       5995       5994       6104       6105       6116       6115  
      5985       5986       5997       5996       6106       6107       6118       6117  
      5986       5987       5998       5997       6107       6108       6119       6118  
      5987       5988       5999       5998       6108       6109       6120       6119  
      5988       5989       6000       5999       6109       6110       6121       6120  
      5989       5990       6001       6000       6110       6111       6122       6121  
      5990       5991       6002       6001       6111       6112       6123       6122  
      5991       5992       6003       6002       6112       6113       6124       6123  
      5992       5993       6004       6003       6113       6114       6125       6124  
      5993       5994       6005       6004       6114       6115       6126       6125  
      5994       5995       6006       6005       6115       6116       6127       6126  
      5996       5997       6008       6007       6117       6118       6129       6128  
      5997       5998       6009       6008       6118       6119       6130       6129  
      5998       5999       6010       6009       6119       6120       6131       6130  
      5999       6000       6011       6010       6120       6121       6132       6131  
      6000       6001       6012       6011       6121       6122       6133       6132  
      6001       6002       6013       6012       6122       6123       6134       6133  
      6002       6003       6014       6013       6123       6124       6135       6134  
      6003       6004       6015       6014       6124       6125       6136       6135  
      6004       6005       6016       6015       6125       6126       6137       6136  
      6005       6006       6017       6016       6126       6127       6138       6137  
      6007       6008       6019       6018       6128       6129       6140       6139  
      6008       6009       6020       6019       6129       6130       6141       6140  
      6009       6010       6021       6020       6130       6131       6142       6141  
      6010       6011       6022       6021       6131       6132       6143       6142  
      6011       6012       6023       6022       6132       6133       6144       6143  
      6012       6013       6024       6023       6133       6134       6145       6144  
      6013       6014       6025       6024       6134       6135       6146       6145  
      6014       6015       6026       6025       6135       6136       6147       6146  
      6015       6016       6027       6026       6136       6137       6148       6147  
      6016       6017       6028       6027       6137       6138       6149       6148  
      6018       6019       6030       6029       6139       6140       6151       6150  
      6019       6020       6031       6030       6140       6141       6152       6151  
      6020       6021       6032       6031       6141       6142       6153       6152  
      6021       6022       6033       6032       6142       6143       6154       6153  
      6022       6023       6034       6033       6143       6144       6155       6154  
      6023       6024       6035       6034       6144       6145       6156       6155  
      6024       6025       6036       6035       6145       6146       6157       6156  
      6025       6026       6037       6036       6146       6147       6158       6157  
      6026       6027       6038       6037       6147       6148       6159       6158  
      6027       6028       6039       6038       6148       6149       6160       6159  
      6029       6030       6041       6040       6150       6151       6162       6161  
      6030       6031       6042       6041       6151       6152       6163       6162  
      6031       6032       6043       6042       6152       6153       6164       6163  
      6032       6033       6044       6043       6153       6154       6165       6164  
      6033       6034       6045       6044       6154       6155       6166       6165  
      6034       6035       6046       6045       6155       6156       6167       6166  
      6035       6036       6047       6046       6156       6157       6168       6167  
      6036       6037       6048       6047       6157       6158       6169       6168  
      6037       6038       6049       6048       6158       6159       6170       6169  
      6038       6039       6050       6049       6159       6160       6171       6170  
      6051       6052       6063       6062       6172       6173       6184       6183  
      6052       6053       6064       6063       6173       6174       6185       6184  
      6053       6054       6065       6064       6174       6175       6186       6185  
      6054       6055       6066       6065       6175       6176       6187       6186  
      6055       6056       6067       6066       6176       6177       6188       6187  
      6056       6057       6068       6067       6177       6178       6189       6188  
      6057       6058       6069       6068       6178       6179       6190       6189  
      6058       6059       6070       6069       6179       6180       6191       6190  
      6059       6060       6071       6070       6180       6181       6192       6191  
      6060       6061       6072       6071       6181       6182       6193       6192  
      6062       6063       6074       6073       6183       6184       6195       6194  
      6063       6064       6075       6074       6184       6185       6196       6195  
      6064       6065       6076       6075       6185       6186       6197       6196  
      6065       6066       6077       6076       6186       6187       6198       6197  
      6066       6067       6078       6077       6187       6188       6199       6198  
      6067       6068       6079       6078       6188       6189       6200       6199  
      6068       6069       6080       6079       6189       6190       6201       6200  
      6069       6070       6081       6080       6190       6191       6202       6201  
      6070       6071       6082       6081       6191       6192       6203       6202  
      6071       6072       6083       6082       6192       6193       6204       6203  
      6073       6074       6085       6084       6194       6195       6206       6205  
      6074       6075       6086       6085       6195       6196       6207       6206  
      6075       6076       6087       6086       6196       6197       6208       6207  
      6076       6077       6088       6087       6197       6198       6209       6208  
      6077       6078       6089       6088       6198       6199       6210       6209  
      6078       6079       6090       6089       6199       6200       6211       6210  
      6079       6080       6091       6090       6200       6201       6212       6211  
      6080       6081       6092       6091       6201       6202       6213       6212  
      6081       6082       6093       6092       6202       6203       6214       6213  
      6082       6083       6094       6093       6203       6204       6215       6214  
      6084       6085       6096       6095       6205       6206       6217       6216  
      6085       6086       6097       6096       6206       6207       6218       6217  
      6086       6087       6098       6097       6207       6208       6219       6218  
      6087       6088       6099       6098       6208       6209       6220       6219  
      6088       6089       6100       6099       6209       6210       6221       6220  
      6089       6090       6101       6100       6210       6211       6222       6221  
      6090       6091       6102       6101       6211       6212       6223       6222  
      6091       6092       6103       6102       6212       6213       6224       6223  
      6092       6093       6104       6103       6213       6214       6225       6224  
      6093       6094       6105       6104       6214       6215       6226       6225  
      6095       6096       6107       6106       6216       6217       6228       6227  
      6096       6097       6108       6107       6217       6218       6229       6228  
      6097       6098       6109       6108       6218       6219       6230       6229  
      6098       6099       6110       6109       6219       6220       6231       6230  
      6099       6100       6111       6110       6220       6221       6232       6231  
      6100       6101       6112       6111       6221       6222       6233       6232  
      6101       6102       6113       6112       6222       6223       6234       6233  
      6102       6103       6114       6113       6223       6224       6235       6234  
      6103       6104       6115       6114       6224       6225       6236       6235  
      6104       6105       6116       6115       6225       6226       6237       6236  
      6106       6107       6118       6117       6227       6228       6239       6238  
      6107       6108       6119       6118       6228       6229       6240       6239  
      6108       6109       6120       6119       6229       6230       6241       6240  
      6109       6110       6121       6120       6230       6231       6242       6241  
      6110       6111       6122       6121       6231       6232       6243       6242  
      6111       6112       6123       6122       6232       6233       6244       6243  
      6112       6113       6124       6123       6233       6234       6245       6244  
      6113       6114       6125       6124       6234       6235       6246       6245  
      6114       6115       6126       6125       6235       6236       6247       6246  
      6115       6116       6127       6126       6236       6237       6248       6247  
      6117       6118       6129       6128       6238       6239       6250       6249  
      6118       6119       6130       6129       6239       6240       6251       6250  
      6119       6120       6131       6130       6240       6241       6252       6251  
      6120       6121       6132       6131       6241       6242       6253       6252  
      6121       6122       6133       6132       6242       6243       6254       6253  
      6122       6123       6134       6133       6243       6244       6255       6254  
      6123       6124       6135       6134       6244       6245       6256       6255  
      6124       6125       6136       6135       6245       6246       6257       6256  
      6125       6126       6137       6136       6246       6247       6258       6257  
      6126       6127       6138       6137       6247       6248       6259       6258  
      6128       6129       6140       6139       6249       6250       6261       6260  
      6129       6130       6141       6140       6250       6251       6262       6261  
      6130       6131       6142       6141       6251       6252       6263       6262  
      6131       6132       6143       6142       6252       6253       6264       6263  
      6132       6133       6144       6143       6253       6254       6265       6264  
      6133       6134       6145       6144       6254       6255       6266       6265  
      6134       6135       6146       6145       6255       6256       6267       6266  
      6135       6136       6147       6146       6256       6257       6268       6267  
      6136       6137       6148       6147       6257       6258       6269       6268  
      6137       6138       6149       6148       6258       6259       6270       6269  
      6139       6140       6151       6150       6260       6261       6272       6271  
      6140       6141       6152       6151       6261       6262       6273       6272  
      6141       6142       6153       6152       6262       6263       6274       6273  
      6142       6143       6154       6153       6263       6264       6275       6274  
      6143       6144       6155       6154       6264       6265       6276       6275  
      6144       6145       6156       6155       6265       6266       6277       6276  
      6145       6146       6157       6156       6266       6267       6278       6277  
      6146       6147       6158       6157       6267       6268       6279       6278  
      6147       6148       6159       6158       6268       6269       6280       6279  
      6148       6149       6160       6159       6269       6270       6281       6280  
      6150       6151       6162       6161       6271       6272       6283       6282  
      6151       6152       6163       6162       6272       6273       6284       6283  
      6152       6153       6164       6163       6273       6274       6285       6284  
      6153       6154       6165       6164       6274       6275       6286       6285  
      6154       6155       6166       6165       6275       6276       6287       6286  
      6155       6156       6167       6166       6276       6277       6288       6287  
      6156       6157       6168       6167       6277       6278       6289       6288  
      6157       6158       6169       6168       6278       6279       6290       6289  
      6158       6159       6170       6169       6279       6280       6291       6290  
      6159       6160       6171       6170       6280       6281       6292       6291  
      6172       6173       6184       6183       6293       6294       6305       6304  
      6173       6174       6185       6184       6294       6295       6306       6305  
      6174       6175       6186       6185       6295       6296       6307       6306  
      6175       6176       6187       6186       6296       6297       6308       6307  
      6176       6177       6188       6187       6297       6298       6309       6308  
      6177       6178       6189       6188       6298       6299       6310       6309  
      6178       6179       6190       6189       6299       6300       6311       6310  
      6179       6180       6191       6190       6300       6301       6312       6311  
      6180       6181       6192       6191       6301       6302       6313       6312  
      6181       6182       6193       6192       6302       6303       6314       6313  
      6183       6184       6195       6194       6304       6305       6316       6315  
      6184       6185       6196       6195       6305       6306       6317       6316  
      6185       6186       6197       6196       6306       6307       6318       6317  
      6186       6187       6198       6197       6307       6308       6319       6318  
      6187       6188       6199       6198       6308       6309       6320       6319  
      6188       6189       6200       6199       6309       6310       6321       6320  
      6189       6190       6201       6200       6310       6311       6322       6321  
      6190       6191       6202       6201       6311       6312       6323       6322  
      6191       6192       6203       6202       6312       6313       6324       6323  
      6192       6193       6204       6203       6313       6314       6325       6324  
      6194       6195       6206       6205       6315       6316       6327       6326  
      6195       6196       6207       6206       6316       6317       6328       6327  
      6196       6197       6208       6207       6317       6318       6329       6328  
      6197       6198       6209       6208       6318       6319       6330       6329  
      6198       6199       6210       6209       6319       6320       6331       6330  
      6199       6200       6211       6210       6320       6321       6332       6331  
      6200       6201       6212       6211       6321       6322       6333       6332  
      6201       6202       6213       6212       6322       6323       6334       6333  
      6202       6203       6214       6213       6323       6324       6335       6334  
      6203       6204       6215       6214       6324       6325       6336       6335  
      6205       6206       6217       6216       6326       6327       6338       6337  
      6206       6207       6218       6217       6327       6328       6339       6338  
      6207       6208       6219       6218       6328       6329       6340       6339  
      6208       6209       6220       6219       6329       6330       6341       6340  
      6209       6210       6221       6220       6330       6331       6342       6341  
      6210       6211       6222       6221       6331       6332       6343       6342  
      6211       6212       6223       6222       6332       6333       6344       6343  
      6212       6213       6224       6223       6333       6334       6345       6344  
      6213       6214       6225       6224       6334       6335       6346       6345  
      6214       6215       6226       6225       6335       6336       6347       6346  
      6216       6217       6228       6227       6337       6338       6349       6348  
      6217       6218       6229       6228       6338       6339       6350       6349  
      6218       6219       6230       6229       6339       6340       6351       6350  
      6219       6220       6231       6230       6340       6341       6352       6351  
      6220       6221       6232       6231       6341       6342       6353       6352  
      6221       6222       6233       6232       6342       6343       6354       6353  
      6222       6223       6234       6233       6343       6344       6355       6354  
      6223       6224       6235       6234       6344       6345       6356       6355  
      6224       6225       6236       6235       6345       6346       6357       6356  
      6225       6226       6237       6236       6346       6347       6358       6357  
      6227       6228       6239       6238       6348       6349       6360       6359  
      6228       6229       6240       6239       6349       6350       6361       6360  
      6229       6230       6241       6240       6350       6351       6362       6361  
      6230       6231       6242       6241       6351       6352       6363       6362  
      6231       6232       6243       6242       6352       6353       6364       6363  
      6232       6233       6244       6243       6353       6354       6365       6364  
      6233       6234       6245       6244       6354       6355       6366       6365  
      6234       6235       6246       6245       6355       6356       6367       6366  
      6235       6236       6247       6246       6356       6357       6368       6367  
      6236       6237       6248       6247       6357       6358       6369       6368  
      6238       6239       6250       6249       6359       6360       6371       6370  
      6239       6240       6251       6250       6360       6361       6372       6371  
      6240       6241       6252       6251       6361       6362       6373       6372  
      6241       6242       6253       6252       6362       6363       6374       6373  
      6242       6243       6254       6253       6363       6364       6375       6374  
      6243       6244       6255       6254       6364       6365       6376       6375  
      6244       6245       6256       6255       6365       6366       6377       6376  
      6245       6246       6257       6256       6366       6367       6378       6377  
      6246       6247       6258       6257       6367       6368       6379       6378  
      6247       6248       6259       6258       6368       6369       6380       6379  
      6249       6250       6261       6260       6370       6371       6382       6381  
      6250       6251       6262       6261       6371       6372       6383       6382  
      6251       6252       6263       6262       6372       6373       6384       6383  
      6252       6253       6264       6263       6373       6374       6385       6384  
      6253       6254       6265       6264       6374       6375       6386       6385  
      6254       6255       6266       6265       6375       6376       6387       6386  
      6255       6256       6267       6266       6376       6377       6388       6387  
      6256       6257       6268       6267       6377       6378       6389       6388  
      6257       6258       6269       6268       6378       6379       6390       6389  
      6258       6259       6270       6269       6379       6380       6391       6390  
      6260       6261       6272       6271       6381       6382       6393       6392  
      6261       6262       6273       6272       6382       6383       6394       6393  
      6262       6263       6274       6273       6383       6384       6395       6394  
      6263       6264       6275       6274       6384       6385       6396       6395  
      6264       6265       6276       6275       6385       6386       6397       6396  
      6265       6266       6277       6276       6386       6387       6398       6397  
      6266       6267       6278       6277       6387       6388       6399       6398  
      6267       6268       6279       6278       6388       6389       6400       6399  
      6268       6269       6280       6279       6389       6390       6401       6400  
      6269       6270       6281       6280       6390       6391       6402       6401  
      6271       6272       6283       6282       6392       6393       6404       6403  
      6272       6273       6284       6283       6393       6394       6405       6404  
      6273       6274       6285       6284       6394       6395       6406       6405  
      6274       6275       6286       6285       6395       6396       6407       6406  
      6275       6276       6287       6286       6396       6397       6408       6407  
      6276       6277       6288       6287       6397       6398       6409       6408  
      6277       6278       6289       6288       6398       6399       6410       6409  
      6278       6279       6290       6289       6399       6400       6411       6410  
      6279       6280       6291       6290       6400       6401       6412       6411  
      6280       6281       6292       6291       6401       6402       6413       6412  
      6293       6294       6305       6304       6414       6415       6426       6425  
      6294       6295       6306       6305       6415       6416       6427       6426  
      6295       6296       6307       6306       6416       6417       6428       6427  
      6296       6297       6308       6307       6417       6418       6429       6428  
      6297       6298       6309       6308       6418       6419       6430       6429  
      6298       6299       6310       6309       6419       6420       6431       6430  
      6299       6300       6311       6310       6420       6421       6432       6431  
      6300       6301       6312       6311       6421       6422       6433       6432  
      6301       6302       6313       6312       6422       6423       6434       6433  
      6302       6303       6314       6313       6423       6424       6435       6434  
      6304       6305       6316       6315       6425       6426       6437       6436  
      6305       6306       6317       6316       6426       6427       6438       6437  
      6306       6307       6318       6317       6427       6428       6439       6438  
      6307       6308       6319       6318       6428       6429       6440       6439  
      6308       6309       6320       6319       6429       6430       6441       6440  
      6309       6310       6321       6320       6430       6431       6442       6441  
      6310       6311       6322       6321       6431       6432       6443       6442  
      6311       6312       6323       6322       6432       6433       6444       6443  
      6312       6313       6324       6323       6433       6434       6445       6444  
      6313       6314       6325       6324       6434       6435       6446       6445  
      6315       6316       6327       6326       6436       6437       6448       6447  
      6316       6317       6328       6327       6437       6438       6449       6448  
      6317       6318       6329       6328       6438       6439       6450       6449  
      6318       6319       6330       6329       6439       6440       6451       6450  
      6319       6320       6331       6330       6440       6441       6452       6451  
      6320       6321       6332       6331       6441       6442       6453       6452  
      6321       6322       6333       6332       6442       6443       6454       6453  
      6322       6323       6334       6333       6443       6444       6455       6454  
      6323       6324       6335       6334       6444       6445       6456       6455  
      6324       6325       6336       6335       6445       6446       6457       6456  
      6326       6327       6338       6337       6447       6448       6459       6458  
      6327       6328       6339       6338       6448       6449       6460       6459  
      6328       6329       6340       6339       6449       6450       6461       6460  
      6329       6330       6341       6340       6450       6451       6462       6461  
      6330       6331       6342       6341       6451       6452       6463       6462  
      6331       6332       6343       6342       6452       6453       6464       6463  
      6332       6333       6344       6343       6453       6454       6465       6464  
      6333       6334       6345       6344       6454       6455       6466       6465  
      6334       6335       6346       6345       6455       6456       6467       6466  
      6335       6336       6347       6346       6456       6457       6468       6467  
      6337       6338       6349       6348       6458       6459       6470       6469  
      6338       6339       6350       6349       6459       6460       6471       6470  
      6339       6340       6351       6350       6460       6461       6472       6471  
      6340       6341       6352       6351       6461       6462       6473       6472  
      6341       6342       6353       6352       6462       6463       6474       6473  
      6342       6343       6354       6353       6463       6464       6475       6474  
      6343       6344       6355       6354       6464       6465       6476       6475  
      6344       6345       6356       6355       6465       6466       6477       6476  
      6345       6346       6357       6356       6466       6467       6478       6477  
      6346       6347       6358       6357       6467       6468       6479       6478  
      6348       6349       6360       6359       6469       6470       6481       6480  
      6349       6350       6361       6360       6470       6471       6482       6481  
      6350       6351       6362       6361       6471       6472       6483       6482  
      6351       6352       6363       6362       6472       6473       6484       6483  
      6352       6353       6364       6363       6473       6474       6485       6484  
      6353       6354       6365       6364       6474       6475       6486       6485  
      6354       6355       6366       6365       6475       6476       6487       6486  
      6355       6356       6367       6366       6476       6477       6488       6487  
      6356       6357       6368       6367       6477       6478       6489       6488  
      6357       6358       6369       6368       6478       6479       6490       6489  
      6359       6360       6371       6370       6480       6481       6492       6491  
      6360       6361       6372       6371       6481       6482       6493       6492  
      6361       6362       6373       6372       6482       6483       6494       6493  
      6362       6363       6374       6373       6483       6484       6495       6494  
      6363       6364       6375       6374       6484       6485       6496       6495  
      6364       6365       6376       6375       6485       6486       6497       6496  
      6365       6366       6377       6376       6486       6487       6498       6497  
      6366       6367       6378       6377       6487       6488       6499       6498  
      6367       6368       6379       6378       6488       6489       6500       6499  
      6368       6369       6380       6379       6489       6490       6501       6500  
      6370       6371       6382       6381       6491       6492       6503       6502  
      6371       6372       6383       6382       6492       6493       6504       6503  
      6372       6373       6384       6383       6493       6494       6505       6504  
      6373       6374       6385       6384       6494       6495       6506       6505  
      6374       6375       6386       6385       6495       6496       6507       6506  
      6375       6376       6387       6386       6496       6497       6508       6507  
      6376       6377       6388       6387       6497       6498       6509       6508  
      6377       6378       6389       6388       6498       6499       6510       6509  
      6378       6379       6390       6389       6499       6500       6511       6510  
      6379       6380       6391       6390       6500       6501       6512       6511  
      6381       6382       6393       6392       6502       6503       6514       6513  
      6382       6383       6394       6393       6503       6504       6515       6514  
      6383       6384       6395       6394       6504       6505       6516       6515  
      6384       6385       6396       6395       6505       6506       6517       6516  
      6385       6386       6397       6396       6506       6507       6518       6517  
      6386       6387       6398       6397       6507       6508       6519       6518  
      6387       6388       6399       6398       6508       6509       6520       6519  
      6388       6389       6400       6399       6509       6510       6521       6520  
      6389       6390       6401       6400       6510       6511       6522       6521  
      6390       6391       6402       6401       6511       6512       6523       6522  
      6392       6393       6404       6403       6513       6514       6525       6524  
      6393       6394       6405       6404       6514       6515       6526       6525  
      6394       6395       6406       6405       6515       6516       6527       6526  
      6395       6396       6407       6406       6516       6517       6528       6527  
      6396       6397       6408       6407       6517       6518       6529       6528  
      6397       6398       6409       6408       6518       6519       6530       6529  
      6398       6399       6410       6409       6519       6520       6531       6530  
      6399       6400       6411       6410       6520       6521       6532       6531  
      6400       6401       6412       6411       6521       6522       6533       6532  
      6401       6402       6413       6412       6522       6523       6534       6533  
      6414       6415       6426       6425       6535       6536       6547       6546  
      6415       6416       6427       6426       6536       6537       6548       6547  
      6416       6417       6428       6427       6537       6538       6549       6548  
      6417       6418       6429       6428       6538       6539       6550       6549  
      6418       6419       6430       6429       6539       6540       6551       6550  
      6419       6420       6431       6430       6540       6541       6552       6551  
      6420       6421       6432       6431       6541       6542       6553       6552  
      6421       6422       6433       6432       6542       6543       6554       6553  
      6422       6423       6434       6433       6543       6544       6555       6554  
      6423       6424       6435       6434       6544       6545       6556       6555  
      6425       6426       6437       6436       6546       6547       6558       6557  
      6426       6427       6438       6437       6547       6548       6559       6558  
      6427       6428       6439       6438       6548       6549       6560       6559  
      6428       6429       6440       6439       6549       6550       6561       6560  
      6429       6430       6441       6440       6550       6551       6562       6561  
      6430       6431       6442       6441       6551       6552       6563       6562  
      6431       6432       6443       6442       6552       6553       6564       6563  
      6432       6433       6444       6443       6553       6554       6565       6564  
      6433       6434       6445       6444       6554       6555       6566       6565  
      6434       6435       6446       6445       6555       6556       6567       6566  
      6436       6437       6448       6447       6557       6558       6569       6568  
      6437       6438       6449       6448       6558       6559       6570       6569  
      6438       6439       6450       6449       6559       6560       6571       6570  
      6439       6440       6451       6450       6560       6561       6572       6571  
      6440       6441       6452       6451       6561       6562       6573       6572  
      6441       6442       6453       6452       6562       6563       6574       6573  
      6442       6443       6454       6453       6563       6564       6575       6574  
      6443       6444       6455       6454       6564       6565       6576       6575  
      6444       6445       6456       6455       6565       6566       6577       6576  
      6445       6446       6457       6456       6566       6567       6578       6577  
      6447       6448       6459       6458       6568       6569       6580       6579  
      6448       6449       6460       6459       6569       6570       6581       6580  
      6449       6450       6461       6460       6570       6571       6582       6581  
      6450       6451       6462       6461       6571       6572       6583       6582  
      6451       6452       6463       6462       6572       6573       6584       6583  
      6452       6453       6464       6463       6573       6574       6585       6584  
      6453       6454       6465       6464       6574       6575       6586       6585  
      6454       6455       6466       6465       6575       6576       6587       6586  
      6455       6456       6467       6466       6576       6577       6588       6587  
      6456       6457       6468       6467       6577       6578       6589       6588  
      6458       6459       6470       6469       6579       6580       6591       6590  
      6459       6460       6471       6470       6580       6581       6592       6591  
      6460       6461       6472       6471       6581       6582       6593       6592  
      6461       6462       6473       6472       6582       6583       6594       6593  
      6462       6463       6474       6473       6583       6584       6595       6594  
      6463       6464       6475       6474       6584       6585       6596       6595  
      6464       6465       6476       6475       6585       6586       6597       6596  
      6465       6466       6477       6476       6586       6587       6598       6597  
      6466       6467       6478       6477       6587       6588       6599       6598  
      6467       6468       6479       6478       6588       6589       6600       6599  
      6469       6470       6481       6480       6590       6591       6602       6601  
      6470       6471       6482       6481       6591       6592       6603       6602  
      6471       6472       6483       6482       6592       6593       6604       6603  
      6472       6473       6484       6483       6593       6594       6605       6604  
      6473       6474       6485       6484       6594       6595       6606       6605  
      6474       6475       6486       6485       6595       6596       6607       6606  
      6475       6476       6487       6486       6596       6597       6608       6607  
      6476       6477       6488       6487       6597       6598       6609       6608  
      6477       6478       6489       6488       6598       6599       6610       6609  
      6478       6479       6490       6489       6599       6600       6611       6610  
      6480       6481       6492       6491       6601       6602       6613       6612  
      6481       6482       6493       6492       6602       6603       6614       6613  
      6482       6483       6494       6493       6603       6604       6615       6614  
      6483       6484       6495       6494       6604       6605       6616       6615  
      6484       6485       6496       6495       6605       6606       6617       6616  
      6485       6486       6497       6496       6606       6607       6618       6617  
      6486       6487       6498       6497       6607       6608       6619       6618  
      6487       6488       6499       6498       6608       6609       6620       6619  
      6488       6489       6500       6499       6609       6610       6621       6620  
      6489       6490       6501       6500       6610       6611       6622       6621  
      6491       6492       6503       6502       6612       6613       6624       6623  
      6492       6493       6504       6503       6613       6614       6625       6624  
      6493       6494       6505       6504       6614       6615       6626       6625  
      6494       6495       6506       6505       6615       6616       6627       6626  
      6495       6496       6507       6506       6616       6617       6628       6627  
      6496       6497       6508       6507       6617       6618       6629       6628  
      6497       6498       6509       6508       6618       6619       6630       6629  
      6498       6499       6510       6509       6619       6620       6631       6630  
      6499       6500       6511       6510       6620       6621       6632       6631  
      6500       6501       6512       6511       6621       6622       6633       6632  
      6502       6503       6514       6513       6623       6624       6635       6634  
      6503       6504       6515       6514       6624       6625       6636       6635  
      6504       6505       6516       6515       6625       6626       6637       6636  
      6505       6506       6517       6516       6626       6627       6638       6637  
      6506       6507       6518       6517       6627       6628       6639       6638  
      6507       6508       6519       6518       6628       6629       6640       6639  
      6508       6509       6520       6519       6629       6630       6641       6640  
      6509       6510       6521       6520       6630       6631       6642       6641  
      6510       6511       6522       6521       6631       6632       6643       6642  
      6511       6512       6523       6522       6632       6633       6644       6643  
      6513       6514       6525       6524       6634       6635       6646       6645  
      6514       6515       6526       6525       6635       6636       6647       6646  
      6515       6516       6527       6526       6636       6637       6648       6647  
      6516       6517       6528       6527       6637       6638       6649       6648  
      6517       6518       6529       6528       6638       6639       6650       6649  
      6518       6519       6530       6529       6639       6640       6651       6650  
      6519       6520       6531       6530       6640       6641       6652       6651  
      6520       6521       6532       6531       6641       6642       6653       6652  
      6521       6522       6533       6532       6642       6643       6654       6653  
      6522       6523       6534       6533       6643       6644       6655       6654  
      6535       6536       6547       6546       6656       6657       6668       6667  
      6536       6537       6548       6547       6657       6658       6669       6668  
      6537       6538       6549       6548       6658       6659       6670       6669  
      6538       6539       6550       6549       6659       6660       6671       6670  
      6539       6540       6551       6550       6660       6661       6672       6671  
      6540       6541       6552       6551       6661       6662       6673       6672  
      6541       6542       6553       6552       6662       6663       6674       6673  
      6542       6543       6554       6553       6663       6664       6675       6674  
      6543       6544       6555       6554       6664       6665       6676       6675  
      6544       6545       6556       6555       6665       6666       6677       6676  
      6546       6547       6558       6557       6667       6668       6679       6678  
      6547       6548       6559       6558       6668       6669       6680       6679  
      6548       6549       6560       6559       6669       6670       6681       6680  
      6549       6550       6561       6560       6670       6671       6682       6681  
      6550       6551       6562       6561       6671       6672       6683       6682  
      6551       6552       6563       6562       6672       6673       6684       6683  
      6552       6553       6564       6563       6673       6674       6685       6684  
      6553       6554       6565       6564       6674       6675       6686       6685  
      6554       6555       6566       6565       6675       6676       6687       6686  
      6555       6556       6567       6566       6676       6677       6688       6687  
      6557       6558       6569       6568       6678       6679       6690       6689  
      6558       6559       6570       6569       6679       6680       6691       6690  
      6559       6560       6571       6570       6680       6681       6692       6691  
      6560       6561       6572       6571       6681       6682       6693       6692  
      6561       6562       6573       6572       6682       6683       6694       6693  
      6562       6563       6574       6573       6683       6684       6695       6694  
      6563       6564       6575       6574       6684       6685       6696       6695  
      6564       6565       6576       6575       6685       6686       6697       6696  
      6565       6566       6577       6576       6686       6687       6698       6697  
      6566       6567       6578       6577       6687       6688       6699       6698  
      6568       6569       6580       6579       6689       6690       6701       6700  
      6569       6570       6581       6580       6690       6691       6702       6701  
      6570       6571       6582       6581       6691       6692       6703       6702  
      6571       6572       6583       6582       6692       6693       6704       6703  
      6572       6573       6584       6583       6693       6694       6705       6704  
      6573       6574       6585       6584       6694       6695       6706       6705  
      6574       6575       6586       6585       6695       6696       6707       6706  
      6575       6576       6587       6586       6696       6697       6708       6707  
      6576       6577       6588       6587       6697       6698       6709       6708  
      6577       6578       6589       6588       6698       6699       6710       6709  
      6579       6580       6591       6590       6700       6701       6712       6711  
      6580       6581       6592       6591       6701       6702       6713       6712  
      6581       6582       6593       6592       6702       6703       6714       6713  
      6582       6583       6594       6593       6703       6704       6715       6714  
      6583       6584       6595       6594       6704       6705       6716       6715  
      6584       6585       6596       6595       6705       6706       6717       6716  
      6585       6586       6597       6596       6706       6707       6718       6717  
      6586       6587       6598       6597       6707       6708       6719       6718  
      6587       6588       6599       6598       6708       6709       6720       6719  
      6588       6589       6600       6599       6709       6710       6721       6720  
      6590       6591       6602       6601       6711       6712       6723       6722  
      6591       6592       6603       6602       6712       6713       6724       6723  
      6592       6593       6604       6603       6713       6714       6725       6724  
      6593       6594       6605       6604       6714       6715       6726       6725  
      6594       6595       6606       6605       6715       6716       6727       6726  
      6595       6596       6607       6606       6716       6717       6728       6727  
      6596       6597       6608       6607       6717       6718       6729       6728  
      6597       6598       6609       6608       6718       6719       6730       6729  
      6598       6599       6610       6609       6719       6720       6731       6730  
      6599       6600       6611       6610       6720       6721       6732       6731  
      6601       6602       6613       6612       6722       6723       6734       6733  
      6602       6603       6614       6613       6723       6724       6735       6734  
      6603       6604       6615       6614       6724       6725       6736       6735  
      6604       6605       6616       6615       6725       6726       6737       6736  
      6605       6606       6617       6616       6726       6727       6738       6737  
      6606       6607       6618       6617       6727       6728       6739       6738  
      6607       6608       6619       6618       6728       6729       6740       6739  
      6608       6609       6620       6619       6729       6730       6741       6740  
      6609       6610       6621       6620       6730       6731       6742       6741  
      6610       6611       6622       6621       6731       6732       6743       6742  
      6612       6613       6624       6623       6733       6734       6745       6744  
      6613       6614       6625       6624       6734       6735       6746       6745  
      6614       6615       6626       6625       6735       6736       6747       6746  
      6615       6616       6627       6626       6736       6737       6748       6747  
      6616       6617       6628       6627       6737       6738       6749       6748  
      6617       6618       6629       6628       6738       6739       6750       6749  
      6618       6619       6630       6629       6739       6740       6751       6750  
      6619       6620       6631       6630       6740       6741       6752       6751  
      6620       6621       6632       6631       6741       6742       6753       6752  
      6621       6622       6633       6632       6742       6743       6754       6753  
      6623       6624       6635       6634       6744       6745       6756       6755  
      6624       6625       6636       6635       6745       6746       6757       6756  
      6625       6626       6637       6636       6746       6747       6758       6757  
      6626       6627       6638       6637       6747       6748       6759       6758  
      6627       6628       6639       6638       6748       6749       6760       6759  
      6628       6629       6640       6639       6749       6750       6761       6760  
      6629       6630       6641       6640       6750       6751       6762       6761  
      6630       6631       6642       6641       6751       6752       6763       6762  
      6631       6632       6643       6642       6752       6753       6764       6763  
      6632       6633       6644       6643       6753       6754       6765       6764  
      6634       6635       6646       6645       6755       6756       6767       6766  
      6635       6636       6647       6646       6756       6757       6768       6767  
      6636       6637       6648       6647       6757       6758       6769       6768  
      6637       6638       6649       6648       6758       6759       6770       6769  
      6638       6639       6650       6649       6759       6760       6771       6770  
      6639       6640       6651       6650       6760       6761       6772       6771  
      6640       6641       6652       6651       6761       6762       6773       6772  
      6641       6642       6653       6652       6762       6763       6774       6773  
      6642       6643       6654       6653       6763       6764       6775       6774  
      6643       6644       6655       6654       6764       6765       6776       6775  
      6656       6657       6668       6667       6777       6778       6789       6788  
      6657       6658       6669       6668       6778       6779       6790       6789  
      6658       6659       6670       6669       6779       6780       6791       6790  
      6659       6660       6671       6670       6780       6781       6792       6791  
      6660       6661       6672       6671       6781       6782       6793       6792  
      6661       6662       6673       6672       6782       6783       6794       6793  
      6662       6663       6674       6673       6783       6784       6795       6794  
      6663       6664       6675       6674       6784       6785       6796       6795  
      6664       6665       6676       6675       6785       6786       6797       6796  
      6665       6666       6677       6676       6786       6787       6798       6797  
      6667       6668       6679       6678       6788       6789       6800       6799  
      6668       6669       6680       6679       6789       6790       6801       6800  
      6669       6670       6681       6680       6790       6791       6802       6801  
      6670       6671       6682       6681       6791       6792       6803       6802  
      6671       6672       6683       6682       6792       6793       6804       6803  
      6672       6673       6684       6683       6793       6794       6805       6804  
      6673       6674       6685       6684       6794       6795       6806       6805  
      6674       6675       6686       6685       6795       6796       6807       6806  
      6675       6676       6687       6686       6796       6797       6808       6807  
      6676       6677       6688       6687       6797       6798       6809       6808  
      6678       6679       6690       6689       6799       6800       6811       6810  
      6679       6680       6691       6690       6800       6801       6812       6811  
      6680       6681       6692       6691       6801       6802       6813       6812  
      6681       6682       6693       6692       6802       6803       6814       6813  
      6682       6683       6694       6693       6803       6804       6815       6814  
      6683       6684       6695       6694       6804       6805       6816       6815  
      6684       6685       6696       6695       6805       6806       6817       6816  
      6685       6686       6697       6696       6806       6807       6818       6817  
      6686       6687       6698       6697       6807       6808       6819       6818  
      6687       6688       6699       6698       6808       6809       6820       6819  
      6689       6690       6701       6700       6810       6811       6822       6821  
      6690       6691       6702       6701       6811       6812       6823       6822  
      6691       6692       6703       6702       6812       6813       6824       6823  
      6692       6693       6704       6703       6813       6814       6825       6824  
      6693       6694       6705       6704       6814       6815       6826       6825  
      6694       6695       6706       6705       6815       6816       6827       6826  
      6695       6696       6707       6706       6816       6817       6828       6827  
      6696       6697       6708       6707       6817       6818       6829       6828  
      6697       6698       6709       6708       6818       6819       6830       6829  
      6698       6699       6710       6709       6819       6820       6831       6830  
      6700       6701       6712       6711       6821       6822       6833       6832  
      6701       6702       6713       6712       6822       6823       6834       6833  
      6702       6703       6714       6713       6823       6824       6835       6834  
      6703       6704       6715       6714       6824       6825       6836       6835  
      6704       6705       6716       6715       6825       6826       6837       6836  
      6705       6706       6717       6716       6826       6827       6838       6837  
      6706       6707       6718       6717       6827       6828       6839       6838  
      6707       6708       6719       6718       6828       6829       6840       6839  
      6708       6709       6720       6719       6829       6830       6841       6840  
      6709       6710       6721       6720       6830       6831       6842       6841  
      6711       6712       6723       6722       6832       6833       6844       6843  
      6712       6713       6724       6723       6833       6834       6845       6844  
      6713       6714       6725       6724       6834       6835       6846       6845  
      6714       6715       6726       6725       6835       6836       6847       6846  
      6715       6716       6727       6726       6836       6837       6848       6847  
      6716       6717       6728       6727       6837       6838       6849       6848  
      6717       6718       6729       6728       6838       6839       6850       6849  
      6718       6719       6730       6729       6839       6840       6851       6850  
      6719       6720       6731       6730       6840       6841       6852       6851  
      6720       6721       6732       6731       6841       6842       6853       6852  
      6722       6723       6734       6733       6843       6844       6855       6854  
      6723       6724       6735       6734       6844       6845       6856       6855  
      6724       6725       6736       6735       6845       6846       6857       6856  
      6725       6726       6737       6736       6846       6847       6858       6857  
      6726       6727       6738       6737       6847       6848       6859       6858  
      6727       6728       6739       6738       6848       6849       6860       6859  
      6728       6729       6740       6739       6849       6850       6861       6860  
      6729       6730       6741       6740       6850       6851       6862       6861  
      6730       6731       6742       6741       6851       6852       6863       6862  
      6731       6732       6743       6742       6852       6853       6864       6863  
      6733       6734       6745       6744       6854       6855       6866       6865  
      6734       6735       6746       6745       6855       6856       6867       6866  
      6735       6736       6747       6746       6856       6857       6868       6867  
      6736       6737       6748       6747       6857       6858       6869       6868  
      6737       6738       6749       6748       6858       6859       6870       6869  
      6738       6739       6750       6749       6859       6860       6871       6870  
      6739       6740       6751       6750       6860       6861       6872       6871  
      6740       6741       6752       6751       6861       6862       6873       6872  
      6741       6742       6753       6752       6862       6863       6874       6873  
      6742       6743       6754       6753       6863       6864       6875       6874  
      6744       6745       6756       6755       6865       6866       6877       6876  
      6745       6746       6757       6756       6866       6867       6878       6877  
      6746       6747       6758       6757       6867       6868       6879       6878  
      6747       6748       6759       6758       6868       6869       6880       6879  
      6748       6749       6760       6759       6869       6870       6881       6880  
      6749       6750       6761       6760       6870       6871       6882       6881  
      6750       6751       6762       6761       6871       6872       6883       6882  
      6751       6752       6763       6762       6872       6873       6884       6883  
      6752       6753       6764       6763       6873       6874       6885       6884  
      6753       6754       6765       6764       6874       6875       6886       6885  
      6755       6756       6767       6766       6876       6877       6888       6887  
      6756       6757       6768       6767       6877       6878       6889       6888  
      6757       6758       6769       6768       6878       6879       6890       6889  
      6758       6759       6770       6769       6879       6880       6891       6890  
      6759       6760       6771       6770       6880       6881       6892       6891  
      6760       6761       6772       6771       6881       6882       6893       6892  
      6761       6762       6773       6772       6882       6883       6894       6893  
      6762       6763       6774       6773       6883       6884       6895       6894  
      6763       6764       6775       6774       6884       6885       6896       6895  
      6764       6765       6776       6775       6885       6886       6897       6896  
      6777       6778       6789       6788       6898       6899       6910       6909  
      6778       6779       6790       6789       6899       6900       6911       6910  
      6779       6780       6791       6790       6900       6901       6912       6911  
      6780       6781       6792       6791       6901       6902       6913       6912  
      6781       6782       6793       6792       6902       6903       6914       6913  
      6782       6783       6794       6793       6903       6904       6915       6914  
      6783       6784       6795       6794       6904       6905       6916       6915  
      6784       6785       6796       6795       6905       6906       6917       6916  
      6785       6786       6797       6796       6906       6907       6918       6917  
      6786       6787       6798       6797       6907       6908       6919       6918  
      6788       6789       6800       6799       6909       6910       6921       6920  
      6789       6790       6801       6800       6910       6911       6922       6921  
      6790       6791       6802       6801       6911       6912       6923       6922  
      6791       6792       6803       6802       6912       6913       6924       6923  
      6792       6793       6804       6803       6913       6914       6925       6924  
      6793       6794       6805       6804       6914       6915       6926       6925  
      6794       6795       6806       6805       6915       6916       6927       6926  
      6795       6796       6807       6806       6916       6917       6928       6927  
      6796       6797       6808       6807       6917       6918       6929       6928  
      6797       6798       6809       6808       6918       6919       6930       6929  
      6799       6800       6811       6810       6920       6921       6932       6931  
      6800       6801       6812       6811       6921       6922       6933       6932  
      6801       6802       6813       6812       6922       6923       6934       6933  
      6802       6803       6814       6813       6923       6924       6935       6934  
      6803       6804       6815       6814       6924       6925       6936       6935  
      6804       6805       6816       6815       6925       6926       6937       6936  
      6805       6806       6817       6816       6926       6927       6938       6937  
      6806       6807       6818       6817       6927       6928       6939       6938  
      6807       6808       6819       6818       6928       6929       6940       6939  
      6808       6809       6820       6819       6929       6930       6941       6940  
      6810       6811       6822       6821       6931       6932       6943       6942  
      6811       6812       6823       6822       6932       6933       6944       6943  
      6812       6813       6824       6823       6933       6934       6945       6944  
      6813       6814       6825       6824       6934       6935       6946       6945  
      6814       6815       6826       6825       6935       6936       6947       6946  
      6815       6816       6827       6826       6936       6937       6948       6947  
      6816       6817       6828       6827       6937       6938       6949       6948  
      6817       6818       6829       6828       6938       6939       6950       6949  
      6818       6819       6830       6829       6939       6940       6951       6950  
      6819       6820       6831       6830       6940       6941       6952       6951  
      6821       6822       6833       6832       6942       6943       6954       6953  
      6822       6823       6834       6833       6943       6944       6955       6954  
      6823       6824       6835       6834       6944       6945       6956       6955  
      6824       6825       6836       6835       6945       6946       6957       6956  
      6825       6826       6837       6836       6946       6947       6958       6957  
      6826       6827       6838       6837       6947       6948       6959       6958  
      6827       6828       6839       6838       6948       6949       6960       6959  
      6828       6829       6840       6839       6949       6950       6961       6960  
      6829       6830       6841       6840       6950       6951       6962       6961  
      6830       6831       6842       6841       6951       6952       6963       6962  
      6832       6833       6844       6843       6953       6954       6965       6964  
      6833       6834       6845       6844       6954       6955       6966       6965  
      6834       6835       6846       6845       6955       6956       6967       6966  
      6835       6836       6847       6846       6956       6957       6968       6967  
      6836       6837       6848       6847       6957       6958       6969       6968  
      6837       6838       6849       6848       6958       6959       6970       6969  
      6838       6839       6850       6849       6959       6960       6971       6970  
      6839       6840       6851       6850       6960       6961       6972       6971  
      6840       6841       6852       6851       6961       6962       6973       6972  
      6841       6842       6853       6852       6962       6963       6974       6973  
      6843       6844       6855       6854       6964       6965       6976       6975  
      6844       6845       6856       6855       6965       6966       6977       6976  
      6845       6846       6857       6856       6966       6967       6978       6977  
      6846       6847       6858       6857       6967       6968       6979       6978  
      6847       6848       6859       6858       6968       6969       6980       6979  
      6848       6849       6860       6859       6969       6970       6981       6980  
      6849       6850       6861       6860       6970       6971       6982       6981  
      6850       6851       6862       6861       6971       6972       6983       6982  
      6851       6852       6863       6862       6972       6973       6984       6983  
      6852       6853       6864       6863       6973       6974       6985       6984  
      6854       6855       6866       6865       6975       6976       6987       6986  
      6855       6856       6867       6866       6976       6977       6988       6987  
      6856       6857       6868       6867       6977       6978       6989       6988  
      6857       6858       6869       6868       6978       6979       6990       6989  
      6858       6859       6870       6869       6979       6980       6991       6990  
      6859       6860       6871       6870       6980       6981       6992       6991  
      6860       6861       6872       6871       6981       6982       6993       6992  
      6861       6862       6873       6872       6982       6983       6994       6993  
      6862       6863       6874       6873       6983       6984       6995       6994  
      6863       6864       6875       6874       6984       6985       6996       6995  
      6865       6866       6877       6876       6986       6987       6998       6997  
      6866       6867       6878       6877       6987       6988       6999       6998  
      6867       6868       6879       6878       6988       6989       7000       6999  
      6868       6869       6880       6879       6989       6990       7001       7000  
      6869       6870       6881       6880       6990       6991       7002       7001  
      6870       6871       6882       6881       6991       6992       7003       7002  
      6871       6872       6883       6882       6992       6993       7004       7003  
      6872       6873       6884       6883       6993       6994       7005       7004  
      6873       6874       6885       6884       6994       6995       7006       7005  
      6874       6875       6886       6885       6995       6996       7007       7006  
      6876       6877       6888       6887       6997       6998       7009       7008  
      6877       6878       6889       6888       6998       6999       7010       7009  
      6878       6879       6890       6889       6999       7000       7011       7010  
      6879       6880       6891       6890       7000       7001       7012       7011  
      6880       6881       6892       6891       7001       7002       7013       7012  
      6881       6882       6893       6892       7002       7003       7014       7013  
      6882       6883       6894       6893       7003       7004       7015       7014  
      6883       6884       6895       6894       7004       7005       7016       7015  
      6884       6885       6896       6895       7005       7006       7017       7016  
      6885       6886       6897       6896       7006       7007       7018       7017  
      6898       6899       6910       6909       7019       7020       7031       7030  
      6899       6900       6911       6910       7020       7021       7032       7031  
      6900       6901       6912       6911       7021       7022       7033       7032  
      6901       6902       6913       6912       7022       7023       7034       7033  
      6902       6903       6914       6913       7023       7024       7035       7034  
      6903       6904       6915       6914       7024       7025       7036       7035  
      6904       6905       6916       6915       7025       7026       7037       7036  
      6905       6906       6917       6916       7026       7027       7038       7037  
      6906       6907       6918       6917       7027       7028       7039       7038  
      6907       6908       6919       6918       7028       7029       7040       7039  
      6909       6910       6921       6920       7030       7031       7042       7041  
      6910       6911       6922       6921       7031       7032       7043       7042  
      6911       6912       6923       6922       7032       7033       7044       7043  
      6912       6913       6924       6923       7033       7034       7045       7044  
      6913       6914       6925       6924       7034       7035       7046       7045  
      6914       6915       6926       6925       7035       7036       7047       7046  
      6915       6916       6927       6926       7036       7037       7048       7047  
      6916       6917       6928       6927       7037       7038       7049       7048  
      6917       6918       6929       6928       7038       7039       7050       7049  
      6918       6919       6930       6929       7039       7040       7051       7050  
      6920       6921       6932       6931       7041       7042       7053       7052  
      6921       6922       6933       6932       7042       7043       7054       7053  
      6922       6923       6934       6933       7043       7044       7055       7054  
      6923       6924       6935       6934       7044       7045       7056       7055  
      6924       6925       6936       6935       7045       7046       7057       7056  
      6925       6926       6937       6936       7046       7047       7058       7057  
      6926       6927       6938       6937       7047       7048       7059       7058  
      6927       6928       6939       6938       7048       7049       7060       7059  
      6928       6929       6940       6939       7049       7050       7061       7060  
      6929       6930       6941       6940       7050       7051       7062       7061  
      6931       6932       6943       6942       7052       7053       7064       7063  
      6932       6933       6944       6943       7053       7054       7065       7064  
      6933       6934       6945       6944       7054       7055       7066       7065  
      6934       6935       6946       6945       7055       7056       7067       7066  
      6935       6936       6947       6946       7056       7057       7068       7067  
      6936       6937       6948       6947       7057       7058       7069       7068  
      6937       6938       6949       6948       7058       7059       7070       7069  
      6938       6939       6950       6949       7059       7060       7071       7070  
      6939       6940       6951       6950       7060       7061       7072       7071  
      6940       6941       6952       6951       7061       7062       7073       7072  
      6942       6943       6954       6953       7063       7064       7075       7074  
      6943       6944       6955       6954       7064       7065       7076       7075  
      6944       6945       6956       6955       7065       7066       7077       7076  
      6945       6946       6957       6956       7066       7067       7078       7077  
      6946       6947       6958       6957       7067       7068       7079       7078  
      6947       6948       6959       6958       7068       7069       7080       7079  
      6948       6949       6960       6959       7069       7070       7081       7080  
      6949       6950       6961       6960       7070       7071       7082       7081  
      6950       6951       6962       6961       7071       7072       7083       7082  
      6951       6952       6963       6962       7072       7073       7084       7083  
      6953       6954       6965       6964       7074       7075       7086       7085  
      6954       6955       6966       6965       7075       7076       7087       7086  
      6955       6956       6967       6966       7076       7077       7088       7087  
      6956       6957       6968       6967       7077       7078       7089       7088  
      6957       6958       6969       6968       7078       7079       7090       7089  
      6958       6959       6970       6969       7079       7080       7091       7090  
      6959       6960       6971       6970       7080       7081       7092       7091  
      6960       6961       6972       6971       7081       7082       7093       7092  
      6961       6962       6973       6972       7082       7083       7094       7093  
      6962       6963       6974       6973       7083       7084       7095       7094  
      6964       6965       6976       6975       7085       7086       7097       7096  
      6965       6966       6977       6976       7086       7087       7098       7097  
      6966       6967       6978       6977       7087       7088       7099       7098  
      6967       6968       6979       6978       7088       7089       7100       7099  
      6968       6969       6980       6979       7089       7090       7101       7100  
      6969       6970       6981       6980       7090       7091       7102       7101  
      6970       6971       6982       6981       7091       7092       7103       7102  
      6971       6972       6983       6982       7092       7093       7104       7103  
      6972       6973       6984       6983       7093       7094       7105       7104  
      6973       6974       6985       6984       7094       7095       7106       7105  
      6975       6976       6987       6986       7096       7097       7108       7107  
      6976       6977       6988       6987       7097       7098       7109       7108  
      6977       6978       6989       6988       7098       7099       7110       7109  
      6978       6979       6990       6989       7099       7100       7111       7110  
      6979       6980       6991       6990       7100       7101       7112       7111  
      6980       6981       6992       6991       7101       7102       7113       7112  
      6981       6982       6993       6992       7102       7103       7114       7113  
      6982       6983       6994       6993       7103       7104       7115       7114  
      6983       6984       6995       6994       7104       7105       7116       7115  
      6984       6985       6996       6995       7105       7106       7117       7116  
      6986       6987       6998       6997       7107       7108       7119       7118  
      6987       6988       6999       6998       7108       7109       7120       7119  
      6988       6989       7000       6999       7109       7110       7121       7120  
      6989       6990       7001       7000       7110       7111       7122       7121  
      6990       6991       7002       7001       7111       7112       7123       7122  
      6991       6992       7003       7002       7112       7113       7124       7123  
      6992       6993       7004       7003       7113       7114       7125       7124  
      6993       6994       7005       7004       7114       7115       7126       7125  
      6994       6995       7006       7005       7115       7116       7127       7126  
      6995       6996       7007       7006       7116       7117       7128       7127  
      6997       6998       7009       7008       7118       7119       7130       7129  
      6998       6999       7010       7009       7119       7120       7131       7130  
      6999       7000       7011       7010       7120       7121       7132       7131  
      7000       7001       7012       7011       7121       7122       7133       7132  
      7001       7002       7013       7012       7122       7123       7134       7133  
      7002       7003       7014       7013       7123       7124       7135       7134  
      7003       7004       7015       7014       7124       7125       7136       7135  
      7004       7005       7016       7015       7125       7126       7137       7136  
      7005       7006       7017       7016       7126       7127       7138       7137  
      7006       7007       7018       7017       7127       7128       7139       7138  
      7019       7020       7031       7030       7140       7141       7152       7151  
      7020       7021       7032       7031       7141       7142       7153       7152  
      7021       7022       7033       7032       7142       7143       7154       7153  
      7022       7023       7034       7033       7143       7144       7155       7154  
      7023       7024       7035       7034       7144       7145       7156       7155  
      7024       7025       7036       7035       7145       7146       7157       7156  
      7025       7026       7037       7036       7146       7147       7158       7157  
      7026       7027       7038       7037       7147       7148       7159       7158  
      7027       7028       7039       7038       7148       7149       7160       7159  
      7028       7029       7040       7039       7149       7150       7161       7160  
      7030       7031       7042       7041       7151       7152       7163       7162  
      7031       7032       7043       7042       7152       7153       7164       7163  
      7032       7033       7044       7043       7153       7154       7165       7164  
      7033       7034       7045       7044       7154       7155       7166       7165  
      7034       7035       7046       7045       7155       7156       7167       7166  
      7035       7036       7047       7046       7156       7157       7168       7167  
      7036       7037       7048       7047       7157       7158       7169       7168  
      7037       7038       7049       7048       7158       7159       7170       7169  
      7038       7039       7050       7049       7159       7160       7171       7170  
      7039       7040       7051       7050       7160       7161       7172       7171  
      7041       7042       7053       7052       7162       7163       7174       7173  
      7042       7043       7054       7053       7163       7164       7175       7174  
      7043       7044       7055       7054       7164       7165       7176       7175  
      7044       7045       7056       7055       7165       7166       7177       7176  
      7045       7046       7057       7056       7166       7167       7178       7177  
      7046       7047       7058       7057       7167       7168       7179       7178  
      7047       7048       7059       7058       7168       7169       7180       7179  
      7048       7049       7060       7059       7169       7170       7181       7180  
      7049       7050       7061       7060       7170       7171       7182       7181  
      7050       7051       7062       7061       7171       7172       7183       7182  
      7052       7053       7064       7063       7173       7174       7185       7184  
      7053       7054       7065       7064       7174       7175       7186       7185  
      7054       7055       7066       7065       7175       7176       7187       7186  
      7055       7056       7067       7066       7176       7177       7188       7187  
      7056       7057       7068       7067       7177       7178       7189       7188  
      7057       7058       7069       7068       7178       7179       7190       7189  
      7058       7059       7070       7069       7179       7180       7191       7190  
      7059       7060       7071       7070       7180       7181       7192       7191  
      7060       7061       7072       7071       7181       7182       7193       7192  
      7061       7062       7073       7072       7182       7183       7194       7193  
      7063       7064       7075       7074       7184       7185       7196       7195  
      7064       7065       7076       7075       7185       7186       7197       7196  
      7065       7066       7077       7076       7186       7187       7198       7197  
      7066       7067       7078       7077       7187       7188       7199       7198  
      7067       7068       7079       7078       7188       7189       7200       7199  
      7068       7069       7080       7079       7189       7190       7201       7200  
      7069       7070       7081       7080       7190       7191       7202       7201  
      7070       7071       7082       7081       7191       7192       7203       7202  
      7071       7072       7083       7082       7192       7193       7204       7203  
      7072       7073       7084       7083       7193       7194       7205       7204  
      7074       7075       7086       7085       7195       7196       7207       7206  
      7075       7076       7087       7086       7196       7197       7208       7207  
      7076       7077       7088       7087       7197       7198       7209       7208  
      7077       7078       7089       7088       7198       7199       7210       7209  
      7078       7079       7090       7089       7199       7200       7211       7210  
      7079       7080       7091       7090       7200       7201       7212       7211  
      7080       7081       7092       7091       7201       7202       7213       7212  
      7081       7082       7093       7092       7202       7203       7214       7213  
      7082       7083       7094       7093       7203       7204       7215       7214  
      7083       7084       7095       7094       7204       7205       7216       7215  
      7085       7086       7097       7096       7206       7207       7218       7217  
      7086       7087       7098       7097       7207       7208       7219       7218  
      7087       7088       7099       7098       7208       7209       7220       7219  
      7088       7089       7100       7099       7209       7210       7221       7220  
      7089       7090       7101       7100       7210       7211       7222       7221  
      7090       7091       7102       7101       7211       7212       7223       7222  
      7091       7092       7103       7102       7212       7213       7224       7223  
      7092       7093       7104       7103       7213       7214       7225       7224  
      7093       7094       7105       7104       7214       7215       7226       7225  
      7094       7095       7106       7105       7215       7216       7227       7226  
      7096       7097       7108       7107       7217       7218       7229       7228  
      7097       7098       7109       7108       7218       7219       7230       7229  
      7098       7099       7110       7109       7219       7220       7231       7230  
      7099       7100       7111       7110       7220       7221       7232       7231  
      7100       7101       7112       7111       7221       7222       7233       7232  
      7101       7102       7113       7112       7222       7223       7234       7233  
      7102       7103       7114       7113       7223       7224       7235       7234  
      7103       7104       7115       7114       7224       7225       7236       7235  
      7104       7105       7116       7115       7225       7226       7237       7236  
      7105       7106       7117       7116       7226       7227       7238       7237  
      7107       7108       7119       7118       7228       7229       7240       7239  
      7108       7109       7120       7119       7229       7230       7241       7240  
      7109       7110       7121       7120       7230       7231       7242       7241  
      7110       7111       7122       7121       7231       7232       7243       7242  
      7111       7112       7123       7122       7232       7233       7244       7243  
      7112       7113       7124       7123       7233       7234       7245       7244  
      7113       7114       7125       7124       7234       7235       7246       7245  
      7114       7115       7126       7125       7235       7236       7247       7246  
      7115       7116       7127       7126       7236       7237       7248       7247  
      7116       7117       7128       7127       7237       7238       7249       7248  
      7118       7119       7130       7129       7239       7240       7251       7250  
      7119       7120       7131       7130       7240       7241       7252       7251  
      7120       7121       7132       7131       7241       7242       7253       7252  
      7121       7122       7133       7132       7242       7243       7254       7253  
      7122       7123       7134       7133       7243       7244       7255       7254  
      7123       7124       7135       7134       7244       7245       7256       7255  
      7124       7125       7136       7135       7245       7246       7257       7256  
      7125       7126       7137       7136       7246       7247       7258       7257  
      7126       7127       7138       7137       7247       7248       7259       7258  
      7127       7128       7139       7138       7248       7249       7260       7259  
      7140       7141       7152       7151       7261       7262       7273       7272  
      7141       7142       7153       7152       7262       7263       7274       7273  
      7142       7143       7154       7153       7263       7264       7275       7274  
      7143       7144       7155       7154       7264       7265       7276       7275  
      7144       7145       7156       7155       7265       7266       7277       7276  
      7145       7146       7157       7156       7266       7267       7278       7277  
      7146       7147       7158       7157       7267       7268       7279       7278  
      7147       7148       7159       7158       7268       7269       7280       7279  
      7148       7149       7160       7159       7269       7270       7281       7280  
      7149       7150       7161       7160       7270       7271       7282       7281  
      7151       7152       7163       7162       7272       7273       7284       7283  
      7152       7153       7164       7163       7273       7274       7285       7284  
      7153       7154       7165       7164       7274       7275       7286       7285  
      7154       7155       7166       7165       7275       7276       7287       7286  
      7155       7156       7167       7166       7276       7277       7288       7287  
      7156       7157       7168       7167       7277       7278       7289       7288  
      7157       7158       7169       7168       7278       7279       7290       7289  
      7158       7159       7170       7169       7279       7280       7291       7290  
      7159       7160       7171       7170       7280       7281       7292       7291  
      7160       7161       7172       7171       7281       7282       7293       7292  
      7162       7163       7174       7173       7283       7284       7295       7294  
      7163       7164       7175       7174       7284       7285       7296       7295  
      7164       7165       7176       7175       7285       7286       7297       7296  
      7165       7166       7177       7176       7286       7287       7298       7297  
      7166       7167       7178       7177       7287       7288       7299       7298  
      7167       7168       7179       7178       7288       7289       7300       7299  
      7168       7169       7180       7179       7289       7290       7301       7300  
      7169       7170       7181       7180       7290       7291       7302       7301  
      7170       7171       7182       7181       7291       7292       7303       7302  
      7171       7172       7183       7182       7292       7293       7304       7303  
      7173       7174       7185       7184       7294       7295       7306       7305  
      7174       7175       7186       7185       7295       7296       7307       7306  
      7175       7176       7187       7186       7296       7297       7308       7307  
      7176       7177       7188       7187       7297       7298       7309       7308  
      7177       7178       7189       7188       7298       7299       7310       7309  
      7178       7179       7190       7189       7299       7300       7311       7310  
      7179       7180       7191       7190       7300       7301       7312       7311  
      7180       7181       7192       7191       7301       7302       7313       7312  
      7181       7182       7193       7192       7302       7303       7314       7313  
      7182       7183       7194       7193       7303       7304       7315       7314  
      7184       7185       7196       7195       7305       7306       7317       7316  
      7185       7186       7197       7196       7306       7307       7318       7317  
      7186       7187       7198       7197       7307       7308       7319       7318  
      7187       7188       7199       7198       7308       7309       7320       7319  
      7188       7189       7200       7199       7309       7310       7321       7320  
      7189       7190       7201       7200       7310       7311       7322       7321  
      7190       7191       7202       7201       7311       7312       7323       7322  
      7191       7192       7203       7202       7312       7313       7324       7323  
      7192       7193       7204       7203       7313       7314       7325       7324  
      7193       7194       7205       7204       7314       7315       7326       7325  
      7195       7196       7207       7206       7316       7317       7328       7327  
      7196       7197       7208       7207       7317       7318       7329       7328  
      7197       7198       7209       7208       7318       7319       7330       7329  
      7198       7199       7210       7209       7319       7320       7331       7330  
      7199       7200       7211       7210       7320       7321       7332       7331  
      7200       7201       7212       7211       7321       7322       7333       7332  
      7201       7202       7213       7212       7322       7323       7334       7333  
      7202       7203       7214       7213       7323       7324       7335       7334  
      7203       7204       7215       7214       7324       7325       7336       7335  
      7204       7205       7216       7215       7325       7326       7337       7336  
      7206       7207       7218       7217       7327       7328       7339       7338  
      7207       7208       7219       7218       7328       7329       7340       7339  
      7208       7209       7220       7219       7329       7330       7341       7340  
      7209       7210       7221       7220       7330       7331       7342       7341  
      7210       7211       7222       7221       7331       7332       7343       7342  
      7211       7212       7223       7222       7332       7333       7344       7343  
      7212       7213       7224       7223       7333       7334       7345       7344  
      7213       7214       7225       7224       7334       7335       7346       7345  
      7214       7215       7226       7225       7335       7336       7347       7346  
      7215       7216       7227       7226       7336       7337       7348       7347  
      7217       7218       7229       7228       7338       7339       7350       7349  
      7218       7219       7230       7229       7339       7340       7351       7350  
      7219       7220       7231       7230       7340       7341       7352       7351  
      7220       7221       7232       7231       7341       7342       7353       7352  
      7221       7222       7233       7232       7342       7343       7354       7353  
      7222       7223       7234       7233       7343       7344       7355       7354  
      7223       7224       7235       7234       7344       7345       7356       7355  
      7224       7225       7236       7235       7345       7346       7357       7356  
      7225       7226       7237       7236       7346       7347       7358       7357  
      7226       7227       7238       7237       7347       7348       7359       7358  
      7228       7229       7240       7239       7349       7350       7361       7360  
      7229       7230       7241       7240       7350       7351       7362       7361  
      7230       7231       7242       7241       7351       7352       7363       7362  
      7231       7232       7243       7242       7352       7353       7364       7363  
      7232       7233       7244       7243       7353       7354       7365       7364  
      7233       7234       7245       7244       7354       7355       7366       7365  
      7234       7235       7246       7245       7355       7356       7367       7366  
      7235       7236       7247       7246       7356       7357       7368       7367  
      7236       7237       7248       7247       7357       7358       7369       7368  
      7237       7238       7249       7248       7358       7359       7370       7369  
      7239       7240       7251       7250       7360       7361       7372       7371  
      7240       7241       7252       7251       7361       7362       7373       7372  
      7241       7242       7253       7252       7362       7363       7374       7373  
      7242       7243       7254       7253       7363       7364       7375       7374  
      7243       7244       7255       7254       7364       7365       7376       7375  
      7244       7245       7256       7255       7365       7366       7377       7376  
      7245       7246       7257       7256       7366       7367       7378       7377  
      7246       7247       7258       7257       7367       7368       7379       7378  
      7247       7248       7259       7258       7368       7369       7380       7379  
      7248       7249       7260       7259       7369       7370       7381       7380  
      7261       7262       7273       7272       7382       7383       7394       7393  
      7262       7263       7274       7273       7383       7384       7395       7394  
      7263       7264       7275       7274       7384       7385       7396       7395  
      7264       7265       7276       7275       7385       7386       7397       7396  
      7265       7266       7277       7276       7386       7387       7398       7397  
      7266       7267       7278       7277       7387       7388       7399       7398  
      7267       7268       7279       7278       7388       7389       7400       7399  
      7268       7269       7280       7279       7389       7390       7401       7400  
      7269       7270       7281       7280       7390       7391       7402       7401  
      7270       7271       7282       7281       7391       7392       7403       7402  
      7272       7273       7284       7283       7393       7394       7405       7404  
      7273       7274       7285       7284       7394       7395       7406       7405  
      7274       7275       7286       7285       7395       7396       7407       7406  
      7275       7276       7287       7286       7396       7397       7408       7407  
      7276       7277       7288       7287       7397       7398       7409       7408  
      7277       7278       7289       7288       7398       7399       7410       7409  
      7278       7279       7290       7289       7399       7400       7411       7410  
      7279       7280       7291       7290       7400       7401       7412       7411  
      7280       7281       7292       7291       7401       7402       7413       7412  
      7281       7282       7293       7292       7402       7403       7414       7413  
      7283       7284       7295       7294       7404       7405       7416       7415  
      7284       7285       7296       7295       7405       7406       7417       7416  
      7285       7286       7297       7296       7406       7407       7418       7417  
      7286       7287       7298       7297       7407       7408       7419       7418  
      7287       7288       7299       7298       7408       7409       7420       7419  
      7288       7289       7300       7299       7409       7410       7421       7420  
      7289       7290       7301       7300       7410       7411       7422       7421  
      7290       7291       7302       7301       7411       7412       7423       7422  
      7291       7292       7303       7302       7412       7413       7424       7423  
      7292       7293       7304       7303       7413       7414       7425       7424  
      7294       7295       7306       7305       7415       7416       7427       7426  
      7295       7296       7307       7306       7416       7417       7428       7427  
      7296       7297       7308       7307       7417       7418       7429       7428  
      7297       7298       7309       7308       7418       7419       7430       7429  
      7298       7299       7310       7309       7419       7420       7431       7430  
      7299       7300       7311       7310       7420       7421       7432       7431  
      7300       7301       7312       7311       7421       7422       7433       7432  
      7301       7302       7313       7312       7422       7423       7434       7433  
      7302       7303       7314       7313       7423       7424       7435       7434  
      7303       7304       7315       7314       7424       7425       7436       7435  
      7305       7306       7317       7316       7426       7427       7438       7437  
      7306       7307       7318       7317       7427       7428       7439       7438  
      7307       7308       7319       7318       7428       7429       7440       7439  
      7308       7309       7320       7319       7429       7430       7441       7440  
      7309       7310       7321       7320       7430       7431       7442       7441  
      7310       7311       7322       7321       7431       7432       7443       7442  
      7311       7312       7323       7322       7432       7433       7444       7443  
      7312       7313       7324       7323       7433       7434       7445       7444  
      7313       7314       7325       7324       7434       7435       7446       7445  
      7314       7315       7326       7325       7435       7436       7447       7446  
      7316       7317       7328       7327       7437       7438       7449       7448  
      7317       7318       7329       7328       7438       7439       7450       7449  
      7318       7319       7330       7329       7439       7440       7451       7450  
      7319       7320       7331       7330       7440       7441       7452       7451  
      7320       7321       7332       7331       7441       7442       7453       7452  
      7321       7322       7333       7332       7442       7443       7454       7453  
      7322       7323       7334       7333       7443       7444       7455       7454  
      7323       7324       7335       7334       7444       7445       7456       7455  
      7324       7325       7336       7335       7445       7446       7457       7456  
      7325       7326       7337       7336       7446       7447       7458       7457  
      7327       7328       7339       7338       7448       7449       7460       7459  
      7328       7329       7340       7339       7449       7450       7461       7460  
      7329       7330       7341       7340       7450       7451       7462       7461  
      7330       7331       7342       7341       7451       7452       7463       7462  
      7331       7332       7343       7342       7452       7453       7464       7463  
      7332       7333       7344       7343       7453       7454       7465       7464  
      7333       7334       7345       7344       7454       7455       7466       7465  
      7334       7335       7346       7345       7455       7456       7467       7466  
      7335       7336       7347       7346       7456       7457       7468       7467  
      7336       7337       7348       7347       7457       7458       7469       7468  
      7338       7339       7350       7349       7459       7460       7471       7470  
      7339       7340       7351       7350       7460       7461       7472       7471  
      7340       7341       7352       7351       7461       7462       7473       7472  
      7341       7342       7353       7352       7462       7463       7474       7473  
      7342       7343       7354       7353       7463       7464       7475       7474  
      7343       7344       7355       7354       7464       7465       7476       7475  
      7344       7345       7356       7355       7465       7466       7477       7476  
      7345       7346       7357       7356       7466       7467       7478       7477  
      7346       7347       7358       7357       7467       7468       7479       7478  
      7347       7348       7359       7358       7468       7469       7480       7479  
      7349       7350       7361       7360       7470       7471       7482       7481  
      7350       7351       7362       7361       7471       7472       7483       7482  
      7351       7352       7363       7362       7472       7473       7484       7483  
      7352       7353       7364       7363       7473       7474       7485       7484  
      7353       7354       7365       7364       7474       7475       7486       7485  
      7354       7355       7366       7365       7475       7476       7487       7486  
      7355       7356       7367       7366       7476       7477       7488       7487  
      7356       7357       7368       7367       7477       7478       7489       7488  
      7357       7358       7369       7368       7478       7479       7490       7489  
      7358       7359       7370       7369       7479       7480       7491       7490  
      7360       7361       7372       7371       7481       7482       7493       7492  
      7361       7362       7373       7372       7482       7483       7494       7493  
      7362       7363       7374       7373       7483       7484       7495       7494  
      7363       7364       7375       7374       7484       7485       7496       7495  
      7364       7365       7376       7375       7485       7486       7497       7496  
      7365       7366       7377       7376       7486       7487       7498       7497  
      7366       7367       7378       7377       7487       7488       7499       7498  
      7367       7368       7379       7378       7488       7489       7500       7499  
      7368       7369       7380       7379       7489       7490       7501       7500  
      7369       7370       7381       7380       7490       7491       7502       7501  
      7382       7383       7394       7393       7503       7504       7515       7514  
      7383       7384       7395       7394       7504       7505       7516       7515  
      7384       7385       7396       7395       7505       7506       7517       7516  
      7385       7386       7397       7396       7506       7507       7518       7517  
      7386       7387       7398       7397       7507       7508       7519       7518  
      7387       7388       7399       7398       7508       7509       7520       7519  
      7388       7389       7400       7399       7509       7510       7521       7520  
      7389       7390       7401       7400       7510       7511       7522       7521  
      7390       7391       7402       7401       7511       7512       7523       7522  
      7391       7392       7403       7402       7512       7513       7524       7523  
      7393       7394       7405       7404       7514       7515       7526       7525  
      7394       7395       7406       7405       7515       7516       7527       7526  
      7395       7396       7407       7406       7516       7517       7528       7527  
      7396       7397       7408       7407       7517       7518       7529       7528  
      7397       7398       7409       7408       7518       7519       7530       7529  
      7398       7399       7410       7409       7519       7520       7531       7530  
      7399       7400       7411       7410       7520       7521       7532       7531  
      7400       7401       7412       7411       7521       7522       7533       7532  
      7401       7402       7413       7412       7522       7523       7534       7533  
      7402       7403       7414       7413       7523       7524       7535       7534  
      7404       7405       7416       7415       7525       7526       7537       7536  
      7405       7406       7417       7416       7526       7527       7538       7537  
      7406       7407       7418       7417       7527       7528       7539       7538  
      7407       7408       7419       7418       7528       7529       7540       7539  
      7408       7409       7420       7419       7529       7530       7541       7540  
      7409       7410       7421       7420       7530       7531       7542       7541  
      7410       7411       7422       7421       7531       7532       7543       7542  
      7411       7412       7423       7422       7532       7533       7544       7543  
      7412       7413       7424       7423       7533       7534       7545       7544  
      7413       7414       7425       7424       7534       7535       7546       7545  
      7415       7416       7427       7426       7536       7537       7548       7547  
      7416       7417       7428       7427       7537       7538       7549       7548  
      7417       7418       7429       7428       7538       7539       7550       7549  
      7418       7419       7430       7429       7539       7540       7551       7550  
      7419       7420       7431       7430       7540       7541       7552       7551  
      7420       7421       7432       7431       7541       7542       7553       7552  
      7421       7422       7433       7432       7542       7543       7554       7553  
      7422       7423       7434       7433       7543       7544       7555       7554  
      7423       7424       7435       7434       7544       7545       7556       7555  
      7424       7425       7436       7435       7545       7546       7557       7556  
      7426       7427       7438       7437       7547       7548       7559       7558  
      7427       7428       7439       7438       7548       7549       7560       7559  
      7428       7429       7440       7439       7549       7550       7561       7560  
      7429       7430       7441       7440       7550       7551       7562       7561  
      7430       7431       7442       7441       7551       7552       7563       7562  
      7431       7432       7443       7442       7552       7553       7564       7563  
      7432       7433       7444       7443       7553       7554       7565       7564  
      7433       7434       7445       7444       7554       7555       7566       7565  
      7434       7435       7446       7445       7555       7556       7567       7566  
      7435       7436       7447       7446       7556       7557       7568       7567  
      7437       7438       7449       7448       7558       7559       7570       7569  
      7438       7439       7450       7449       7559       7560       7571       7570  
      7439       7440       7451       7450       7560       7561       7572       7571  
      7440       7441       7452       7451       7561       7562       7573       7572  
      7441       7442       7453       7452       7562       7563       7574       7573  
      7442       7443       7454       7453       7563       7564       7575       7574  
      7443       7444       7455       7454       7564       7565       7576       7575  
      7444       7445       7456       7455       7565       7566       7577       7576  
      7445       7446       7457       7456       7566       7567       7578       7577  
      7446       7447       7458       7457       7567       7568       7579       7578  
      7448       7449       7460       7459       7569       7570       7581       7580  
      7449       7450       7461       7460       7570       7571       7582       7581  
      7450       7451       7462       7461       7571       7572       7583       7582  
      7451       7452       7463       7462       7572       7573       7584       7583  
      7452       7453       7464       7463       7573       7574       7585       7584  
      7453       7454       7465       7464       7574       7575       7586       7585  
      7454       7455       7466       7465       7575       7576       7587       7586  
      7455       7456       7467       7466       7576       7577       7588       7587  
      7456       7457       7468       7467       7577       7578       7589       7588  
      7457       7458       7469       7468       7578       7579       7590       7589  
      7459       7460       7471       7470       7580       7581       7592       7591  
      7460       7461       7472       7471       7581       7582       7593       7592  
      7461       7462       7473       7472       7582       7583       7594       7593  
      7462       7463       7474       7473       7583       7584       7595       7594  
      7463       7464       7475       7474       7584       7585       7596       7595  
      7464       7465       7476       7475       7585       7586       7597       7596  
      7465       7466       7477       7476       7586       7587       7598       7597  
      7466       7467       7478       7477       7587       7588       7599       7598  
      7467       7468       7479       7478       7588       7589       7600       7599  
      7468       7469       7480       7479       7589       7590       7601       7600  
      7470       7471       7482       7481       7591       7592       7603       7602  
      7471       7472       7483       7482       7592       7593       7604       7603  
      7472       7473       7484       7483       7593       7594       7605       7604  
      7473       7474       7485       7484       7594       7595       7606       7605  
      7474       7475       7486       7485       7595       7596       7607       7606  
      7475       7476       7487       7486       7596       7597       7608       7607  
      7476       7477       7488       7487       7597       7598       7609       7608  
      7477       7478       7489       7488       7598       7599       7610       7609  
      7478       7479       7490       7489       7599       7600       7611       7610  
      7479       7480       7491       7490       7600       7601       7612       7611  
      7481       7482       7493       7492       7602       7603       7614       7613  
      7482       7483       7494       7493       7603       7604       7615       7614  
      7483       7484       7495       7494       7604       7605       7616       7615  
      7484       7485       7496       7495       7605       7606       7617       7616  
      7485       7486       7497       7496       7606       7607       7618       7617  
      7486       7487       7498       7497       7607       7608       7619       7618  
      7487       7488       7499       7498       7608       7609       7620       7619  
      7488       7489       7500       7499       7609       7610       7621       7620  
      7489       7490       7501       7500       7610       7611       7622       7621  
      7490       7491       7502       7501       7611       7612       7623       7622  
      7503       7504       7515       7514       7624       7625       7636       7635  
      7504       7505       7516       7515       7625       7626       7637       7636  
      7505       7506       7517       7516       7626       7627       7638       7637  
      7506       7507       7518       7517       7627       7628       7639       7638  
      7507       7508       7519       7518       7628       7629       7640       7639  
      7508       7509       7520       7519       7629       7630       7641       7640  
      7509       7510       7521       7520       7630       7631       7642       7641  
      7510       7511       7522       7521       7631       7632       7643       7642  
      7511       7512       7523       7522       7632       7633       7644       7643  
      7512       7513       7524       7523       7633       7634       7645       7644  
      7514       7515       7526       7525       7635       7636       7647       7646  
      7515       7516       7527       7526       7636       7637       7648       7647  
      7516       7517       7528       7527       7637       7638       7649       7648  
      7517       7518       7529       7528       7638       7639       7650       7649  
      7518       7519       7530       7529       7639       7640       7651       7650  
      7519       7520       7531       7530       7640       7641       7652       7651  
      7520       7521       7532       7531       7641       7642       7653       7652  
      7521       7522       7533       7532       7642       7643       7654       7653  
      7522       7523       7534       7533       7643       7644       7655       7654  
      7523       7524       7535       7534       7644       7645       7656       7655  
      7525       7526       7537       7536       7646       7647       7658       7657  
      7526       7527       7538       7537       7647       7648       7659       7658  
      7527       7528       7539       7538       7648       7649       7660       7659  
      7528       7529       7540       7539       7649       7650       7661       7660  
      7529       7530       7541       7540       7650       7651       7662       7661  
      7530       7531       7542       7541       7651       7652       7663       7662  
      7531       7532       7543       7542       7652       7653       7664       7663  
      7532       7533       7544       7543       7653       7654       7665       7664  
      7533       7534       7545       7544       7654       7655       7666       7665  
      7534       7535       7546       7545       7655       7656       7667       7666  
      7536       7537       7548       7547       7657       7658       7669       7668  
      7537       7538       7549       7548       7658       7659       7670       7669  
      7538       7539       7550       7549       7659       7660       7671       7670  
      7539       7540       7551       7550       7660       7661       7672       7671  
      7540       7541       7552       7551       7661       7662       7673       7672  
      7541       7542       7553       7552       7662       7663       7674       7673  
      7542       7543       7554       7553       7663       7664       7675       7674  
      7543       7544       7555       7554       7664       7665       7676       7675  
      7544       7545       7556       7555       7665       7666       7677       7676  
      7545       7546       7557       7556       7666       7667       7678       7677  
      7547       7548       7559       7558       7668       7669       7680       7679  
      7548       7549       7560       7559       7669       7670       7681       7680  
      7549       7550       7561       7560       7670       7671       7682       7681  
      7550       7551       7562       7561       7671       7672       7683       7682  
      7551       7552       7563       7562       7672       7673       7684       7683  
      7552       7553       7564       7563       7673       7674       7685       7684  
      7553       7554       7565       7564       7674       7675       7686       7685  
      7554       7555       7566       7565       7675       7676       7687       7686  
      7555       7556       7567       7566       7676       7677       7688       7687  
      7556       7557       7568       7567       7677       7678       7689       7688  
      7558       7559       7570       7569       7679       7680       7691       7690  
      7559       7560       7571       7570       7680       7681       7692       7691  
      7560       7561       7572       7571       7681       7682       7693       7692  
      7561       7562       7573       7572       7682       7683       7694       7693  
      7562       7563       7574       7573       7683       7684       7695       7694  
      7563       7564       7575       7574       7684       7685       7696       7695  
      7564       7565       7576       7575       7685       7686       7697       7696  
      7565       7566       7577       7576       7686       7687       7698       7697  
      7566       7567       7578       7577       7687       7688       7699       7698  
      7567       7568       7579       7578       7688       7689       7700       7699  
      7569       7570       7581       7580       7690       7691       7702       7701  
      7570       7571       7582       7581       7691       7692       7703       7702  
      7571       7572       7583       7582       7692       7693       7704       7703  
      7572       7573       7584       7583       7693       7694       7705       7704  
      7573       7574       7585       7584       7694       7695       7706       7705  
      7574       7575       7586       7585       7695       7696       7707       7706  
      7575       7576       7587       7586       7696       7697       7708       7707  
      7576       7577       7588       7587       7697       7698       7709       7708  
      7577       7578       7589       7588       7698       7699       7710       7709  
      7578       7579       7590       7589       7699       7700       7711       7710  
      7580       7581       7592       7591       7701       7702       7713       7712  
      7581       7582       7593       7592       7702       7703       7714       7713  
      7582       7583       7594       7593       7703       7704       7715       7714  
      7583       7584       7595       7594       7704       7705       7716       7715  
      7584       7585       7596       7595       7705       7706       7717       7716  
      7585       7586       7597       7596       7706       7707       7718       7717  
      7586       7587       7598       7597       7707       7708       7719       7718  
      7587       7588       7599       7598       7708       7709       7720       7719  
      7588       7589       7600       7599       7709       7710       7721       7720  
      7589       7590       7601       7600       7710       7711       7722       7721  
      7591       7592       7603       7602       7712       7713       7724       7723  
      7592       7593       7604       7603       7713       7714       7725       7724  
      7593       7594       7605       7604       7714       7715       7726       7725  
      7594       7595       7606       7605       7715       7716       7727       7726  
      7595       7596       7607       7606       7716       7717       7728       7727  
      7596       7597       7608       7607       7717       7718       7729       7728  
      7597       7598       7609       7608       7718       7719       7730       7729  
      7598       7599       7610       7609       7719       7720       7731       7730  
      7599       7600       7611       7610       7720       7721       7732       7731  
      7600       7601       7612       7611       7721       7722       7733       7732  
      7602       7603       7614       7613       7723       7724       7735       7734  
      7603       7604       7615       7614       7724       7725       7736       7735  
      7604       7605       7616       7615       7725       7726       7737       7736  
      7605       7606       7617       7616       7726       7727       7738       7737  
      7606       7607       7618       7617       7727       7728       7739       7738  
      7607       7608       7619       7618       7728       7729       7740       7739  
      7608       7609       7620       7619       7729       7730       7741       7740  
      7609       7610       7621       7620       7730       7731       7742       7741  
      7610       7611       7622       7621       7731       7732       7743       7742  
      7611       7612       7623       7622       7732       7733       7744       7743  
      7624       7625       7636       7635       7745       7746       7757       7756  
      7625       7626       7637       7636       7746       7747       7758       7757  
      7626       7627       7638       7637       7747       7748       7759       7758  
      7627       7628       7639       7638       7748       7749       7760       7759  
      7628       7629       7640       7639       7749       7750       7761       7760  
      7629       7630       7641       7640       7750       7751       7762       7761  
      7630       7631       7642       7641       7751       7752       7763       7762  
      7631       7632       7643       7642       7752       7753       7764       7763  
      7632       7633       7644       7643       7753       7754       7765       7764  
      7633       7634       7645       7644       7754       7755       7766       7765  
      7635       7636       7647       7646       7756       7757       7768       7767  
      7636       7637       7648       7647       7757       7758       7769       7768  
      7637       7638       7649       7648       7758       7759       7770       7769  
      7638       7639       7650       7649       7759       7760       7771       7770  
      7639       7640       7651       7650       7760       7761       7772       7771  
      7640       7641       7652       7651       7761       7762       7773       7772  
      7641       7642       7653       7652       7762       7763       7774       7773  
      7642       7643       7654       7653       7763       7764       7775       7774  
      7643       7644       7655       7654       7764       7765       7776       7775  
      7644       7645       7656       7655       7765       7766       7777       7776  
      7646       7647       7658       7657       7767       7768       7779       7778  
      7647       7648       7659       7658       7768       7769       7780       7779  
      7648       7649       7660       7659       7769       7770       7781       7780  
      7649       7650       7661       7660       7770       7771       7782       7781  
      7650       7651       7662       7661       7771       7772       7783       7782  
      7651       7652       7663       7662       7772       7773       7784       7783  
      7652       7653       7664       7663       7773       7774       7785       7784  
      7653       7654       7665       7664       7774       7775       7786       7785  
      7654       7655       7666       7665       7775       7776       7787       7786  
      7655       7656       7667       7666       7776       7777       7788       7787  
      7657       7658       7669       7668       7778       7779       7790       7789  
      7658       7659       7670       7669       7779       7780       7791       7790  
      7659       7660       7671       7670       7780       7781       7792       7791  
      7660       7661       7672       7671       7781       7782       7793       7792  
      7661       7662       7673       7672       7782       7783       7794       7793  
      7662       7663       7674       7673       7783       7784       7795       7794  
      7663       7664       7675       7674       7784       7785       7796       7795  
      7664       7665       7676       7675       7785       7786       7797       7796  
      7665       7666       7677       7676       7786       7787       7798       7797  
      7666       7667       7678       7677       7787       7788       7799       7798  
      7668       7669       7680       7679       7789       7790       7801       7800  
      7669       7670       7681       7680       7790       7791       7802       7801  
      7670       7671       7682       7681       7791       7792       7803       7802  
      7671       7672       7683       7682       7792       7793       7804       7803  
      7672       7673       7684       7683       7793       7794       7805       7804  
      7673       7674       7685       7684       7794       7795       7806       7805  
      7674       7675       7686       7685       7795       7796       7807       7806  
      7675       7676       7687       7686       7796       7797       7808       7807  
      7676       7677       7688       7687       7797       7798       7809       7808  
      7677       7678       7689       7688       7798       7799       7810       7809  
      7679       7680       7691       7690       7800       7801       7812       7811  
      7680       7681       7692       7691       7801       7802       7813       7812  
      7681       7682       7693       7692       7802       7803       7814       7813  
      7682       7683       7694       7693       7803       7804       7815       7814  
      7683       7684       7695       7694       7804       7805       7816       7815  
      7684       7685       7696       7695       7805       7806       7817       7816  
      7685       7686       7697       7696       7806       7807       7818       7817  
      7686       7687       7698       7697       7807       7808       7819       7818  
      7687       7688       7699       7698       7808       7809       7820       7819  
      7688       7689       7700       7699       7809       7810       7821       7820  
      7690       7691       7702       7701       7811       7812       7823       7822  
      7691       7692       7703       7702       7812       7813       7824       7823  
      7692       7693       7704       7703       7813       7814       7825       7824  
      7693       7694       7705       7704       7814       7815       7826       7825  
      7694       7695       7706       7705       7815       7816       7827       7826  
      7695       7696       7707       7706       7816       7817       7828       7827  
      7696       7697       7708       7707       7817       7818       7829       7828  
      7697       7698       7709       7708       7818       7819       7830       7829  
      7698       7699       7710       7709       7819       7820       7831       7830  
      7699       7700       7711       7710       7820       7821       7832       7831  
      7701       7702       7713       7712       7822       7823       7834       7833  
      7702       7703       7714       7713       7823       7824       7835       7834  
      7703       7704       7715       7714       7824       7825       7836       7835  
      7704       7705       7716       7715       7825       7826       7837       7836  
      7705       7706       7717       7716       7826       7827       7838       7837  
      7706       7707       7718       7717       7827       7828       7839       7838  
      7707       7708       7719       7718       7828       7829       7840       7839  
      7708       7709       7720       7719       7829       7830       7841       7840  
      7709       7710       7721       7720       7830       7831       7842       7841  
      7710       7711       7722       7721       7831       7832       7843       7842  
      7712       7713       7724       7723       7833       7834       7845       7844  
      7713       7714       7725       7724       7834       7835       7846       7845  
      7714       7715       7726       7725       7835       7836       7847       7846  
      7715       7716       7727       7726       7836       7837       7848       7847  
      7716       7717       7728       7727       7837       7838       7849       7848  
      7717       7718       7729       7728       7838       7839       7850       7849  
      7718       7719       7730       7729       7839       7840       7851       7850  
      7719       7720       7731       7730       7840       7841       7852       7851  
      7720       7721       7732       7731       7841       7842       7853       7852  
      7721       7722       7733       7732       7842       7843       7854       7853  
      7723       7724       7735       7734       7844       7845       7856       7855  
      7724       7725       7736       7735       7845       7846       7857       7856  
      7725       7726       7737       7736       7846       7847       7858       7857  
      7726       7727       7738       7737       7847       7848       7859       7858  
      7727       7728       7739       7738       7848       7849       7860       7859  
      7728       7729       7740       7739       7849       7850       7861       7860  
      7729       7730       7741       7740       7850       7851       7862       7861  
      7730       7731       7742       7741       7851       7852       7863       7862  
      7731       7732       7743       7742       7852       7853       7864       7863  
      7732       7733       7744       7743       7853       7854       7865       7864  
      7745       7746       7757       7756       7866       7867       7878       7877  
      7746       7747       7758       7757       7867       7868       7879       7878  
      7747       7748       7759       7758       7868       7869       7880       7879  
      7748       7749       7760       7759       7869       7870       7881       7880  
      7749       7750       7761       7760       7870       7871       7882       7881  
      7750       7751       7762       7761       7871       7872       7883       7882  
      7751       7752       7763       7762       7872       7873       7884       7883  
      7752       7753       7764       7763       7873       7874       7885       7884  
      7753       7754       7765       7764       7874       7875       7886       7885  
      7754       7755       7766       7765       7875       7876       7887       7886  
      7756       7757       7768       7767       7877       7878       7889       7888  
      7757       7758       7769       7768       7878       7879       7890       7889  
      7758       7759       7770       7769       7879       7880       7891       7890  
      7759       7760       7771       7770       7880       7881       7892       7891  
      7760       7761       7772       7771       7881       7882       7893       7892  
      7761       7762       7773       7772       7882       7883       7894       7893  
      7762       7763       7774       7773       7883       7884       7895       7894  
      7763       7764       7775       7774       7884       7885       7896       7895  
      7764       7765       7776       7775       7885       7886       7897       7896  
      7765       7766       7777       7776       7886       7887       7898       7897  
      7767       7768       7779       7778       7888       7889       7900       7899  
      7768       7769       7780       7779       7889       7890       7901       7900  
      7769       7770       7781       7780       7890       7891       7902       7901  
      7770       7771       7782       7781       7891       7892       7903       7902  
      7771       7772       7783       7782       7892       7893       7904       7903  
      7772       7773       7784       7783       7893       7894       7905       7904  
      7773       7774       7785       7784       7894       7895       7906       7905  
      7774       7775       7786       7785       7895       7896       7907       7906  
      7775       7776       7787       7786       7896       7897       7908       7907  
      7776       7777       7788       7787       7897       7898       7909       7908  
      7778       7779       7790       7789       7899       7900       7911       7910  
      7779       7780       7791       7790       7900       7901       7912       7911  
      7780       7781       7792       7791       7901       7902       7913       7912  
      7781       7782       7793       7792       7902       7903       7914       7913  
      7782       7783       7794       7793       7903       7904       7915       7914  
      7783       7784       7795       7794       7904       7905       7916       7915  
      7784       7785       7796       7795       7905       7906       7917       7916  
      7785       7786       7797       7796       7906       7907       7918       7917  
      7786       7787       7798       7797       7907       7908       7919       7918  
      7787       7788       7799       7798       7908       7909       7920       7919  
      7789       7790       7801       7800       7910       7911       7922       7921  
      7790       7791       7802       7801       7911       7912       7923       7922  
      7791       7792       7803       7802       7912       7913       7924       7923  
      7792       7793       7804       7803       7913       7914       7925       7924  
      7793       7794       7805       7804       7914       7915       7926       7925  
      7794       7795       7806       7805       7915       7916       7927       7926  
      7795       7796       7807       7806       7916       7917       7928       7927  
      7796       7797       7808       7807       7917       7918       7929       7928  
      7797       7798       7809       7808       7918       7919       7930       7929  
      7798       7799       7810       7809       7919       7920       7931       7930  
      7800       7801       7812       7811       7921       7922       7933       7932  
      7801       7802       7813       7812       7922       7923       7934       7933  
      7802       7803       7814       7813       7923       7924       7935       7934  
      7803       7804       7815       7814       7924       7925       7936       7935  
      7804       7805       7816       7815       7925       7926       7937       7936  
      7805       7806       7817       7816       7926       7927       7938       7937  
      7806       7807       7818       7817       7927       7928       7939       7938  
      7807       7808       7819       7818       7928       7929       7940       7939  
      7808       7809       7820       7819       7929       7930       7941       7940  
      7809       7810       7821       7820       7930       7931       7942       7941  
      7811       7812       7823       7822       7932       7933       7944       7943  
      7812       7813       7824       7823       7933       7934       7945       7944  
      7813       7814       7825       7824       7934       7935       7946       7945  
      7814       7815       7826       7825       7935       7936       7947       7946  
      7815       7816       7827       7826       7936       7937       7948       7947  
      7816       7817       7828       7827       7937       7938       7949       7948  
      7817       7818       7829       7828       7938       7939       7950       7949  
      7818       7819       7830       7829       7939       7940       7951       7950  
      7819       7820       7831       7830       7940       7941       7952       7951  
      7820       7821       7832       7831       7941       7942       7953       7952  
      7822       7823       7834       7833       7943       7944       7955       7954  
      7823       7824       7835       7834       7944       7945       7956       7955  
      7824       7825       7836       7835       7945       7946       7957       7956  
      7825       7826       7837       7836       7946       7947       7958       7957  
      7826       7827       7838       7837       7947       7948       7959       7958  
      7827       7828       7839       7838       7948       7949       7960       7959  
      7828       7829       7840       7839       7949       7950       7961       7960  
      7829       7830       7841       7840       7950       7951       7962       7961  
      7830       7831       7842       7841       7951       7952       7963       7962  
      7831       7832       7843       7842       7952       7953       7964       7963  
      7833       7834       7845       7844       7954       7955       7966       7965  
      7834       7835       7846       7845       7955       7956       7967       7966  
      7835       7836       7847       7846       7956       7957       7968       7967  
      7836       7837       7848       7847       7957       7958       7969       7968  
      7837       7838       7849       7848       7958       7959       7970       7969  
      7838       7839       7850       7849       7959       7960       7971       7970  
      7839       7840       7851       7850       7960       7961       7972       7971  
      7840       7841       7852       7851       7961       7962       7973       7972  
      7841       7842       7853       7852       7962       7963       7974       7973  
      7842       7843       7854       7853       7963       7964       7975       7974  
      7844       7845       7856       7855       7965       7966       7977       7976  
      7845       7846       7857       7856       7966       7967       7978       7977  
      7846       7847       7858       7857       7967       7968       7979       7978  
      7847       7848       7859       7858       7968       7969       7980       7979  
      7848       7849       7860       7859       7969       7970       7981       7980  
      7849       7850       7861       7860       7970       7971       7982       7981  
      7850       7851       7862       7861       7971       7972       7983       7982  
      7851       7852       7863       7862       7972       7973       7984       7983  
      7852       7853       7864       7863       7973       7974       7985       7984  
      7853       7854       7865       7864       7974       7975       7986       7985  
      7866       7867       7878       7877       7987       7988       7999       7998  
      7867       7868       7879       7878       7988       7989       8000       7999  
      7868       7869       7880       7879       7989       7990       8001       8000  
      7869       7870       7881       7880       7990       7991       8002       8001  
      7870       7871       7882       7881       7991       7992       8003       8002  
      7871       7872       7883       7882       7992       7993       8004       8003  
      7872       7873       7884       7883       7993       7994       8005       8004  
      7873       7874       7885       7884       7994       7995       8006       8005  
      7874       7875       7886       7885       7995       7996       8007       8006  
      7875       7876       7887       7886       7996       7997       8008       8007  
      7877       7878       7889       7888       7998       7999       8010       8009  
      7878       7879       7890       7889       7999       8000       8011       8010  
      7879       7880       7891       7890       8000       8001       8012       8011  
      7880       7881       7892       7891       8001       8002       8013       8012  
      7881       7882       7893       7892       8002       8003       8014       8013  
      7882       7883       7894       7893       8003       8004       8015       8014  
      7883       7884       7895       7894       8004       8005       8016       8015  
      7884       7885       7896       7895       8005       8006       8017       8016  
      7885       7886       7897       7896       8006       8007       8018       8017  
      7886       7887       7898       7897       8007       8008       8019       8018  
      7888       7889       7900       7899       8009       8010       8021       8020  
      7889       7890       7901       7900       8010       8011       8022       8021  
      7890       7891       7902       7901       8011       8012       8023       8022  
      7891       7892       7903       7902       8012       8013       8024       8023  
      7892       7893       7904       7903       8013       8014       8025       8024  
      7893       7894       7905       7904       8014       8015       8026       8025  
      7894       7895       7906       7905       8015       8016       8027       8026  
      7895       7896       7907       7906       8016       8017       8028       8027  
      7896       7897       7908       7907       8017       8018       8029       8028  
      7897       7898       7909       7908       8018       8019       8030       8029  
      7899       7900       7911       7910       8020       8021       8032       8031  
      7900       7901       7912       7911       8021       8022       8033       8032  
      7901       7902       7913       7912       8022       8023       8034       8033  
      7902       7903       7914       7913       8023       8024       8035       8034  
      7903       7904       7915       7914       8024       8025       8036       8035  
      7904       7905       7916       7915       8025       8026       8037       8036  
      7905       7906       7917       7916       8026       8027       8038       8037  
      7906       7907       7918       7917       8027       8028       8039       8038  
      7907       7908       7919       7918       8028       8029       8040       8039  
      7908       7909       7920       7919       8029       8030       8041       8040  
      7910       7911       7922       7921       8031       8032       8043       8042  
      7911       7912       7923       7922       8032       8033       8044       8043  
      7912       7913       7924       7923       8033       8034       8045       8044  
      7913       7914       7925       7924       8034       8035       8046       8045  
      7914       7915       7926       7925       8035       8036       8047       8046  
      7915       7916       7927       7926       8036       8037       8048       8047  
      7916       7917       7928       7927       8037       8038       8049       8048  
      7917       7918       7929       7928       8038       8039       8050       8049  
      7918       7919       7930       7929       8039       8040       8051       8050  
      7919       7920       7931       7930       8040       8041       8052       8051  
      7921       7922       7933       7932       8042       8043       8054       8053  
      7922       7923       7934       7933       8043       8044       8055       8054  
      7923       7924       7935       7934       8044       8045       8056       8055  
      7924       7925       7936       7935       8045       8046       8057       8056  
      7925       7926       7937       7936       8046       8047       8058       8057  
      7926       7927       7938       7937       8047       8048       8059       8058  
      7927       7928       7939       7938       8048       8049       8060       8059  
      7928       7929       7940       7939       8049       8050       8061       8060  
      7929       7930       7941       7940       8050       8051       8062       8061  
      7930       7931       7942       7941       8051       8052       8063       8062  
      7932       7933       7944       7943       8053       8054       8065       8064  
      7933       7934       7945       7944       8054       8055       8066       8065  
      7934       7935       7946       7945       8055       8056       8067       8066  
      7935       7936       7947       7946       8056       8057       8068       8067  
      7936       7937       7948       7947       8057       8058       8069       8068  
      7937       7938       7949       7948       8058       8059       8070       8069  
      7938       7939       7950       7949       8059       8060       8071       8070  
      7939       7940       7951       7950       8060       8061       8072       8071  
      7940       7941       7952       7951       8061       8062       8073       8072  
      7941       7942       7953       7952       8062       8063       8074       8073  
      7943       7944       7955       7954       8064       8065       8076       8075  
      7944       7945       7956       7955       8065       8066       8077       8076  
      7945       7946       7957       7956       8066       8067       8078       8077  
      7946       7947       7958       7957       8067       8068       8079       8078  
      7947       7948       7959       7958       8068       8069       8080       8079  
      7948       7949       7960       7959       8069       8070       8081       8080  
      7949       7950       7961       7960       8070       8071       8082       8081  
      7950       7951       7962       7961       8071       8072       8083       8082  
      7951       7952       7963       7962       8072       8073       8084       8083  
      7952       7953       7964       7963       8073       8074       8085       8084  
      7954       7955       7966       7965       8075       8076       8087       8086  
      7955       7956       7967       7966       8076       8077       8088       8087  
      7956       7957       7968       7967       8077       8078       8089       8088  
      7957       7958       7969       7968       8078       8079       8090       8089  
      7958       7959       7970       7969       8079       8080       8091       8090  
      7959       7960       7971       7970       8080       8081       8092       8091  
      7960       7961       7972       7971       8081       8082       8093       8092  
      7961       7962       7973       7972       8082       8083       8094       8093  
      7962       7963       7974       7973       8083       8084       8095       8094  
      7963       7964       7975       7974       8084       8085       8096       8095  
      7965       7966       7977       7976       8086       8087       8098       8097  
      7966       7967       7978       7977       8087       8088       8099       8098  
      7967       7968       7979       7978       8088       8089       8100       8099  
      7968       7969       7980       7979       8089       8090       8101       8100  
      7969       7970       7981       7980       8090       8091       8102       8101  
      7970       7971       7982       7981       8091       8092       8103       8102  
      7971       7972       7983       7982       8092       8093       8104       8103  
      7972       7973       7984       7983       8093       8094       8105       8104  
      7973       7974       7985       7984       8094       8095       8106       8105  
      7974       7975       7986       7985       8095       8096       8107       8106  
      7987       7988       7999       7998       8108       8109       8120       8119  
      7988       7989       8000       7999       8109       8110       8121       8120  
      7989       7990       8001       8000       8110       8111       8122       8121  
      7990       7991       8002       8001       8111       8112       8123       8122  
      7991       7992       8003       8002       8112       8113       8124       8123  
      7992       7993       8004       8003       8113       8114       8125       8124  
      7993       7994       8005       8004       8114       8115       8126       8125  
      7994       7995       8006       8005       8115       8116       8127       8126  
      7995       7996       8007       8006       8116       8117       8128       8127  
      7996       7997       8008       8007       8117       8118       8129       8128  
      7998       7999       8010       8009       8119       8120       8131       8130  
      7999       8000       8011       8010       8120       8121       8132       8131  
      8000       8001       8012       8011       8121       8122       8133       8132  
      8001       8002       8013       8012       8122       8123       8134       8133  
      8002       8003       8014       8013       8123       8124       8135       8134  
      8003       8004       8015       8014       8124       8125       8136       8135  
      8004       8005       8016       8015       8125       8126       8137       8136  
      8005       8006       8017       8016       8126       8127       8138       8137  
      8006       8007       8018       8017       8127       8128       8139       8138  
      8007       8008       8019       8018       8128       8129       8140       8139  
      8009       8010       8021       8020       8130       8131       8142       8141  
      8010       8011       8022       8021       8131       8132       8143       8142  
      8011       8012       8023       8022       8132       8133       8144       8143  
      8012       8013       8024       8023       8133       8134       8145       8144  
      8013       8014       8025       8024       8134       8135       8146       8145  
      8014       8015       8026       8025       8135       8136       8147       8146  
      8015       8016       8027       8026       8136       8137       8148       8147  
      8016       8017       8028       8027       8137       8138       8149       8148  
      8017       8018       8029       8028       8138       8139       8150       8149  
      8018       8019       8030       8029       8139       8140       8151       8150  
      8020       8021       8032       8031       8141       8142       8153       8152  
      8021       8022       8033       8032       8142       8143       8154       8153  
      8022       8023       8034       8033       8143       8144       8155       8154  
      8023       8024       8035       8034       8144       8145       8156       8155  
      8024       8025       8036       8035       8145       8146       8157       8156  
      8025       8026       8037       8036       8146       8147       8158       8157  
      8026       8027       8038       8037       8147       8148       8159       8158  
      8027       8028       8039       8038       8148       8149       8160       8159  
      8028       8029       8040       8039       8149       8150       8161       8160  
      8029       8030       8041       8040       8150       8151       8162       8161  
      8031       8032       8043       8042       8152       8153       8164       8163  
      8032       8033       8044       8043       8153       8154       8165       8164  
      8033       8034       8045       8044       8154       8155       8166       8165  
      8034       8035       8046       8045       8155       8156       8167       8166  
      8035       8036       8047       8046       8156       8157       8168       8167  
      8036       8037       8048       8047       8157       8158       8169       8168  
      8037       8038       8049       8048       8158       8159       8170       8169  
      8038       8039       8050       8049       8159       8160       8171       8170  
      8039       8040       8051       8050       8160       8161       8172       8171  
      8040       8041       8052       8051       8161       8162       8173       8172  
      8042       8043       8054       8053       8163       8164       8175       8174  
      8043       8044       8055       8054       8164       8165       8176       8175  
      8044       8045       8056       8055       8165       8166       8177       8176  
      8045       8046       8057       8056       8166       8167       8178       8177  
      8046       8047       8058       8057       8167       8168       8179       8178  
      8047       8048       8059       8058       8168       8169       8180       8179  
      8048       8049       8060       8059       8169       8170       8181       8180  
      8049       8050       8061       8060       8170       8171       8182       8181  
      8050       8051       8062       8061       8171       8172       8183       8182  
      8051       8052       8063       8062       8172       8173       8184       8183  
      8053       8054       8065       8064       8174       8175       8186       8185  
      8054       8055       8066       8065       8175       8176       8187       8186  
      8055       8056       8067       8066       8176       8177       8188       8187  
      8056       8057       8068       8067       8177       8178       8189       8188  
      8057       8058       8069       8068       8178       8179       8190       8189  
      8058       8059       8070       8069       8179       8180       8191       8190  
      8059       8060       8071       8070       8180       8181       8192       8191  
      8060       8061       8072       8071       8181       8182       8193       8192  
      8061       8062       8073       8072       8182       8183       8194       8193  
      8062       8063       8074       8073       8183       8184       8195       8194  
      8064       8065       8076       8075       8185       8186       8197       8196  
      8065       8066       8077       8076       8186       8187       8198       8197  
      8066       8067       8078       8077       8187       8188       8199       8198  
      8067       8068       8079       8078       8188       8189       8200       8199  
      8068       8069       8080       8079       8189       8190       8201       8200  
      8069       8070       8081       8080       8190       8191       8202       8201  
      8070       8071       8082       8081       8191       8192       8203       8202  
      8071       8072       8083       8082       8192       8193       8204       8203  
      8072       8073       8084       8083       8193       8194       8205       8204  
      8073       8074       8085       8084       8194       8195       8206       8205  
      8075       8076       8087       8086       8196       8197       8208       8207  
      8076       8077       8088       8087       8197       8198       8209       8208  
      8077       8078       8089       8088       8198       8199       8210       8209  
      8078       8079       8090       8089       8199       8200       8211       8210  
      8079       8080       8091       8090       8200       8201       8212       8211  
      8080       8081       8092       8091       8201       8202       8213       8212  
      8081       8082       8093       8092       8202       8203       8214       8213  
      8082       8083       8094       8093       8203       8204       8215       8214  
      8083       8084       8095       8094       8204       8205       8216       8215  
      8084       8085       8096       8095       8205       8206       8217       8216  
      8086       8087       8098       8097       8207       8208       8219       8218  
      8087       8088       8099       8098       8208       8209       8220       8219  
      8088       8089       8100       8099       8209       8210       8221       8220  
      8089       8090       8101       8100       8210       8211       8222       8221  
      8090       8091       8102       8101       8211       8212       8223       8222  
      8091       8092       8103       8102       8212       8213       8224       8223  
      8092       8093       8104       8103       8213       8214       8225       8224  
      8093       8094       8105       8104       8214       8215       8226       8225  
      8094       8095       8106       8105       8215       8216       8227       8226  
      8095       8096       8107       8106       8216       8217       8228       8227  
      8108       8109       8120       8119       8229       8230       8241       8240  
      8109       8110       8121       8120       8230       8231       8242       8241  
      8110       8111       8122       8121       8231       8232       8243       8242  
      8111       8112       8123       8122       8232       8233       8244       8243  
      8112       8113       8124       8123       8233       8234       8245       8244  
      8113       8114       8125       8124       8234       8235       8246       8245  
      8114       8115       8126       8125       8235       8236       8247       8246  
      8115       8116       8127       8126       8236       8237       8248       8247  
      8116       8117       8128       8127       8237       8238       8249       8248  
      8117       8118       8129       8128       8238       8239       8250       8249  
      8119       8120       8131       8130       8240       8241       8252       8251  
      8120       8121       8132       8131       8241       8242       8253       8252  
      8121       8122       8133       8132       8242       8243       8254       8253  
      8122       8123       8134       8133       8243       8244       8255       8254  
      8123       8124       8135       8134       8244       8245       8256       8255  
      8124       8125       8136       8135       8245       8246       8257       8256  
      8125       8126       8137       8136       8246       8247       8258       8257  
      8126       8127       8138       8137       8247       8248       8259       8258  
      8127       8128       8139       8138       8248       8249       8260       8259  
      8128       8129       8140       8139       8249       8250       8261       8260  
      8130       8131       8142       8141       8251       8252       8263       8262  
      8131       8132       8143       8142       8252       8253       8264       8263  
      8132       8133       8144       8143       8253       8254       8265       8264  
      8133       8134       8145       8144       8254       8255       8266       8265  
      8134       8135       8146       8145       8255       8256       8267       8266  
      8135       8136       8147       8146       8256       8257       8268       8267  
      8136       8137       8148       8147       8257       8258       8269       8268  
      8137       8138       8149       8148       8258       8259       8270       8269  
      8138       8139       8150       8149       8259       8260       8271       8270  
      8139       8140       8151       8150       8260       8261       8272       8271  
      8141       8142       8153       8152       8262       8263       8274       8273  
      8142       8143       8154       8153       8263       8264       8275       8274  
      8143       8144       8155       8154       8264       8265       8276       8275  
      8144       8145       8156       8155       8265       8266       8277       8276  
      8145       8146       8157       8156       8266       8267       8278       8277  
      8146       8147       8158       8157       8267       8268       8279       8278  
      8147       8148       8159       8158       8268       8269       8280       8279  
      8148       8149       8160       8159       8269       8270       8281       8280  
      8149       8150       8161       8160       8270       8271       8282       8281  
      8150       8151       8162       8161       8271       8272       8283       8282  
      8152       8153       8164       8163       8273       8274       8285       8284  
      8153       8154       8165       8164       8274       8275       8286       8285  
      8154       8155       8166       8165       8275       8276       8287       8286  
      8155       8156       8167       8166       8276       8277       8288       8287  
      8156       8157       8168       8167       8277       8278       8289       8288  
      8157       8158       8169       8168       8278       8279       8290       8289  
      8158       8159       8170       8169       8279       8280       8291       8290  
      8159       8160       8171       8170       8280       8281       8292       8291  
      8160       8161       8172       8171       8281       8282       8293       8292  
      8161       8162       8173       8172       8282       8283       8294       8293  
      8163       8164       8175       8174       8284       8285       8296       8295  
      8164       8165       8176       8175       8285       8286       8297       8296  
      8165       8166       8177       8176       8286       8287       8298       8297  
      8166       8167       8178       8177       8287       8288       8299       8298  
      8167       8168       8179       8178       8288       8289       8300       8299  
      8168       8169       8180       8179       8289       8290       8301       8300  
      8169       8170       8181       8180       8290       8291       8302       8301  
      8170       8171       8182       8181       8291       8292       8303       8302  
      8171       8172       8183       8182       8292       8293       8304       8303  
      8172       8173       8184       8183       8293       8294       8305       8304  
      8174       8175       8186       8185       8295       8296       8307       8306  
      8175       8176       8187       8186       8296       8297       8308       8307  
      8176       8177       8188       8187       8297       8298       8309       8308  
      8177       8178       8189       8188       8298       8299       8310       8309  
      8178       8179       8190       8189       8299       8300       8311       8310  
      8179       8180       8191       8190       8300       8301       8312       8311  
      8180       8181       8192       8191       8301       8302       8313       8312  
      8181       8182       8193       8192       8302       8303       8314       8313  
      8182       8183       8194       8193       8303       8304       8315       8314  
      8183       8184       8195       8194       8304       8305       8316       8315  
      8185       8186       8197       8196       8306       8307       8318       8317  
      8186       8187       8198       8197       8307       8308       8319       8318  
      8187       8188       8199       8198       8308       8309       8320       8319  
      8188       8189       8200       8199       8309       8310       8321       8320  
      8189       8190       8201       8200       8310       8311       8322       8321  
      8190       8191       8202       8201       8311       8312       8323       8322  
      8191       8192       8203       8202       8312       8313       8324       8323  
      8192       8193       8204       8203       8313       8314       8325       8324  
      8193       8194       8205       8204       8314       8315       8326       8325  
      8194       8195       8206       8205       8315       8316       8327       8326  
      8196       8197       8208       8207       8317       8318       8329       8328  
      8197       8198       8209       8208       8318       8319       8330       8329  
      8198       8199       8210       8209       8319       8320       8331       8330  
      8199       8200       8211       8210       8320       8321       8332       8331  
      8200       8201       8212       8211       8321       8322       8333       8332  
      8201       8202       8213       8212       8322       8323       8334       8333  
      8202       8203       8214       8213       8323       8324       8335       8334  
      8203       8204       8215       8214       8324       8325       8336       8335  
      8204       8205       8216       8215       8325       8326       8337       8336  
      8205       8206       8217       8216       8326       8327       8338       8337  
      8207       8208       8219       8218       8328       8329       8340       8339  
      8208       8209       8220       8219       8329       8330       8341       8340  
      8209       8210       8221       8220       8330       8331       8342       8341  
      8210       8211       8222       8221       8331       8332       8343       8342  
      8211       8212       8223       8222       8332       8333       8344       8343  
      8212       8213       8224       8223       8333       8334       8345       8344  
      8213       8214       8225       8224       8334       8335       8346       8345  
      8214       8215       8226       8225       8335       8336       8347       8346  
      8215       8216       8227       8226       8336       8337       8348       8347  
      8216       8217       8228       8227       8337       8338       8349       8348  
      8229       8230       8241       8240       8350       8351       8362       8361  
      8230       8231       8242       8241       8351       8352       8363       8362  
      8231       8232       8243       8242       8352       8353       8364       8363  
      8232       8233       8244       8243       8353       8354       8365       8364  
      8233       8234       8245       8244       8354       8355       8366       8365  
      8234       8235       8246       8245       8355       8356       8367       8366  
      8235       8236       8247       8246       8356       8357       8368       8367  
      8236       8237       8248       8247       8357       8358       8369       8368  
      8237       8238       8249       8248       8358       8359       8370       8369  
      8238       8239       8250       8249       8359       8360       8371       8370  
      8240       8241       8252       8251       8361       8362       8373       8372  
      8241       8242       8253       8252       8362       8363       8374       8373  
      8242       8243       8254       8253       8363       8364       8375       8374  
      8243       8244       8255       8254       8364       8365       8376       8375  
      8244       8245       8256       8255       8365       8366       8377       8376  
      8245       8246       8257       8256       8366       8367       8378       8377  
      8246       8247       8258       8257       8367       8368       8379       8378  
      8247       8248       8259       8258       8368       8369       8380       8379  
      8248       8249       8260       8259       8369       8370       8381       8380  
      8249       8250       8261       8260       8370       8371       8382       8381  
      8251       8252       8263       8262       8372       8373       8384       8383  
      8252       8253       8264       8263       8373       8374       8385       8384  
      8253       8254       8265       8264       8374       8375       8386       8385  
      8254       8255       8266       8265       8375       8376       8387       8386  
      8255       8256       8267       8266       8376       8377       8388       8387  
      8256       8257       8268       8267       8377       8378       8389       8388  
      8257       8258       8269       8268       8378       8379       8390       8389  
      8258       8259       8270       8269       8379       8380       8391       8390  
      8259       8260       8271       8270       8380       8381       8392       8391  
      8260       8261       8272       8271       8381       8382       8393       8392  
      8262       8263       8274       8273       8383       8384       8395       8394  
      8263       8264       8275       8274       8384       8385       8396       8395  
      8264       8265       8276       8275       8385       8386       8397       8396  
      8265       8266       8277       8276       8386       8387       8398       8397  
      8266       8267       8278       8277       8387       8388       8399       8398  
      8267       8268       8279       8278       8388       8389       8400       8399  
      8268       8269       8280       8279       8389       8390       8401       8400  
      8269       8270       8281       8280       8390       8391       8402       8401  
      8270       8271       8282       8281       8391       8392       8403       8402  
      8271       8272       8283       8282       8392       8393       8404       8403  
      8273       8274       8285       8284       8394       8395       8406       8405  
      8274       8275       8286       8285       8395       8396       8407       8406  
      8275       8276       8287       8286       8396       8397       8408       8407  
      8276       8277       8288       8287       8397       8398       8409       8408  
      8277       8278       8289       8288       8398       8399       8410       8409  
      8278       8279       8290       8289       8399       8400       8411       8410  
      8279       8280       8291       8290       8400       8401       8412       8411  
      8280       8281       8292       8291       8401       8402       8413       8412  
      8281       8282       8293       8292       8402       8403       8414       8413  
      8282       8283       8294       8293       8403       8404       8415       8414  
      8284       8285       8296       8295       8405       8406       8417       8416  
      8285       8286       8297       8296       8406       8407       8418       8417  
      8286       8287       8298       8297       8407       8408       8419       8418  
      8287       8288       8299       8298       8408       8409       8420       8419  
      8288       8289       8300       8299       8409       8410       8421       8420  
      8289       8290       8301       8300       8410       8411       8422       8421  
      8290       8291       8302       8301       8411       8412       8423       8422  
      8291       8292       8303       8302       8412       8413       8424       8423  
      8292       8293       8304       8303       8413       8414       8425       8424  
      8293       8294       8305       8304       8414       8415       8426       8425  
      8295       8296       8307       8306       8416       8417       8428       8427  
      8296       8297       8308       8307       8417       8418       8429       8428  
      8297       8298       8309       8308       8418       8419       8430       8429  
      8298       8299       8310       8309       8419       8420       8431       8430  
      8299       8300       8311       8310       8420       8421       8432       8431  
      8300       8301       8312       8311       8421       8422       8433       8432  
      8301       8302       8313       8312       8422       8423       8434       8433  
      8302       8303       8314       8313       8423       8424       8435       8434  
      8303       8304       8315       8314       8424       8425       8436       8435  
      8304       8305       8316       8315       8425       8426       8437       8436  
      8306       8307       8318       8317       8427       8428       8439       8438  
      8307       8308       8319       8318       8428       8429       8440       8439  
      8308       8309       8320       8319       8429       8430       8441       8440  
      8309       8310       8321       8320       8430       8431       8442       8441  
      8310       8311       8322       8321       8431       8432       8443       8442  
      8311       8312       8323       8322       8432       8433       8444       8443  
      8312       8313       8324       8323       8433       8434       8445       8444  
      8313       8314       8325       8324       8434       8435       8446       8445  
      8314       8315       8326       8325       8435       8436       8447       8446  
      8315       8316       8327       8326       8436       8437       8448       8447  
      8317       8318       8329       8328       8438       8439       8450       8449  
      8318       8319       8330       8329       8439       8440       8451       8450  
      8319       8320       8331       8330       8440       8441       8452       8451  
      8320       8321       8332       8331       8441       8442       8453       8452  
      8321       8322       8333       8332       8442       8443       8454       8453  
      8322       8323       8334       8333       8443       8444       8455       8454  
      8323       8324       8335       8334       8444       8445       8456       8455  
      8324       8325       8336       8335       8445       8446       8457       8456  
      8325       8326       8337       8336       8446       8447       8458       8457  
      8326       8327       8338       8337       8447       8448       8459       8458  
      8328       8329       8340       8339       8449       8450       8461       8460  
      8329       8330       8341       8340       8450       8451       8462       8461  
      8330       8331       8342       8341       8451       8452       8463       8462  
      8331       8332       8343       8342       8452       8453       8464       8463  
      8332       8333       8344       8343       8453       8454       8465       8464  
      8333       8334       8345       8344       8454       8455       8466       8465  
      8334       8335       8346       8345       8455       8456       8467       8466  
      8335       8336       8347       8346       8456       8457       8468       8467  
      8336       8337       8348       8347       8457       8458       8469       8468  
      8337       8338       8349       8348       8458       8459       8470       8469  
      8350       8351       8362       8361       8471       8472       8483       8482  
      8351       8352       8363       8362       8472       8473       8484       8483  
      8352       8353       8364       8363       8473       8474       8485       8484  
      8353       8354       8365       8364       8474       8475       8486       8485  
      8354       8355       8366       8365       8475       8476       8487       8486  
      8355       8356       8367       8366       8476       8477       8488       8487  
      8356       8357       8368       8367       8477       8478       8489       8488  
      8357       8358       8369       8368       8478       8479       8490       8489  
      8358       8359       8370       8369       8479       8480       8491       8490  
      8359       8360       8371       8370       8480       8481       8492       8491  
      8361       8362       8373       8372       8482       8483       8494       8493  
      8362       8363       8374       8373       8483       8484       8495       8494  
      8363       8364       8375       8374       8484       8485       8496       8495  
      8364       8365       8376       8375       8485       8486       8497       8496  
      8365       8366       8377       8376       8486       8487       8498       8497  
      8366       8367       8378       8377       8487       8488       8499       8498  
      8367       8368       8379       8378       8488       8489       8500       8499  
      8368       8369       8380       8379       8489       8490       8501       8500  
      8369       8370       8381       8380       8490       8491       8502       8501  
      8370       8371       8382       8381       8491       8492       8503       8502  
      8372       8373       8384       8383       8493       8494       8505       8504  
      8373       8374       8385       8384       8494       8495       8506       8505  
      8374       8375       8386       8385       8495       8496       8507       8506  
      8375       8376       8387       8386       8496       8497       8508       8507  
      8376       8377       8388       8387       8497       8498       8509       8508  
      8377       8378       8389       8388       8498       8499       8510       8509  
      8378       8379       8390       8389       8499       8500       8511       8510  
      8379       8380       8391       8390       8500       8501       8512       8511  
      8380       8381       8392       8391       8501       8502       8513       8512  
      8381       8382       8393       8392       8502       8503       8514       8513  
      8383       8384       8395       8394       8504       8505       8516       8515  
      8384       8385       8396       8395       8505       8506       8517       8516  
      8385       8386       8397       8396       8506       8507       8518       8517  
      8386       8387       8398       8397       8507       8508       8519       8518  
      8387       8388       8399       8398       8508       8509       8520       8519  
      8388       8389       8400       8399       8509       8510       8521       8520  
      8389       8390       8401       8400       8510       8511       8522       8521  
      8390       8391       8402       8401       8511       8512       8523       8522  
      8391       8392       8403       8402       8512       8513       8524       8523  
      8392       8393       8404       8403       8513       8514       8525       8524  
      8394       8395       8406       8405       8515       8516       8527       8526  
      8395       8396       8407       8406       8516       8517       8528       8527  
      8396       8397       8408       8407       8517       8518       8529       8528  
      8397       8398       8409       8408       8518       8519       8530       8529  
      8398       8399       8410       8409       8519       8520       8531       8530  
      8399       8400       8411       8410       8520       8521       8532       8531  
      8400       8401       8412       8411       8521       8522       8533       8532  
      8401       8402       8413       8412       8522       8523       8534       8533  
      8402       8403       8414       8413       8523       8524       8535       8534  
      8403       8404       8415       8414       8524       8525       8536       8535  
      8405       8406       8417       8416       8526       8527       8538       8537  
      8406       8407       8418       8417       8527       8528       8539       8538  
      8407       8408       8419       8418       8528       8529       8540       8539  
      8408       8409       8420       8419       8529       8530       8541       8540  
      8409       8410       8421       8420       8530       8531       8542       8541  
      8410       8411       8422       8421       8531       8532       8543       8542  
      8411       8412       8423       8422       8532       8533       8544       8543  
      8412       8413       8424       8423       8533       8534       8545       8544  
      8413       8414       8425       8424       8534       8535       8546       8545  
      8414       8415       8426       8425       8535       8536       8547       8546  
      8416       8417       8428       8427       8537       8538       8549       8548  
      8417       8418       8429       8428       8538       8539       8550       8549  
      8418       8419       8430       8429       8539       8540       8551       8550  
      8419       8420       8431       8430       8540       8541       8552       8551  
      8420       8421       8432       8431       8541       8542       8553       8552  
      8421       8422       8433       8432       8542       8543       8554       8553  
      8422       8423       8434       8433       8543       8544       8555       8554  
      8423       8424       8435       8434       8544       8545       8556       8555  
      8424       8425       8436       8435       8545       8546       8557       8556  
      8425       8426       8437       8436       8546       8547       8558       8557  
      8427       8428       8439       8438       8548       8549       8560       8559  
      8428       8429       8440       8439       8549       8550       8561       8560  
      8429       8430       8441       8440       8550       8551       8562       8561  
      8430       8431       8442       8441       8551       8552       8563       8562  
      8431       8432       8443       8442       8552       8553       8564       8563  
      8432       8433       8444       8443       8553       8554       8565       8564  
      8433       8434       8445       8444       8554       8555       8566       8565  
      8434       8435       8446       8445       8555       8556       8567       8566  
      8435       8436       8447       8446       8556       8557       8568       8567  
      8436       8437       8448       8447       8557       8558       8569       8568  
      8438       8439       8450       8449       8559       8560       8571       8570  
      8439       8440       8451       8450       8560       8561       8572       8571  
      8440       8441       8452       8451       8561       8562       8573       8572  
      8441       8442       8453       8452       8562       8563       8574       8573  
      8442       8443       8454       8453       8563       8564       8575       8574  
      8443       8444       8455       8454       8564       8565       8576       8575  
      8444       8445       8456       8455       8565       8566       8577       8576  
      8445       8446       8457       8456       8566       8567       8578       8577  
      8446       8447       8458       8457       8567       8568       8579       8578  
      8447       8448       8459       8458       8568       8569       8580       8579  
      8449       8450       8461       8460       8570       8571       8582       8581  
      8450       8451       8462       8461       8571       8572       8583       8582  
      8451       8452       8463       8462       8572       8573       8584       8583  
      8452       8453       8464       8463       8573       8574       8585       8584  
      8453       8454       8465       8464       8574       8575       8586       8585  
      8454       8455       8466       8465       8575       8576       8587       8586  
      8455       8456       8467       8466       8576       8577       8588       8587  
      8456       8457       8468       8467       8577       8578       8589       8588  
      8457       8458       8469       8468       8578       8579       8590       8589  
      8458       8459       8470       8469       8579       8580       8591       8590  
      8471       8472       8483       8482       8592       8593       8604       8603  
      8472       8473       8484       8483       8593       8594       8605       8604  
      8473       8474       8485       8484       8594       8595       8606       8605  
      8474       8475       8486       8485       8595       8596       8607       8606  
      8475       8476       8487       8486       8596       8597       8608       8607  
      8476       8477       8488       8487       8597       8598       8609       8608  
      8477       8478       8489       8488       8598       8599       8610       8609  
      8478       8479       8490       8489       8599       8600       8611       8610  
      8479       8480       8491       8490       8600       8601       8612       8611  
      8480       8481       8492       8491       8601       8602       8613       8612  
      8482       8483       8494       8493       8603       8604       8615       8614  
      8483       8484       8495       8494       8604       8605       8616       8615  
      8484       8485       8496       8495       8605       8606       8617       8616  
      8485       8486       8497       8496       8606       8607       8618       8617  
      8486       8487       8498       8497       8607       8608       8619       8618  
      8487       8488       8499       8498       8608       8609       8620       8619  
      8488       8489       8500       8499       8609       8610       8621       8620  
      8489       8490       8501       8500       8610       8611       8622       8621  
      8490       8491       8502       8501       8611       8612       8623       8622  
      8491       8492       8503       8502       8612       8613       8624       8623  
      8493       8494       8505       8504       8614       8615       8626       8625  
      8494       8495       8506       8505       8615       8616       8627       8626  
      8495       8496       8507       8506       8616       8617       8628       8627  
      8496       8497       8508       8507       8617       8618       8629       8628  
      8497       8498       8509       8508       8618       8619       8630       8629  
      8498       8499       8510       8509       8619       8620       8631       8630  
      8499       8500       8511       8510       8620       8621       8632       8631  
      8500       8501       8512       8511       8621       8622       8633       8632  
      8501       8502       8513       8512       8622       8623       8634       8633  
      8502       8503       8514       8513       8623       8624       8635       8634  
      8504       8505       8516       8515       8625       8626       8637       8636  
      8505       8506       8517       8516       8626       8627       8638       8637  
      8506       8507       8518       8517       8627       8628       8639       8638  
      8507       8508       8519       8518       8628       8629       8640       8639  
      8508       8509       8520       8519       8629       8630       8641       8640  
      8509       8510       8521       8520       8630       8631       8642       8641  
      8510       8511       8522       8521       8631       8632       8643       8642  
      8511       8512       8523       8522       8632       8633       8644       8643  
      8512       8513       8524       8523       8633       8634       8645       8644  
      8513       8514       8525       8524       8634       8635       8646       8645  
      8515       8516       8527       8526       8636       8637       8648       8647  
      8516       8517       8528       8527       8637       8638       8649       8648  
      8517       8518       8529       8528       8638       8639       8650       8649  
      8518       8519       8530       8529       8639       8640       8651       8650  
      8519       8520       8531       8530       8640       8641       8652       8651  
      8520       8521       8532       8531       8641       8642       8653       8652  
      8521       8522       8533       8532       8642       8643       8654       8653  
      8522       8523       8534       8533       8643       8644       8655       8654  
      8523       8524       8535       8534       8644       8645       8656       8655  
      8524       8525       8536       8535       8645       8646       8657       8656  
      8526       8527       8538       8537       8647       8648       8659       8658  
      8527       8528       8539       8538       8648       8649       8660       8659  
      8528       8529       8540       8539       8649       8650       8661       8660  
      8529       8530       8541       8540       8650       8651       8662       8661  
      8530       8531       8542       8541       8651       8652       8663       8662  
      8531       8532       8543       8542       8652       8653       8664       8663  
      8532       8533       8544       8543       8653       8654       8665       8664  
      8533       8534       8545       8544       8654       8655       8666       8665  
      8534       8535       8546       8545       8655       8656       8667       8666  
      8535       8536       8547       8546       8656       8657       8668       8667  
      8537       8538       8549       8548       8658       8659       8670       8669  
      8538       8539       8550       8549       8659       8660       8671       8670  
      8539       8540       8551       8550       8660       8661       8672       8671  
      8540       8541       8552       8551       8661       8662       8673       8672  
      8541       8542       8553       8552       8662       8663       8674       8673  
      8542       8543       8554       8553       8663       8664       8675       8674  
      8543       8544       8555       8554       8664       8665       8676       8675  
      8544       8545       8556       8555       8665       8666       8677       8676  
      8545       8546       8557       8556       8666       8667       8678       8677  
      8546       8547       8558       8557       8667       8668       8679       8678  
      8548       8549       8560       8559       8669       8670       8681       8680  
      8549       8550       8561       8560       8670       8671       8682       8681  
      8550       8551       8562       8561       8671       8672       8683       8682  
      8551       8552       8563       8562       8672       8673       8684       8683  
      8552       8553       8564       8563       8673       8674       8685       8684  
      8553       8554       8565       8564       8674       8675       8686       8685  
      8554       8555       8566       8565       8675       8676       8687       8686  
      8555       8556       8567       8566       8676       8677       8688       8687  
      8556       8557       8568       8567       8677       8678       8689       8688  
      8557       8558       8569       8568       8678       8679       8690       8689  
      8559       8560       8571       8570       8680       8681       8692       8691  
      8560       8561       8572       8571       8681       8682       8693       8692  
      8561       8562       8573       8572       8682       8683       8694       8693  
      8562       8563       8574       8573       8683       8684       8695       8694  
      8563       8564       8575       8574       8684       8685       8696       8695  
      8564       8565       8576       8575       8685       8686       8697       8696  
      8565       8566       8577       8576       8686       8687       8698       8697  
      8566       8567       8578       8577       8687       8688       8699       8698  
      8567       8568       8579       8578       8688       8689       8700       8699  
      8568       8569       8580       8579       8689       8690       8701       8700  
      8570       8571       8582       8581       8691       8692       8703       8702  
      8571       8572       8583       8582       8692       8693       8704       8703  
      8572       8573       8584       8583       8693       8694       8705       8704  
      8573       8574       8585       8584       8694       8695       8706       8705  
      8574       8575       8586       8585       8695       8696       8707       8706  
      8575       8576       8587       8586       8696       8697       8708       8707  
      8576       8577       8588       8587       8697       8698       8709       8708  
      8577       8578       8589       8588       8698       8699       8710       8709  
      8578       8579       8590       8589       8699       8700       8711       8710  
      8579       8580       8591       8590       8700       8701       8712       8711  
      8592       8593       8604       8603       8713       8714       8725       8724  
      8593       8594       8605       8604       8714       8715       8726       8725  
      8594       8595       8606       8605       8715       8716       8727       8726  
      8595       8596       8607       8606       8716       8717       8728       8727  
      8596       8597       8608       8607       8717       8718       8729       8728  
      8597       8598       8609       8608       8718       8719       8730       8729  
      8598       8599       8610       8609       8719       8720       8731       8730  
      8599       8600       8611       8610       8720       8721       8732       8731  
      8600       8601       8612       8611       8721       8722       8733       8732  
      8601       8602       8613       8612       8722       8723       8734       8733  
      8603       8604       8615       8614       8724       8725       8736       8735  
      8604       8605       8616       8615       8725       8726       8737       8736  
      8605       8606       8617       8616       8726       8727       8738       8737  
      8606       8607       8618       8617       8727       8728       8739       8738  
      8607       8608       8619       8618       8728       8729       8740       8739  
      8608       8609       8620       8619       8729       8730       8741       8740  
      8609       8610       8621       8620       8730       8731       8742       8741  
      8610       8611       8622       8621       8731       8732       8743       8742  
      8611       8612       8623       8622       8732       8733       8744       8743  
      8612       8613       8624       8623       8733       8734       8745       8744  
      8614       8615       8626       8625       8735       8736       8747       8746  
      8615       8616       8627       8626       8736       8737       8748       8747  
      8616       8617       8628       8627       8737       8738       8749       8748  
      8617       8618       8629       8628       8738       8739       8750       8749  
      8618       8619       8630       8629       8739       8740       8751       8750  
      8619       8620       8631       8630       8740       8741       8752       8751  
      8620       8621       8632       8631       8741       8742       8753       8752  
      8621       8622       8633       8632       8742       8743       8754       8753  
      8622       8623       8634       8633       8743       8744       8755       8754  
      8623       8624       8635       8634       8744       8745       8756       8755  
      8625       8626       8637       8636       8746       8747       8758       8757  
      8626       8627       8638       8637       8747       8748       8759       8758  
      8627       8628       8639       8638       8748       8749       8760       8759  
      8628       8629       8640       8639       8749       8750       8761       8760  
      8629       8630       8641       8640       8750       8751       8762       8761  
      8630       8631       8642       8641       8751       8752       8763       8762  
      8631       8632       8643       8642       8752       8753       8764       8763  
      8632       8633       8644       8643       8753       8754       8765       8764  
      8633       8634       8645       8644       8754       8755       8766       8765  
      8634       8635       8646       8645       8755       8756       8767       8766  
      8636       8637       8648       8647       8757       8758       8769       8768  
      8637       8638       8649       8648       8758       8759       8770       8769  
      8638       8639       8650       8649       8759       8760       8771       8770  
      8639       8640       8651       8650       8760       8761       8772       8771  
      8640       8641       8652       8651       8761       8762       8773       8772  
      8641       8642       8653       8652       8762       8763       8774       8773  
      8642       8643       8654       8653       8763       8764       8775       8774  
      8643       8644       8655       8654       8764       8765       8776       8775  
      8644       8645       8656       8655       8765       8766       8777       8776  
      8645       8646       8657       8656       8766       8767       8778       8777  
      8647       8648       8659       8658       8768       8769       8780       8779  
      8648       8649       8660       8659       8769       8770       8781       8780  
      8649       8650       8661       8660       8770       8771       8782       8781  
      8650       8651       8662       8661       8771       8772       8783       8782  
      8651       8652       8663       8662       8772       8773       8784       8783  
      8652       8653       8664       8663       8773       8774       8785       8784  
      8653       8654       8665       8664       8774       8775       8786       8785  
      8654       8655       8666       8665       8775       8776       8787       8786  
      8655       8656       8667       8666       8776       8777       8788       8787  
      8656       8657       8668       8667       8777       8778       8789       8788  
      8658       8659       8670       8669       8779       8780       8791       8790  
      8659       8660       8671       8670       8780       8781       8792       8791  
      8660       8661       8672       8671       8781       8782       8793       8792  
      8661       8662       8673       8672       8782       8783       8794       8793  
      8662       8663       8674       8673       8783       8784       8795       8794  
      8663       8664       8675       8674       8784       8785       8796       8795  
      8664       8665       8676       8675       8785       8786       8797       8796  
      8665       8666       8677       8676       8786       8787       8798       8797  
      8666       8667       8678       8677       8787       8788       8799       8798  
      8667       8668       8679       8678       8788       8789       8800       8799  
      8669       8670       8681       8680       8790       8791       8802       8801  
      8670       8671       8682       8681       8791       8792       8803       8802  
      8671       8672       8683       8682       8792       8793       8804       8803  
      8672       8673       8684       8683       8793       8794       8805       8804  
      8673       8674       8685       8684       8794       8795       8806       8805  
      8674       8675       8686       8685       8795       8796       8807       8806  
      8675       8676       8687       8686       8796       8797       8808       8807  
      8676       8677       8688       8687       8797       8798       8809       8808  
      8677       8678       8689       8688       8798       8799       8810       8809  
      8678       8679       8690       8689       8799       8800       8811       8810  
      8680       8681       8692       8691       8801       8802       8813       8812  
      8681       8682       8693       8692       8802       8803       8814       8813  
      8682       8683       8694       8693       8803       8804       8815       8814  
      8683       8684       8695       8694       8804       8805       8816       8815  
      8684       8685       8696       8695       8805       8806       8817       8816  
      8685       8686       8697       8696       8806       8807       8818       8817  
      8686       8687       8698       8697       8807       8808       8819       8818  
      8687       8688       8699       8698       8808       8809       8820       8819  
      8688       8689       8700       8699       8809       8810       8821       8820  
      8689       8690       8701       8700       8810       8811       8822       8821  
      8691       8692       8703       8702       8812       8813       8824       8823  
      8692       8693       8704       8703       8813       8814       8825       8824  
      8693       8694       8705       8704       8814       8815       8826       8825  
      8694       8695       8706       8705       8815       8816       8827       8826  
      8695       8696       8707       8706       8816       8817       8828       8827  
      8696       8697       8708       8707       8817       8818       8829       8828  
      8697       8698       8709       8708       8818       8819       8830       8829  
      8698       8699       8710       8709       8819       8820       8831       8830  
      8699       8700       8711       8710       8820       8821       8832       8831  
      8700       8701       8712       8711       8821       8822       8833       8832  
      8713       8714       8725       8724       8834       8835       8846       8845  
      8714       8715       8726       8725       8835       8836       8847       8846  
      8715       8716       8727       8726       8836       8837       8848       8847  
      8716       8717       8728       8727       8837       8838       8849       8848  
      8717       8718       8729       8728       8838       8839       8850       8849  
      8718       8719       8730       8729       8839       8840       8851       8850  
      8719       8720       8731       8730       8840       8841       8852       8851  
      8720       8721       8732       8731       8841       8842       8853       8852  
      8721       8722       8733       8732       8842       8843       8854       8853  
      8722       8723       8734       8733       8843       8844       8855       8854  
      8724       8725       8736       8735       8845       8846       8857       8856  
      8725       8726       8737       8736       8846       8847       8858       8857  
      8726       8727       8738       8737       8847       8848       8859       8858  
      8727       8728       8739       8738       8848       8849       8860       8859  
      8728       8729       8740       8739       8849       8850       8861       8860  
      8729       8730       8741       8740       8850       8851       8862       8861  
      8730       8731       8742       8741       8851       8852       8863       8862  
      8731       8732       8743       8742       8852       8853       8864       8863  
      8732       8733       8744       8743       8853       8854       8865       8864  
      8733       8734       8745       8744       8854       8855       8866       8865  
      8735       8736       8747       8746       8856       8857       8868       8867  
      8736       8737       8748       8747       8857       8858       8869       8868  
      8737       8738       8749       8748       8858       8859       8870       8869  
      8738       8739       8750       8749       8859       8860       8871       8870  
      8739       8740       8751       8750       8860       8861       8872       8871  
      8740       8741       8752       8751       8861       8862       8873       8872  
      8741       8742       8753       8752       8862       8863       8874       8873  
      8742       8743       8754       8753       8863       8864       8875       8874  
      8743       8744       8755       8754       8864       8865       8876       8875  
      8744       8745       8756       8755       8865       8866       8877       8876  
      8746       8747       8758       8757       8867       8868       8879       8878  
      8747       8748       8759       8758       8868       8869       8880       8879  
      8748       8749       8760       8759       8869       8870       8881       8880  
      8749       8750       8761       8760       8870       8871       8882       8881  
      8750       8751       8762       8761       8871       8872       8883       8882  
      8751       8752       8763       8762       8872       8873       8884       8883  
      8752       8753       8764       8763       8873       8874       8885       8884  
      8753       8754       8765       8764       8874       8875       8886       8885  
      8754       8755       8766       8765       8875       8876       8887       8886  
      8755       8756       8767       8766       8876       8877       8888       8887  
      8757       8758       8769       8768       8878       8879       8890       8889  
      8758       8759       8770       8769       8879       8880       8891       8890  
      8759       8760       8771       8770       8880       8881       8892       8891  
      8760       8761       8772       8771       8881       8882       8893       8892  
      8761       8762       8773       8772       8882       8883       8894       8893  
      8762       8763       8774       8773       8883       8884       8895       8894  
      8763       8764       8775       8774       8884       8885       8896       8895  
      8764       8765       8776       8775       8885       8886       8897       8896  
      8765       8766       8777       8776       8886       8887       8898       8897  
      8766       8767       8778       8777       8887       8888       8899       8898  
      8768       8769       8780       8779       8889       8890       8901       8900  
      8769       8770       8781       8780       8890       8891       8902       8901  
      8770       8771       8782       8781       8891       8892       8903       8902  
      8771       8772       8783       8782       8892       8893       8904       8903  
      8772       8773       8784       8783       8893       8894       8905       8904  
      8773       8774       8785       8784       8894       8895       8906       8905  
      8774       8775       8786       8785       8895       8896       8907       8906  
      8775       8776       8787       8786       8896       8897       8908       8907  
      8776       8777       8788       8787       8897       8898       8909       8908  
      8777       8778       8789       8788       8898       8899       8910       8909  
      8779       8780       8791       8790       8900       8901       8912       8911  
      8780       8781       8792       8791       8901       8902       8913       8912  
      8781       8782       8793       8792       8902       8903       8914       8913  
      8782       8783       8794       8793       8903       8904       8915       8914  
      8783       8784       8795       8794       8904       8905       8916       8915  
      8784       8785       8796       8795       8905       8906       8917       8916  
      8785       8786       8797       8796       8906       8907       8918       8917  
      8786       8787       8798       8797       8907       8908       8919       8918  
      8787       8788       8799       8798       8908       8909       8920       8919  
      8788       8789       8800       8799       8909       8910       8921       8920  
      8790       8791       8802       8801       8911       8912       8923       8922  
      8791       8792       8803       8802       8912       8913       8924       8923  
      8792       8793       8804       8803       8913       8914       8925       8924  
      8793       8794       8805       8804       8914       8915       8926       8925  
      8794       8795       8806       8805       8915       8916       8927       8926  
      8795       8796       8807       8806       8916       8917       8928       8927  
      8796       8797       8808       8807       8917       8918       8929       8928  
      8797       8798       8809       8808       8918       8919       8930       8929  
      8798       8799       8810       8809       8919       8920       8931       8930  
      8799       8800       8811       8810       8920       8921       8932       8931  
      8801       8802       8813       8812       8922       8923       8934       8933  
      8802       8803       8814       8813       8923       8924       8935       8934  
      8803       8804       8815       8814       8924       8925       8936       8935  
      8804       8805       8816       8815       8925       8926       8937       8936  
      8805       8806       8817       8816       8926       8927       8938       8937  
      8806       8807       8818       8817       8927       8928       8939       8938  
      8807       8808       8819       8818       8928       8929       8940       8939  
      8808       8809       8820       8819       8929       8930       8941       8940  
      8809       8810       8821       8820       8930       8931       8942       8941  
      8810       8811       8822       8821       8931       8932       8943       8942  
      8812       8813       8824       8823       8933       8934       8945       8944  
      8813       8814       8825       8824       8934       8935       8946       8945  
      8814       8815       8826       8825       8935       8936       8947       8946  
      8815       8816       8827       8826       8936       8937       8948       8947  
      8816       8817       8828       8827       8937       8938       8949       8948  
      8817       8818       8829       8828       8938       8939       8950       8949  
      8818       8819       8830       8829       8939       8940       8951       8950  
      8819       8820       8831       8830       8940       8941       8952       8951  
      8820       8821       8832       8831       8941       8942       8953       8952  
      8821       8822       8833       8832       8942       8943       8954       8953  
      8834       8835       8846       8845       8955       8956       8967       8966  
      8835       8836       8847       8846       8956       8957       8968       8967  
      8836       8837       8848       8847       8957       8958       8969       8968  
      8837       8838       8849       8848       8958       8959       8970       8969  
      8838       8839       8850       8849       8959       8960       8971       8970  
      8839       8840       8851       8850       8960       8961       8972       8971  
      8840       8841       8852       8851       8961       8962       8973       8972  
      8841       8842       8853       8852       8962       8963       8974       8973  
      8842       8843       8854       8853       8963       8964       8975       8974  
      8843       8844       8855       8854       8964       8965       8976       8975  
      8845       8846       8857       8856       8966       8967       8978       8977  
      8846       8847       8858       8857       8967       8968       8979       8978  
      8847       8848       8859       8858       8968       8969       8980       8979  
      8848       8849       8860       8859       8969       8970       8981       8980  
      8849       8850       8861       8860       8970       8971       8982       8981  
      8850       8851       8862       8861       8971       8972       8983       8982  
      8851       8852       8863       8862       8972       8973       8984       8983  
      8852       8853       8864       8863       8973       8974       8985       8984  
      8853       8854       8865       8864       8974       8975       8986       8985  
      8854       8855       8866       8865       8975       8976       8987       8986  
      8856       8857       8868       8867       8977       8978       8989       8988  
      8857       8858       8869       8868       8978       8979       8990       8989  
      8858       8859       8870       8869       8979       8980       8991       8990  
      8859       8860       8871       8870       8980       8981       8992       8991  
      8860       8861       8872       8871       8981       8982       8993       8992  
      8861       8862       8873       8872       8982       8983       8994       8993  
      8862       8863       8874       8873       8983       8984       8995       8994  
      8863       8864       8875       8874       8984       8985       8996       8995  
      8864       8865       8876       8875       8985       8986       8997       8996  
      8865       8866       8877       8876       8986       8987       8998       8997  
      8867       8868       8879       8878       8988       8989       9000       8999  
      8868       8869       8880       8879       8989       8990       9001       9000  
      8869       8870       8881       8880       8990       8991       9002       9001  
      8870       8871       8882       8881       8991       8992       9003       9002  
      8871       8872       8883       8882       8992       8993       9004       9003  
      8872       8873       8884       8883       8993       8994       9005       9004  
      8873       8874       8885       8884       8994       8995       9006       9005  
      8874       8875       8886       8885       8995       8996       9007       9006  
      8875       8876       8887       8886       8996       8997       9008       9007  
      8876       8877       8888       8887       8997       8998       9009       9008  
      8878       8879       8890       8889       8999       9000       9011       9010  
      8879       8880       8891       8890       9000       9001       9012       9011  
      8880       8881       8892       8891       9001       9002       9013       9012  
      8881       8882       8893       8892       9002       9003       9014       9013  
      8882       8883       8894       8893       9003       9004       9015       9014  
      8883       8884       8895       8894       9004       9005       9016       9015  
      8884       8885       8896       8895       9005       9006       9017       9016  
      8885       8886       8897       8896       9006       9007       9018       9017  
      8886       8887       8898       8897       9007       9008       9019       9018  
      8887       8888       8899       8898       9008       9009       9020       9019  
      8889       8890       8901       8900       9010       9011       9022       9021  
      8890       8891       8902       8901       9011       9012       9023       9022  
      8891       8892       8903       8902       9012       9013       9024       9023  
      8892       8893       8904       8903       9013       9014       9025       9024  
      8893       8894       8905       8904       9014       9015       9026       9025  
      8894       8895       8906       8905       9015       9016       9027       9026  
      8895       8896       8907       8906       9016       9017       9028       9027  
      8896       8897       8908       8907       9017       9018       9029       9028  
      8897       8898       8909       8908       9018       9019       9030       9029  
      8898       8899       8910       8909       9019       9020       9031       9030  
      8900       8901       8912       8911       9021       9022       9033       9032  
      8901       8902       8913       8912       9022       9023       9034       9033  
      8902       8903       8914       8913       9023       9024       9035       9034  
      8903       8904       8915       8914       9024       9025       9036       9035  
      8904       8905       8916       8915       9025       9026       9037       9036  
      8905       8906       8917       8916       9026       9027       9038       9037  
      8906       8907       8918       8917       9027       9028       9039       9038  
      8907       8908       8919       8918       9028       9029       9040       9039  
      8908       8909       8920       8919       9029       9030       9041       9040  
      8909       8910       8921       8920       9030       9031       9042       9041  
      8911       8912       8923       8922       9032       9033       9044       9043  
      8912       8913       8924       8923       9033       9034       9045       9044  
      8913       8914       8925       8924       9034       9035       9046       9045  
      8914       8915       8926       8925       9035       9036       9047       9046  
      8915       8916       8927       8926       9036       9037       9048       9047  
      8916       8917       8928       8927       9037       9038       9049       9048  
      8917       8918       8929       8928       9038       9039       9050       9049  
      8918       8919       8930       8929       9039       9040       9051       9050  
      8919       8920       8931       8930       9040       9041       9052       9051  
      8920       8921       8932       8931       9041       9042       9053       9052  
      8922       8923       8934       8933       9043       9044       9055       9054  
      8923       8924       8935       8934       9044       9045       9056       9055  
      8924       8925       8936       8935       9045       9046       9057       9056  
      8925       8926       8937       8936       9046       9047       9058       9057  
      8926       8927       8938       8937       9047       9048       9059       9058  
      8927       8928       8939       8938       9048       9049       9060       9059  
      8928       8929       8940       8939       9049       9050       9061       9060  
      8929       8930       8941       8940       9050       9051       9062       9061  
      8930       8931       8942       8941       9051       9052       9063       9062  
      8931       8932       8943       8942       9052       9053       9064       9063  
      8933       8934       8945       8944       9054       9055       9066       9065  
      8934       8935       8946       8945       9055       9056       9067       9066  
      8935       8936       8947       8946       9056       9057       9068       9067  
      8936       8937       8948       8947       9057       9058       9069       9068  
      8937       8938       8949       8948       9058       9059       9070       9069  
      8938       8939       8950       8949       9059       9060       9071       9070  
      8939       8940       8951       8950       9060       9061       9072       9071  
      8940       8941       8952       8951       9061       9062       9073       9072  
      8941       8942       8953       8952       9062       9063       9074       9073  
      8942       8943       8954       8953       9063       9064       9075       9074  
      8955       8956       8967       8966       9076       9077       9088       9087  
      8956       8957       8968       8967       9077       9078       9089       9088  
      8957       8958       8969       8968       9078       9079       9090       9089  
      8958       8959       8970       8969       9079       9080       9091       9090  
      8959       8960       8971       8970       9080       9081       9092       9091  
      8960       8961       8972       8971       9081       9082       9093       9092  
      8961       8962       8973       8972       9082       9083       9094       9093  
      8962       8963       8974       8973       9083       9084       9095       9094  
      8963       8964       8975       8974       9084       9085       9096       9095  
      8964       8965       8976       8975       9085       9086       9097       9096  
      8966       8967       8978       8977       9087       9088       9099       9098  
      8967       8968       8979       8978       9088       9089       9100       9099  
      8968       8969       8980       8979       9089       9090       9101       9100  
      8969       8970       8981       8980       9090       9091       9102       9101  
      8970       8971       8982       8981       9091       9092       9103       9102  
      8971       8972       8983       8982       9092       9093       9104       9103  
      8972       8973       8984       8983       9093       9094       9105       9104  
      8973       8974       8985       8984       9094       9095       9106       9105  
      8974       8975       8986       8985       9095       9096       9107       9106  
      8975       8976       8987       8986       9096       9097       9108       9107  
      8977       8978       8989       8988       9098       9099       9110       9109  
      8978       8979       8990       8989       9099       9100       9111       9110  
      8979       8980       8991       8990       9100       9101       9112       9111  
      8980       8981       8992       8991       9101       9102       9113       9112  
      8981       8982       8993       8992       9102       9103       9114       9113  
      8982       8983       8994       8993       9103       9104       9115       9114  
      8983       8984       8995       8994       9104       9105       9116       9115  
      8984       8985       8996       8995       9105       9106       9117       9116  
      8985       8986       8997       8996       9106       9107       9118       9117  
      8986       8987       8998       8997       9107       9108       9119       9118  
      8988       8989       9000       8999       9109       9110       9121       9120  
      8989       8990       9001       9000       9110       9111       9122       9121  
      8990       8991       9002       9001       9111       9112       9123       9122  
      8991       8992       9003       9002       9112       9113       9124       9123  
      8992       8993       9004       9003       9113       9114       9125       9124  
      8993       8994       9005       9004       9114       9115       9126       9125  
      8994       8995       9006       9005       9115       9116       9127       9126  
      8995       8996       9007       9006       9116       9117       9128       9127  
      8996       8997       9008       9007       9117       9118       9129       9128  
      8997       8998       9009       9008       9118       9119       9130       9129  
      8999       9000       9011       9010       9120       9121       9132       9131  
      9000       9001       9012       9011       9121       9122       9133       9132  
      9001       9002       9013       9012       9122       9123       9134       9133  
      9002       9003       9014       9013       9123       9124       9135       9134  
      9003       9004       9015       9014       9124       9125       9136       9135  
      9004       9005       9016       9015       9125       9126       9137       9136  
      9005       9006       9017       9016       9126       9127       9138       9137  
      9006       9007       9018       9017       9127       9128       9139       9138  
      9007       9008       9019       9018       9128       9129       9140       9139  
      9008       9009       9020       9019       9129       9130       9141       9140  
      9010       9011       9022       9021       9131       9132       9143       9142  
      9011       9012       9023       9022       9132       9133       9144       9143  
      9012       9013       9024       9023       9133       9134       9145       9144  
      9013       9014       9025       9024       9134       9135       9146       9145  
      9014       9015       9026       9025       9135       9136       9147       9146  
      9015       9016       9027       9026       9136       9137       9148       9147  
      9016       9017       9028       9027       9137       9138       9149       9148  
      9017       9018       9029       9028       9138       9139       9150       9149  
      9018       9019       9030       9029       9139       9140       9151       9150  
      9019       9020       9031       9030       9140       9141       9152       9151  
      9021       9022       9033       9032       9142       9143       9154       9153  
      9022       9023       9034       9033       9143       9144       9155       9154  
      9023       9024       9035       9034       9144       9145       9156       9155  
      9024       9025       9036       9035       9145       9146       9157       9156  
      9025       9026       9037       9036       9146       9147       9158       9157  
      9026       9027       9038       9037       9147       9148       9159       9158  
      9027       9028       9039       9038       9148       9149       9160       9159  
      9028       9029       9040       9039       9149       9150       9161       9160  
      9029       9030       9041       9040       9150       9151       9162       9161  
      9030       9031       9042       9041       9151       9152       9163       9162  
      9032       9033       9044       9043       9153       9154       9165       9164  
      9033       9034       9045       9044       9154       9155       9166       9165  
      9034       9035       9046       9045       9155       9156       9167       9166  
      9035       9036       9047       9046       9156       9157       9168       9167  
      9036       9037       9048       9047       9157       9158       9169       9168  
      9037       9038       9049       9048       9158       9159       9170       9169  
      9038       9039       9050       9049       9159       9160       9171       9170  
      9039       9040       9051       9050       9160       9161       9172       9171  
      9040       9041       9052       9051       9161       9162       9173       9172  
      9041       9042       9053       9052       9162       9163       9174       9173  
      9043       9044       9055       9054       9164       9165       9176       9175  
      9044       9045       9056       9055       9165       9166       9177       9176  
      9045       9046       9057       9056       9166       9167       9178       9177  
      9046       9047       9058       9057       9167       9168       9179       9178  
      9047       9048       9059       9058       9168       9169       9180       9179  
      9048       9049       9060       9059       9169       9170       9181       9180  
      9049       9050       9061       9060       9170       9171       9182       9181  
      9050       9051       9062       9061       9171       9172       9183       9182  
      9051       9052       9063       9062       9172       9173       9184       9183  
      9052       9053       9064       9063       9173       9174       9185       9184  
      9054       9055       9066       9065       9175       9176       9187       9186  
      9055       9056       9067       9066       9176       9177       9188       9187  
      9056       9057       9068       9067       9177       9178       9189       9188  
      9057       9058       9069       9068       9178       9179       9190       9189  
      9058       9059       9070       9069       9179       9180       9191       9190  
      9059       9060       9071       9070       9180       9181       9192       9191  
      9060       9061       9072       9071       9181       9182       9193       9192  
      9061       9062       9073       9072       9182       9183       9194       9193  
      9062       9063       9074       9073       9183       9184       9195       9194  
      9063       9064       9075       9074       9184       9185       9196       9195  
      9076       9077       9088       9087       9197       9198       9209       9208  
      9077       9078       9089       9088       9198       9199       9210       9209  
      9078       9079       9090       9089       9199       9200       9211       9210  
      9079       9080       9091       9090       9200       9201       9212       9211  
      9080       9081       9092       9091       9201       9202       9213       9212  
      9081       9082       9093       9092       9202       9203       9214       9213  
      9082       9083       9094       9093       9203       9204       9215       9214  
      9083       9084       9095       9094       9204       9205       9216       9215  
      9084       9085       9096       9095       9205       9206       9217       9216  
      9085       9086       9097       9096       9206       9207       9218       9217  
      9087       9088       9099       9098       9208       9209       9220       9219  
      9088       9089       9100       9099       9209       9210       9221       9220  
      9089       9090       9101       9100       9210       9211       9222       9221  
      9090       9091       9102       9101       9211       9212       9223       9222  
      9091       9092       9103       9102       9212       9213       9224       9223  
      9092       9093       9104       9103       9213       9214       9225       9224  
      9093       9094       9105       9104       9214       9215       9226       9225  
      9094       9095       9106       9105       9215       9216       9227       9226  
      9095       9096       9107       9106       9216       9217       9228       9227  
      9096       9097       9108       9107       9217       9218       9229       9228  
      9098       9099       9110       9109       9219       9220       9231       9230  
      9099       9100       9111       9110       9220       9221       9232       9231  
      9100       9101       9112       9111       9221       9222       9233       9232  
      9101       9102       9113       9112       9222       9223       9234       9233  
      9102       9103       9114       9113       9223       9224       9235       9234  
      9103       9104       9115       9114       9224       9225       9236       9235  
      9104       9105       9116       9115       9225       9226       9237       9236  
      9105       9106       9117       9116       9226       9227       9238       9237  
      9106       9107       9118       9117       9227       9228       9239       9238  
      9107       9108       9119       9118       9228       9229       9240       9239  
      9109       9110       9121       9120       9230       9231       9242       9241  
      9110       9111       9122       9121       9231       9232       9243       9242  
      9111       9112       9123       9122       9232       9233       9244       9243  
      9112       9113       9124       9123       9233       9234       9245       9244  
      9113       9114       9125       9124       9234       9235       9246       9245  
      9114       9115       9126       9125       9235       9236       9247       9246  
      9115       9116       9127       9126       9236       9237       9248       9247  
      9116       9117       9128       9127       9237       9238       9249       9248  
      9117       9118       9129       9128       9238       9239       9250       9249  
      9118       9119       9130       9129       9239       9240       9251       9250  
      9120       9121       9132       9131       9241       9242       9253       9252  
      9121       9122       9133       9132       9242       9243       9254       9253  
      9122       9123       9134       9133       9243       9244       9255       9254  
      9123       9124       9135       9134       9244       9245       9256       9255  
      9124       9125       9136       9135       9245       9246       9257       9256  
      9125       9126       9137       9136       9246       9247       9258       9257  
      9126       9127       9138       9137       9247       9248       9259       9258  
      9127       9128       9139       9138       9248       9249       9260       9259  
      9128       9129       9140       9139       9249       9250       9261       9260  
      9129       9130       9141       9140       9250       9251       9262       9261  
      9131       9132       9143       9142       9252       9253       9264       9263  
      9132       9133       9144       9143       9253       9254       9265       9264  
      9133       9134       9145       9144       9254       9255       9266       9265  
      9134       9135       9146       9145       9255       9256       9267       9266  
      9135       9136       9147       9146       9256       9257       9268       9267  
      9136       9137       9148       9147       9257       9258       9269       9268  
      9137       9138       9149       9148       9258       9259       9270       9269  
      9138       9139       9150       9149       9259       9260       9271       9270  
      9139       9140       9151       9150       9260       9261       9272       9271  
      9140       9141       9152       9151       9261       9262       9273       9272  
      9142       9143       9154       9153       9263       9264       9275       9274  
      9143       9144       9155       9154       9264       9265       9276       9275  
      9144       9145       9156       9155       9265       9266       9277       9276  
      9145       9146       9157       9156       9266       9267       9278       9277  
      9146       9147       9158       9157       9267       9268       9279       9278  
      9147       9148       9159       9158       9268       9269       9280       9279  
      9148       9149       9160       9159       9269       9270       9281       9280  
      9149       9150       9161       9160       9270       9271       9282       9281  
      9150       9151       9162       9161       9271       9272       9283       9282  
      9151       9152       9163       9162       9272       9273       9284       9283  
      9153       9154       9165       9164       9274       9275       9286       9285  
      9154       9155       9166       9165       9275       9276       9287       9286  
      9155       9156       9167       9166       9276       9277       9288       9287  
      9156       9157       9168       9167       9277       9278       9289       9288  
      9157       9158       9169       9168       9278       9279       9290       9289  
      9158       9159       9170       9169       9279       9280       9291       9290  
      9159       9160       9171       9170       9280       9281       9292       9291  
      9160       9161       9172       9171       9281       9282       9293       9292  
      9161       9162       9173       9172       9282       9283       9294       9293  
      9162       9163       9174       9173       9283       9284       9295       9294  
      9164       9165       9176       9175       9285       9286       9297       9296  
      9165       9166       9177       9176       9286       9287       9298       9297  
      9166       9167       9178       9177       9287       9288       9299       9298  
      9167       9168       9179       9178       9288       9289       9300       9299  
      9168       9169       9180       9179       9289       9290       9301       9300  
      9169       9170       9181       9180       9290       9291       9302       9301  
      9170       9171       9182       9181       9291       9292       9303       9302  
      9171       9172       9183       9182       9292       9293       9304       9303  
      9172       9173       9184       9183       9293       9294       9305       9304  
      9173       9174       9185       9184       9294       9295       9306       9305  
      9175       9176       9187       9186       9296       9297       9308       9307  
      9176       9177       9188       9187       9297       9298       9309       9308  
      9177       9178       9189       9188       9298       9299       9310       9309  
      9178       9179       9190       9189       9299       9300       9311       9310  
      9179       9180       9191       9190       9300       9301       9312       9311  
      9180       9181       9192       9191       9301       9302       9313       9312  
      9181       9182       9193       9192       9302       9303       9314       9313  
      9182       9183       9194       9193       9303       9304       9315       9314  
      9183       9184       9195       9194       9304       9305       9316       9315  
      9184       9185       9196       9195       9305       9306       9317       9316  
      9197       9198       9209       9208       9318       9319       9330       9329  
      9198       9199       9210       9209       9319       9320       9331       9330  
      9199       9200       9211       9210       9320       9321       9332       9331  
      9200       9201       9212       9211       9321       9322       9333       9332  
      9201       9202       9213       9212       9322       9323       9334       9333  
      9202       9203       9214       9213       9323       9324       9335       9334  
      9203       9204       9215       9214       9324       9325       9336       9335  
      9204       9205       9216       9215       9325       9326       9337       9336  
      9205       9206       9217       9216       9326       9327       9338       9337  
      9206       9207       9218       9217       9327       9328       9339       9338  
      9208       9209       9220       9219       9329       9330       9341       9340  
      9209       9210       9221       9220       9330       9331       9342       9341  
      9210       9211       9222       9221       9331       9332       9343       9342  
      9211       9212       9223       9222       9332       9333       9344       9343  
      9212       9213       9224       9223       9333       9334       9345       9344  
      9213       9214       9225       9224       9334       9335       9346       9345  
      9214       9215       9226       9225       9335       9336       9347       9346  
      9215       9216       9227       9226       9336       9337       9348       9347  
      9216       9217       9228       9227       9337       9338       9349       9348  
      9217       9218       9229       9228       9338       9339       9350       9349  
      9219       9220       9231       9230       9340       9341       9352       9351  
      9220       9221       9232       9231       9341       9342       9353       9352  
      9221       9222       9233       9232       9342       9343       9354       9353  
      9222       9223       9234       9233       9343       9344       9355       9354  
      9223       9224       9235       9234       9344       9345       9356       9355  
      9224       9225       9236       9235       9345       9346       9357       9356  
      9225       9226       9237       9236       9346       9347       9358       9357  
      9226       9227       9238       9237       9347       9348       9359       9358  
      9227       9228       9239       9238       9348       9349       9360       9359  
      9228       9229       9240       9239       9349       9350       9361       9360  
      9230       9231       9242       9241       9351       9352       9363       9362  
      9231       9232       9243       9242       9352       9353       9364       9363  
      9232       9233       9244       9243       9353       9354       9365       9364  
      9233       9234       9245       9244       9354       9355       9366       9365  
      9234       9235       9246       9245       9355       9356       9367       9366  
      9235       9236       9247       9246       9356       9357       9368       9367  
      9236       9237       9248       9247       9357       9358       9369       9368  
      9237       9238       9249       9248       9358       9359       9370       9369  
      9238       9239       9250       9249       9359       9360       9371       9370  
      9239       9240       9251       9250       9360       9361       9372       9371  
      9241       9242       9253       9252       9362       9363       9374       9373  
      9242       9243       9254       9253       9363       9364       9375       9374  
      9243       9244       9255       9254       9364       9365       9376       9375  
      9244       9245       9256       9255       9365       9366       9377       9376  
      9245       9246       9257       9256       9366       9367       9378       9377  
      9246       9247       9258       9257       9367       9368       9379       9378  
      9247       9248       9259       9258       9368       9369       9380       9379  
      9248       9249       9260       9259       9369       9370       9381       9380  
      9249       9250       9261       9260       9370       9371       9382       9381  
      9250       9251       9262       9261       9371       9372       9383       9382  
      9252       9253       9264       9263       9373       9374       9385       9384  
      9253       9254       9265       9264       9374       9375       9386       9385  
      9254       9255       9266       9265       9375       9376       9387       9386  
      9255       9256       9267       9266       9376       9377       9388       9387  
      9256       9257       9268       9267       9377       9378       9389       9388  
      9257       9258       9269       9268       9378       9379       9390       9389  
      9258       9259       9270       9269       9379       9380       9391       9390  
      9259       9260       9271       9270       9380       9381       9392       9391  
      9260       9261       9272       9271       9381       9382       9393       9392  
      9261       9262       9273       9272       9382       9383       9394       9393  
      9263       9264       9275       9274       9384       9385       9396       9395  
      9264       9265       9276       9275       9385       9386       9397       9396  
      9265       9266       9277       9276       9386       9387       9398       9397  
      9266       9267       9278       9277       9387       9388       9399       9398  
      9267       9268       9279       9278       9388       9389       9400       9399  
      9268       9269       9280       9279       9389       9390       9401       9400  
      9269       9270       9281       9280       9390       9391       9402       9401  
      9270       9271       9282       9281       9391       9392       9403       9402  
      9271       9272       9283       9282       9392       9393       9404       9403  
      9272       9273       9284       9283       9393       9394       9405       9404  
      9274       9275       9286       9285       9395       9396       9407       9406  
      9275       9276       9287       9286       9396       9397       9408       9407  
      9276       9277       9288       9287       9397       9398       9409       9408  
      9277       9278       9289       9288       9398       9399       9410       9409  
      9278       9279       9290       9289       9399       9400       9411       9410  
      9279       9280       9291       9290       9400       9401       9412       9411  
      9280       9281       9292       9291       9401       9402       9413       9412  
      9281       9282       9293       9292       9402       9403       9414       9413  
      9282       9283       9294       9293       9403       9404       9415       9414  
      9283       9284       9295       9294       9404       9405       9416       9415  
      9285       9286       9297       9296       9406       9407       9418       9417  
      9286       9287       9298       9297       9407       9408       9419       9418  
      9287       9288       9299       9298       9408       9409       9420       9419  
      9288       9289       9300       9299       9409       9410       9421       9420  
      9289       9290       9301       9300       9410       9411       9422       9421  
      9290       9291       9302       9301       9411       9412       9423       9422  
      9291       9292       9303       9302       9412       9413       9424       9423  
      9292       9293       9304       9303       9413       9414       9425       9424  
      9293       9294       9305       9304       9414       9415       9426       9425  
      9294       9295       9306       9305       9415       9416       9427       9426  
      9296       9297       9308       9307       9417       9418       9429       9428  
      9297       9298       9309       9308       9418       9419       9430       9429  
      9298       9299       9310       9309       9419       9420       9431       9430  
      9299       9300       9311       9310       9420       9421       9432       9431  
      9300       9301       9312       9311       9421       9422       9433       9432  
      9301       9302       9313       9312       9422       9423       9434       9433  
      9302       9303       9314       9313       9423       9424       9435       9434  
      9303       9304       9315       9314       9424       9425       9436       9435  
      9304       9305       9316       9315       9425       9426       9437       9436  
      9305       9306       9317       9316       9426       9427       9438       9437  
      9318       9319       9330       9329       9439       9440       9451       9450  
      9319       9320       9331       9330       9440       9441       9452       9451  
      9320       9321       9332       9331       9441       9442       9453       9452  
      9321       9322       9333       9332       9442       9443       9454       9453  
      9322       9323       9334       9333       9443       9444       9455       9454  
      9323       9324       9335       9334       9444       9445       9456       9455  
      9324       9325       9336       9335       9445       9446       9457       9456  
      9325       9326       9337       9336       9446       9447       9458       9457  
      9326       9327       9338       9337       9447       9448       9459       9458  
      9327       9328       9339       9338       9448       9449       9460       9459  
      9329       9330       9341       9340       9450       9451       9462       9461  
      9330       9331       9342       9341       9451       9452       9463       9462  
      9331       9332       9343       9342       9452       9453       9464       9463  
      9332       9333       9344       9343       9453       9454       9465       9464  
      9333       9334       9345       9344       9454       9455       9466       9465  
      9334       9335       9346       9345       9455       9456       9467       9466  
      9335       9336       9347       9346       9456       9457       9468       9467  
      9336       9337       9348       9347       9457       9458       9469       9468  
      9337       9338       9349       9348       9458       9459       9470       9469  
      9338       9339       9350       9349       9459       9460       9471       9470  
      9340       9341       9352       9351       9461       9462       9473       9472  
      9341       9342       9353       9352       9462       9463       9474       9473  
      9342       9343       9354       9353       9463       9464       9475       9474  
      9343       9344       9355       9354       9464       9465       9476       9475  
      9344       9345       9356       9355       9465       9466       9477       9476  
      9345       9346       9357       9356       9466       9467       9478       9477  
      9346       9347       9358       9357       9467       9468       9479       9478  
      9347       9348       9359       9358       9468       9469       9480       9479  
      9348       9349       9360       9359       9469       9470       9481       9480  
      9349       9350       9361       9360       9470       9471       9482       9481  
      9351       9352       9363       9362       9472       9473       9484       9483  
      9352       9353       9364       9363       9473       9474       9485       9484  
      9353       9354       9365       9364       9474       9475       9486       9485  
      9354       9355       9366       9365       9475       9476       9487       9486  
      9355       9356       9367       9366       9476       9477       9488       9487  
      9356       9357       9368       9367       9477       9478       9489       9488  
      9357       9358       9369       9368       9478       9479       9490       9489  
      9358       9359       9370       9369       9479       9480       9491       9490  
      9359       9360       9371       9370       9480       9481       9492       9491  
      9360       9361       9372       9371       9481       9482       9493       9492  
      9362       9363       9374       9373       9483       9484       9495       9494  
      9363       9364       9375       9374       9484       9485       9496       9495  
      9364       9365       9376       9375       9485       9486       9497       9496  
      9365       9366       9377       9376       9486       9487       9498       9497  
      9366       9367       9378       9377       9487       9488       9499       9498  
      9367       9368       9379       9378       9488       9489       9500       9499  
      9368       9369       9380       9379       9489       9490       9501       9500  
      9369       9370       9381       9380       9490       9491       9502       9501  
      9370       9371       9382       9381       9491       9492       9503       9502  
      9371       9372       9383       9382       9492       9493       9504       9503  
      9373       9374       9385       9384       9494       9495       9506       9505  
      9374       9375       9386       9385       9495       9496       9507       9506  
      9375       9376       9387       9386       9496       9497       9508       9507  
      9376       9377       9388       9387       9497       9498       9509       9508  
      9377       9378       9389       9388       9498       9499       9510       9509  
      9378       9379       9390       9389       9499       9500       9511       9510  
      9379       9380       9391       9390       9500       9501       9512       9511  
      9380       9381       9392       9391       9501       9502       9513       9512  
      9381       9382       9393       9392       9502       9503       9514       9513  
      9382       9383       9394       9393       9503       9504       9515       9514  
      9384       9385       9396       9395       9505       9506       9517       9516  
      9385       9386       9397       9396       9506       9507       9518       9517  
      9386       9387       9398       9397       9507       9508       9519       9518  
      9387       9388       9399       9398       9508       9509       9520       9519  
      9388       9389       9400       9399       9509       9510       9521       9520  
      9389       9390       9401       9400       9510       9511       9522       9521  
      9390       9391       9402       9401       9511       9512       9523       9522  
      9391       9392       9403       9402       9512       9513       9524       9523  
      9392       9393       9404       9403       9513       9514       9525       9524  
      9393       9394       9405       9404       9514       9515       9526       9525  
      9395       9396       9407       9406       9516       9517       9528       9527  
      9396       9397       9408       9407       9517       9518       9529       9528  
      9397       9398       9409       9408       9518       9519       9530       9529  
      9398       9399       9410       9409       9519       9520       9531       9530  
      9399       9400       9411       9410       9520       9521       9532       9531  
      9400       9401       9412       9411       9521       9522       9533       9532  
      9401       9402       9413       9412       9522       9523       9534       9533  
      9402       9403       9414       9413       9523       9524       9535       9534  
      9403       9404       9415       9414       9524       9525       9536       9535  
      9404       9405       9416       9415       9525       9526       9537       9536  
      9406       9407       9418       9417       9527       9528       9539       9538  
      9407       9408       9419       9418       9528       9529       9540       9539  
      9408       9409       9420       9419       9529       9530       9541       9540  
      9409       9410       9421       9420       9530       9531       9542       9541  
      9410       9411       9422       9421       9531       9532       9543       9542  
      9411       9412       9423       9422       9532       9533       9544       9543  
      9412       9413       9424       9423       9533       9534       9545       9544  
      9413       9414       9425       9424       9534       9535       9546       9545  
      9414       9415       9426       9425       9535       9536       9547       9546  
      9415       9416       9427       9426       9536       9537       9548       9547  
      9417       9418       9429       9428       9538       9539       9550       9549  
      9418       9419       9430       9429       9539       9540       9551       9550  
      9419       9420       9431       9430       9540       9541       9552       9551  
      9420       9421       9432       9431       9541       9542       9553       9552  
      9421       9422       9433       9432       9542       9543       9554       9553  
      9422       9423       9434       9433       9543       9544       9555       9554  
      9423       9424       9435       9434       9544       9545       9556       9555  
      9424       9425       9436       9435       9545       9546       9557       9556  
      9425       9426       9437       9436       9546       9547       9558       9557  
      9426       9427       9438       9437       9547       9548       9559       9558  
      9439       9440       9451       9450       9560       9561       9572       9571  
      9440       9441       9452       9451       9561       9562       9573       9572  
      9441       9442       9453       9452       9562       9563       9574       9573  
      9442       9443       9454       9453       9563       9564       9575       9574  
      9443       9444       9455       9454       9564       9565       9576       9575  
      9444       9445       9456       9455       9565       9566       9577       9576  
      9445       9446       9457       9456       9566       9567       9578       9577  
      9446       9447       9458       9457       9567       9568       9579       9578  
      9447       9448       9459       9458       9568       9569       9580       9579  
      9448       9449       9460       9459       9569       9570       9581       9580  
      9450       9451       9462       9461       9571       9572       9583       9582  
      9451       9452       9463       9462       9572       9573       9584       9583  
      9452       9453       9464       9463       9573       9574       9585       9584  
      9453       9454       9465       9464       9574       9575       9586       9585  
      9454       9455       9466       9465       9575       9576       9587       9586  
      9455       9456       9467       9466       9576       9577       9588       9587  
      9456       9457       9468       9467       9577       9578       9589       9588  
      9457       9458       9469       9468       9578       9579       9590       9589  
      9458       9459       9470       9469       9579       9580       9591       9590  
      9459       9460       9471       9470       9580       9581       9592       9591  
      9461       9462       9473       9472       9582       9583       9594       9593  
      9462       9463       9474       9473       9583       9584       9595       9594  
      9463       9464       9475       9474       9584       9585       9596       9595  
      9464       9465       9476       9475       9585       9586       9597       9596  
      9465       9466       9477       9476       9586       9587       9598       9597  
      9466       9467       9478       9477       9587       9588       9599       9598  
      9467       9468       9479       9478       9588       9589       9600       9599  
      9468       9469       9480       9479       9589       9590       9601       9600  
      9469       9470       9481       9480       9590       9591       9602       9601  
      9470       9471       9482       9481       9591       9592       9603       9602  
      9472       9473       9484       9483       9593       9594       9605       9604  
      9473       9474       9485       9484       9594       9595       9606       9605  
      9474       9475       9486       9485       9595       9596       9607       9606  
      9475       9476       9487       9486       9596       9597       9608       9607  
      9476       9477       9488       9487       9597       9598       9609       9608  
      9477       9478       9489       9488       9598       9599       9610       9609  
      9478       9479       9490       9489       9599       9600       9611       9610  
      9479       9480       9491       9490       9600       9601       9612       9611  
      9480       9481       9492       9491       9601       9602       9613       9612  
      9481       9482       9493       9492       9602       9603       9614       9613  
      9483       9484       9495       9494       9604       9605       9616       9615  
      9484       9485       9496       9495       9605       9606       9617       9616  
      9485       9486       9497       9496       9606       9607       9618       9617  
      9486       9487       9498       9497       9607       9608       9619       9618  
      9487       9488       9499       9498       9608       9609       9620       9619  
      9488       9489       9500       9499       9609       9610       9621       9620  
      9489       9490       9501       9500       9610       9611       9622       9621  
      9490       9491       9502       9501       9611       9612       9623       9622  
      9491       9492       9503       9502       9612       9613       9624       9623  
      9492       9493       9504       9503       9613       9614       9625       9624  
      9494       9495       9506       9505       9615       9616       9627       9626  
      9495       9496       9507       9506       9616       9617       9628       9627  
      9496       9497       9508       9507       9617       9618       9629       9628  
      9497       9498       9509       9508       9618       9619       9630       9629  
      9498       9499       9510       9509       9619       9620       9631       9630  
      9499       9500       9511       9510       9620       9621       9632       9631  
      9500       9501       9512       9511       9621       9622       9633       9632  
      9501       9502       9513       9512       9622       9623       9634       9633  
      9502       9503       9514       9513       9623       9624       9635       9634  
      9503       9504       9515       9514       9624       9625       9636       9635  
      9505       9506       9517       9516       9626       9627       9638       9637  
      9506       9507       9518       9517       9627       9628       9639       9638  
      9507       9508       9519       9518       9628       9629       9640       9639  
      9508       9509       9520       9519       9629       9630       9641       9640  
      9509       9510       9521       9520       9630       9631       9642       9641  
      9510       9511       9522       9521       9631       9632       9643       9642  
      9511       9512       9523       9522       9632       9633       9644       9643  
      9512       9513       9524       9523       9633       9634       9645       9644  
      9513       9514       9525       9524       9634       9635       9646       9645  
      9514       9515       9526       9525       9635       9636       9647       9646  
      9516       9517       9528       9527       9637       9638       9649       9648  
      9517       9518       9529       9528       9638       9639       9650       9649  
      9518       9519       9530       9529       9639       9640       9651       9650  
      9519       9520       9531       9530       9640       9641       9652       9651  
      9520       9521       9532       9531       9641       9642       9653       9652  
      9521       9522       9533       9532       9642       9643       9654       9653  
      9522       9523       9534       9533       9643       9644       9655       9654  
      9523       9524       9535       9534       9644       9645       9656       9655  
      9524       9525       9536       9535       9645       9646       9657       9656  
      9525       9526       9537       9536       9646       9647       9658       9657  
      9527       9528       9539       9538       9648       9649       9660       9659  
      9528       9529       9540       9539       9649       9650       9661       9660  
      9529       9530       9541       9540       9650       9651       9662       9661  
      9530       9531       9542       9541       9651       9652       9663       9662  
      9531       9532       9543       9542       9652       9653       9664       9663  
      9532       9533       9544       9543       9653       9654       9665       9664  
      9533       9534       9545       9544       9654       9655       9666       9665  
      9534       9535       9546       9545       9655       9656       9667       9666  
      9535       9536       9547       9546       9656       9657       9668       9667  
      9536       9537       9548       9547       9657       9658       9669       9668  
      9538       9539       9550       9549       9659       9660       9671       9670  
      9539       9540       9551       9550       9660       9661       9672       9671  
      9540       9541       9552       9551       9661       9662       9673       9672  
      9541       9542       9553       9552       9662       9663       9674       9673  
      9542       9543       9554       9553       9663       9664       9675       9674  
      9543       9544       9555       9554       9664       9665       9676       9675  
      9544       9545       9556       9555       9665       9666       9677       9676  
      9545       9546       9557       9556       9666       9667       9678       9677  
      9546       9547       9558       9557       9667       9668       9679       9678  
      9547       9548       9559       9558       9668       9669       9680       9679  
      9560       9561       9572       9571       9681       9682       9693       9692  
      9561       9562       9573       9572       9682       9683       9694       9693  
      9562       9563       9574       9573       9683       9684       9695       9694  
      9563       9564       9575       9574       9684       9685       9696       9695  
      9564       9565       9576       9575       9685       9686       9697       9696  
      9565       9566       9577       9576       9686       9687       9698       9697  
      9566       9567       9578       9577       9687       9688       9699       9698  
      9567       9568       9579       9578       9688       9689       9700       9699  
      9568       9569       9580       9579       9689       9690       9701       9700  
      9569       9570       9581       9580       9690       9691       9702       9701  
      9571       9572       9583       9582       9692       9693       9704       9703  
      9572       9573       9584       9583       9693       9694       9705       9704  
      9573       9574       9585       9584       9694       9695       9706       9705  
      9574       9575       9586       9585       9695       9696       9707       9706  
      9575       9576       9587       9586       9696       9697       9708       9707  
      9576       9577       9588       9587       9697       9698       9709       9708  
      9577       9578       9589       9588       9698       9699       9710       9709  
      9578       9579       9590       9589       9699       9700       9711       9710  
      9579       9580       9591       9590       9700       9701       9712       9711  
      9580       9581       9592       9591       9701       9702       9713       9712  
      9582       9583       9594       9593       9703       9704       9715       9714  
      9583       9584       9595       9594       9704       9705       9716       9715  
      9584       9585       9596       9595       9705       9706       9717       9716  
      9585       9586       9597       9596       9706       9707       9718       9717  
      9586       9587       9598       9597       9707       9708       9719       9718  
      9587       9588       9599       9598       9708       9709       9720       9719  
      9588       9589       9600       9599       9709       9710       9721       9720  
      9589       9590       9601       9600       9710       9711       9722       9721  
      9590       9591       9602       9601       9711       9712       9723       9722  
      9591       9592       9603       9602       9712       9713       9724       9723  
      9593       9594       9605       9604       9714       9715       9726       9725  
      9594       9595       9606       9605       9715       9716       9727       9726  
      9595       9596       9607       9606       9716       9717       9728       9727  
      9596       9597       9608       9607       9717       9718       9729       9728  
      9597       9598       9609       9608       9718       9719       9730       9729  
      9598       9599       9610       9609       9719       9720       9731       9730  
      9599       9600       9611       9610       9720       9721       9732       9731  
      9600       9601       9612       9611       9721       9722       9733       9732  
      9601       9602       9613       9612       9722       9723       9734       9733  
      9602       9603       9614       9613       9723       9724       9735       9734  
      9604       9605       9616       9615       9725       9726       9737       9736  
      9605       9606       9617       9616       9726       9727       9738       9737  
      9606       9607       9618       9617       9727       9728       9739       9738  
      9607       9608       9619       9618       9728       9729       9740       9739  
      9608       9609       9620       9619       9729       9730       9741       9740  
      9609       9610       9621       9620       9730       9731       9742       9741  
      9610       9611       9622       9621       9731       9732       9743       9742  
      9611       9612       9623       9622       9732       9733       9744       9743  
      9612       9613       9624       9623       9733       9734       9745       9744  
      9613       9614       9625       9624       9734       9735       9746       9745  
      9615       9616       9627       9626       9736       9737       9748       9747  
      9616       9617       9628       9627       9737       9738       9749       9748  
      9617       9618       9629       9628       9738       9739       9750       9749  
      9618       9619       9630       9629       9739       9740       9751       9750  
      9619       9620       9631       9630       9740       9741       9752       9751  
      9620       9621       9632       9631       9741       9742       9753       9752  
      9621       9622       9633       9632       9742       9743       9754       9753  
      9622       9623       9634       9633       9743       9744       9755       9754  
      9623       9624       9635       9634       9744       9745       9756       9755  
      9624       9625       9636       9635       9745       9746       9757       9756  
      9626       9627       9638       9637       9747       9748       9759       9758  
      9627       9628       9639       9638       9748       9749       9760       9759  
      9628       9629       9640       9639       9749       9750       9761       9760  
      9629       9630       9641       9640       9750       9751       9762       9761  
      9630       9631       9642       9641       9751       9752       9763       9762  
      9631       9632       9643       9642       9752       9753       9764       9763  
      9632       9633       9644       9643       9753       9754       9765       9764  
      9633       9634       9645       9644       9754       9755       9766       9765  
      9634       9635       9646       9645       9755       9756       9767       9766  
      9635       9636       9647       9646       9756       9757       9768       9767  
      9637       9638       9649       9648       9758       9759       9770       9769  
      9638       9639       9650       9649       9759       9760       9771       9770  
      9639       9640       9651       9650       9760       9761       9772       9771  
      9640       9641       9652       9651       9761       9762       9773       9772  
      9641       9642       9653       9652       9762       9763       9774       9773  
      9642       9643       9654       9653       9763       9764       9775       9774  
      9643       9644       9655       9654       9764       9765       9776       9775  
      9644       9645       9656       9655       9765       9766       9777       9776  
      9645       9646       9657       9656       9766       9767       9778       9777  
      9646       9647       9658       9657       9767       9768       9779       9778  
      9648       9649       9660       9659       9769       9770       9781       9780  
      9649       9650       9661       9660       9770       9771       9782       9781  
      9650       9651       9662       9661       9771       9772       9783       9782  
      9651       9652       9663       9662       9772       9773       9784       9783  
      9652       9653       9664       9663       9773       9774       9785       9784  
      9653       9654       9665       9664       9774       9775       9786       9785  
      9654       9655       9666       9665       9775       9776       9787       9786  
      9655       9656       9667       9666       9776       9777       9788       9787  
      9656       9657       9668       9667       9777       9778       9789       9788  
      9657       9658       9669       9668       9778       9779       9790       9789  
      9659       9660       9671       9670       9780       9781       9792       9791  
      9660       9661       9672       9671       9781       9782       9793       9792  
      9661       9662       9673       9672       9782       9783       9794       9793  
      9662       9663       9674       9673       9783       9784       9795       9794  
      9663       9664       9675       9674       9784       9785       9796       9795  
      9664       9665       9676       9675       9785       9786       9797       9796  
      9665       9666       9677       9676       9786       9787       9798       9797  
      9666       9667       9678       9677       9787       9788       9799       9798  
      9667       9668       9679       9678       9788       9789       9800       9799  
      9668       9669       9680       9679       9789       9790       9801       9800  
      9681       9682       9693       9692       9802       9803       9814       9813  
      9682       9683       9694       9693       9803       9804       9815       9814  
      9683       9684       9695       9694       9804       9805       9816       9815  
      9684       9685       9696       9695       9805       9806       9817       9816  
      9685       9686       9697       9696       9806       9807       9818       9817  
      9686       9687       9698       9697       9807       9808       9819       9818  
      9687       9688       9699       9698       9808       9809       9820       9819  
      9688       9689       9700       9699       9809       9810       9821       9820  
      9689       9690       9701       9700       9810       9811       9822       9821  
      9690       9691       9702       9701       9811       9812       9823       9822  
      9692       9693       9704       9703       9813       9814       9825       9824  
      9693       9694       9705       9704       9814       9815       9826       9825  
      9694       9695       9706       9705       9815       9816       9827       9826  
      9695       9696       9707       9706       9816       9817       9828       9827  
      9696       9697       9708       9707       9817       9818       9829       9828  
      9697       9698       9709       9708       9818       9819       9830       9829  
      9698       9699       9710       9709       9819       9820       9831       9830  
      9699       9700       9711       9710       9820       9821       9832       9831  
      9700       9701       9712       9711       9821       9822       9833       9832  
      9701       9702       9713       9712       9822       9823       9834       9833  
      9703       9704       9715       9714       9824       9825       9836       9835  
      9704       9705       9716       9715       9825       9826       9837       9836  
      9705       9706       9717       9716       9826       9827       9838       9837  
      9706       9707       9718       9717       9827       9828       9839       9838  
      9707       9708       9719       9718       9828       9829       9840       9839  
      9708       9709       9720       9719       9829       9830       9841       9840  
      9709       9710       9721       9720       9830       9831       9842       9841  
      9710       9711       9722       9721       9831       9832       9843       9842  
      9711       9712       9723       9722       9832       9833       9844       9843  
      9712       9713       9724       9723       9833       9834       9845       9844  
      9714       9715       9726       9725       9835       9836       9847       9846  
      9715       9716       9727       9726       9836       9837       9848       9847  
      9716       9717       9728       9727       9837       9838       9849       9848  
      9717       9718       9729       9728       9838       9839       9850       9849  
      9718       9719       9730       9729       9839       9840       9851       9850  
      9719       9720       9731       9730       9840       9841       9852       9851  
      9720       9721       9732       9731       9841       9842       9853       9852  
      9721       9722       9733       9732       9842       9843       9854       9853  
      9722       9723       9734       9733       9843       9844       9855       9854  
      9723       9724       9735       9734       9844       9845       9856       9855  
      9725       9726       9737       9736       9846       9847       9858       9857  
      9726       9727       9738       9737       9847       9848       9859       9858  
      9727       9728       9739       9738       9848       9849       9860       9859  
      9728       9729       9740       9739       9849       9850       9861       9860  
      9729       9730       9741       9740       9850       9851       9862       9861  
      9730       9731       9742       9741       9851       9852       9863       9862  
      9731       9732       9743       9742       9852       9853       9864       9863  
      9732       9733       9744       9743       9853       9854       9865       9864  
      9733       9734       9745       9744       9854       9855       9866       9865  
      9734       9735       9746       9745       9855       9856       9867       9866  
      9736       9737       9748       9747       9857       9858       9869       9868  
      9737       9738       9749       9748       9858       9859       9870       9869  
      9738       9739       9750       9749       9859       9860       9871       9870  
      9739       9740       9751       9750       9860       9861       9872       9871  
      9740       9741       9752       9751       9861       9862       9873       9872  
      9741       9742       9753       9752       9862       9863       9874       9873  
      9742       9743       9754       9753       9863       9864       9875       9874  
      9743       9744       9755       9754       9864       9865       9876       9875  
      9744       9745       9756       9755       9865       9866       9877       9876  
      9745       9746       9757       9756       9866       9867       9878       9877  
      9747       9748       9759       9758       9868       9869       9880       9879  
      9748       9749       9760       9759       9869       9870       9881       9880  
      9749       9750       9761       9760       9870       9871       9882       9881  
      9750       9751       9762       9761       9871       9872       9883       9882  
      9751       9752       9763       9762       9872       9873       9884       9883  
      9752       9753       9764       9763       9873       9874       9885       9884  
      9753       9754       9765       9764       9874       9875       9886       9885  
      9754       9755       9766       9765       9875       9876       9887       9886  
      9755       9756       9767       9766       9876       9877       9888       9887  
      9756       9757       9768       9767       9877       9878       9889       9888  
      9758       9759       9770       9769       9879       9880       9891       9890  
      9759       9760       9771       9770       9880       9881       9892       9891  
      9760       9761       9772       9771       9881       9882       9893       9892  
      9761       9762       9773       9772       9882       9883       9894       9893  
      9762       9763       9774       9773       9883       9884       9895       9894  
      9763       9764       9775       9774       9884       9885       9896       9895  
      9764       9765       9776       9775       9885       9886       9897       9896  
      9765       9766       9777       9776       9886       9887       9898       9897  
      9766       9767       9778       9777       9887       9888       9899       9898  
      9767       9768       9779       9778       9888       9889       9900       9899  
      9769       9770       9781       9780       9890       9891       9902       9901  
      9770       9771       9782       9781       9891       9892       9903       9902  
      9771       9772       9783       9782       9892       9893       9904       9903  
      9772       9773       9784       9783       9893       9894       9905       9904  
      9773       9774       9785       9784       9894       9895       9906       9905  
      9774       9775       9786       9785       9895       9896       9907       9906  
      9775       9776       9787       9786       9896       9897       9908       9907  
      9776       9777       9788       9787       9897       9898       9909       9908  
      9777       9778       9789       9788       9898       9899       9910       9909  
      9778       9779       9790       9789       9899       9900       9911       9910  
      9780       9781       9792       9791       9901       9902       9913       9912  
      9781       9782       9793       9792       9902       9903       9914       9913  
      9782       9783       9794       9793       9903       9904       9915       9914  
      9783       9784       9795       9794       9904       9905       9916       9915  
      9784       9785       9796       9795       9905       9906       9917       9916  
      9785       9786       9797       9796       9906       9907       9918       9917  
      9786       9787       9798       9797       9907       9908       9919       9918  
      9787       9788       9799       9798       9908       9909       9920       9919  
      9788       9789       9800       9799       9909       9910       9921       9920  
      9789       9790       9801       9800       9910       9911       9922       9921  
      9802       9803       9814       9813       9923       9924       9935       9934  
      9803       9804       9815       9814       9924       9925       9936       9935  
      9804       9805       9816       9815       9925       9926       9937       9936  
      9805       9806       9817       9816       9926       9927       9938       9937  
      9806       9807       9818       9817       9927       9928       9939       9938  
      9807       9808       9819       9818       9928       9929       9940       9939  
      9808       9809       9820       9819       9929       9930       9941       9940  
      9809       9810       9821       9820       9930       9931       9942       9941  
      9810       9811       9822       9821       9931       9932       9943       9942  
      9811       9812       9823       9822       9932       9933       9944       9943  
      9813       9814       9825       9824       9934       9935       9946       9945  
      9814       9815       9826       9825       9935       9936       9947       9946  
      9815       9816       9827       9826       9936       9937       9948       9947  
      9816       9817       9828       9827       9937       9938       9949       9948  
      9817       9818       9829       9828       9938       9939       9950       9949  
      9818       9819       9830       9829       9939       9940       9951       9950  
      9819       9820       9831       9830       9940       9941       9952       9951  
      9820       9821       9832       9831       9941       9942       9953       9952  
      9821       9822       9833       9832       9942       9943       9954       9953  
      9822       9823       9834       9833       9943       9944       9955       9954  
      9824       9825       9836       9835       9945       9946       9957       9956  
      9825       9826       9837       9836       9946       9947       9958       9957  
      9826       9827       9838       9837       9947       9948       9959       9958  
      9827       9828       9839       9838       9948       9949       9960       9959  
      9828       9829       9840       9839       9949       9950       9961       9960  
      9829       9830       9841       9840       9950       9951       9962       9961  
      9830       9831       9842       9841       9951       9952       9963       9962  
      9831       9832       9843       9842       9952       9953       9964       9963  
      9832       9833       9844       9843       9953       9954       9965       9964  
      9833       9834       9845       9844       9954       9955       9966       9965  
      9835       9836       9847       9846       9956       9957       9968       9967  
      9836       9837       9848       9847       9957       9958       9969       9968  
      9837       9838       9849       9848       9958       9959       9970       9969  
      9838       9839       9850       9849       9959       9960       9971       9970  
      9839       9840       9851       9850       9960       9961       9972       9971  
      9840       9841       9852       9851       9961       9962       9973       9972  
      9841       9842       9853       9852       9962       9963       9974       9973  
      9842       9843       9854       9853       9963       9964       9975       9974  
      9843       9844       9855       9854       9964       9965       9976       9975  
      9844       9845       9856       9855       9965       9966       9977       9976  
      9846       9847       9858       9857       9967       9968       9979       9978  
      9847       9848       9859       9858       9968       9969       9980       9979  
      9848       9849       9860       9859       9969       9970       9981       9980  
      9849       9850       9861       9860       9970       9971       9982       9981  
      9850       9851       9862       9861       9971       9972       9983       9982  
      9851       9852       9863       9862       9972       9973       9984       9983  
      9852       9853       9864       9863       9973       9974       9985       9984  
      9853       9854       9865       9864       9974       9975       9986       9985  
      9854       9855       9866       9865       9975       9976       9987       9986  
      9855       9856       9867       9866       9976       9977       9988       9987  
      9857       9858       9869       9868       9978       9979       9990       9989  
      9858       9859       9870       9869       9979       9980       9991       9990  
      9859       9860       9871       9870       9980       9981       9992       9991  
      9860       9861       9872       9871       9981       9982       9993       9992  
      9861       9862       9873       9872       9982       9983       9994       9993  
      9862       9863       9874       9873       9983       9984       9995       9994  
      9863       9864       9875       9874       9984       9985       9996       9995  
      9864       9865       9876       9875       9985       9986       9997       9996  
      9865       9866       9877       9876       9986       9987       9998       9997  
      9866       9867       9878       9877       9987       9988       9999       9998  
      9868       9869       9880       9879       9989       9990      10001      10000  
      9869       9870       9881       9880       9990       9991      10002      10001  
      9870       9871       9882       9881       9991       9992      10003      10002  
      9871       9872       9883       9882       9992       9993      10004      10003  
      9872       9873       9884       9883       9993       9994      10005      10004  
      9873       9874       9885       9884       9994       9995      10006      10005  
      9874       9875       9886       9885       9995       9996      10007      10006  
      9875       9876       9887       9886       9996       9997      10008      10007  
      9876       9877       9888       9887       9997       9998      10009      10008  
      9877       9878       9889       9888       9998       9999      10010      10009  
      9879       9880       9891       9890      10000      10001      10012      10011  
      9880       9881       9892       9891      10001      10002      10013      10012  
      9881       9882       9893       9892      10002      10003      10014      10013  
      9882       9883       9894       9893      10003      10004      10015      10014  
      9883       9884       9895       9894      10004      10005      10016      10015  
      9884       9885       9896       9895      10005      10006      10017      10016  
      9885       9886       9897       9896      10006      10007      10018      10017  
      9886       9887       9898       9897      10007      10008      10019      10018  
      9887       9888       9899       9898      10008      10009      10020      10019  
      9888       9889       9900       9899      10009      10010      10021      10020  
      9890       9891       9902       9901      10011      10012      10023      10022  
      9891       9892       9903       9902      10012      10013      10024      10023  
      9892       9893       9904       9903      10013      10014      10025      10024  
      9893       9894       9905       9904      10014      10015      10026      10025  
      9894       9895       9906       9905      10015      10016      10027      10026  
      9895       9896       9907       9906      10016      10017      10028      10027  
      9896       9897       9908       9907      10017      10018      10029      10028  
      9897       9898       9909       9908      10018      10019      10030      10029  
      9898       9899       9910       9909      10019      10020      10031      10030  
      9899       9900       9911       9910      10020      10021      10032      10031  
      9901       9902       9913       9912      10022      10023      10034      10033  
      9902       9903       9914       9913      10023      10024      10035      10034  
      9903       9904       9915       9914      10024      10025      10036      10035  
      9904       9905       9916       9915      10025      10026      10037      10036  
      9905       9906       9917       9916      10026      10027      10038      10037  
      9906       9907       9918       9917      10027      10028      10039      10038  
      9907       9908       9919       9918      10028      10029      10040      10039  
      9908       9909       9920       9919      10029      10030      10041      10040  
      9909       9910       9921       9920      10030      10031      10042      10041  
      9910       9911       9922       9921      10031      10032      10043      10042  
      9923       9924       9935       9934      10044      10045      10056      10055  
      9924       9925       9936       9935      10045      10046      10057      10056  
      9925       9926       9937       9936      10046      10047      10058      10057  
      9926       9927       9938       9937      10047      10048      10059      10058  
      9927       9928       9939       9938      10048      10049      10060      10059  
      9928       9929       9940       9939      10049      10050      10061      10060  
      9929       9930       9941       9940      10050      10051      10062      10061  
      9930       9931       9942       9941      10051      10052      10063      10062  
      9931       9932       9943       9942      10052      10053      10064      10063  
      9932       9933       9944       9943      10053      10054      10065      10064  
      9934       9935       9946       9945      10055      10056      10067      10066  
      9935       9936       9947       9946      10056      10057      10068      10067  
      9936       9937       9948       9947      10057      10058      10069      10068  
      9937       9938       9949       9948      10058      10059      10070      10069  
      9938       9939       9950       9949      10059      10060      10071      10070  
      9939       9940       9951       9950      10060      10061      10072      10071  
      9940       9941       9952       9951      10061      10062      10073      10072  
      9941       9942       9953       9952      10062      10063      10074      10073  
      9942       9943       9954       9953      10063      10064      10075      10074  
      9943       9944       9955       9954      10064      10065      10076      10075  
      9945       9946       9957       9956      10066      10067      10078      10077  
      9946       9947       9958       9957      10067      10068      10079      10078  
      9947       9948       9959       9958      10068      10069      10080      10079  
      9948       9949       9960       9959      10069      10070      10081      10080  
      9949       9950       9961       9960      10070      10071      10082      10081  
      9950       9951       9962       9961      10071      10072      10083      10082  
      9951       9952       9963       9962      10072      10073      10084      10083  
      9952       9953       9964       9963      10073      10074      10085      10084  
      9953       9954       9965       9964      10074      10075      10086      10085  
      9954       9955       9966       9965      10075      10076      10087      10086  
      9956       9957       9968       9967      10077      10078      10089      10088  
      9957       9958       9969       9968      10078      10079      10090      10089  
      9958       9959       9970       9969      10079      10080      10091      10090  
      9959       9960       9971       9970      10080      10081      10092      10091  
      9960       9961       9972       9971      10081      10082      10093      10092  
      9961       9962       9973       9972      10082      10083      10094      10093  
      9962       9963       9974       9973      10083      10084      10095      10094  
      9963       9964       9975       9974      10084      10085      10096      10095  
      9964       9965       9976       9975      10085      10086      10097      10096  
      9965       9966       9977       9976      10086      10087      10098      10097  
      9967       9968       9979       9978      10088      10089      10100      10099  
      9968       9969       9980       9979      10089      10090      10101      10100  
      9969       9970       9981       9980      10090      10091      10102      10101  
      9970       9971       9982       9981      10091      10092      10103      10102  
      9971       9972       9983       9982      10092      10093      10104      10103  
      9972       9973       9984       9983      10093      10094      10105      10104  
      9973       9974       9985       9984      10094      10095      10106      10105  
      9974       9975       9986       9985      10095      10096      10107      10106  
      9975       9976       9987       9986      10096      10097      10108      10107  
      9976       9977       9988       9987      10097      10098      10109      10108  
      9978       9979       9990       9989      10099      10100      10111      10110  
      9979       9980       9991       9990      10100      10101      10112      10111  
      9980       9981       9992       9991      10101      10102      10113      10112  
      9981       9982       9993       9992      10102      10103      10114      10113  
      9982       9983       9994       9993      10103      10104      10115      10114  
      9983       9984       9995       9994      10104      10105      10116      10115  
      9984       9985       9996       9995      10105      10106      10117      10116  
      9985       9986       9997       9996      10106      10107      10118      10117  
      9986       9987       9998       9997      10107      10108      10119      10118  
      9987       9988       9999       9998      10108      10109      10120      10119  
      9989       9990      10001      10000      10110      10111      10122      10121  
      9990       9991      10002      10001      10111      10112      10123      10122  
      9991       9992      10003      10002      10112      10113      10124      10123  
      9992       9993      10004      10003      10113      10114      10125      10124  
      9993       9994      10005      10004      10114      10115      10126      10125  
      9994       9995      10006      10005      10115      10116      10127      10126  
      9995       9996      10007      10006      10116      10117      10128      10127  
      9996       9997      10008      10007      10117      10118      10129      10128  
      9997       9998      10009      10008      10118      10119      10130      10129  
      9998       9999      10010      10009      10119      10120      10131      10130  
     10000      10001      10012      10011      10121      10122      10133      10132  
     10001      10002      10013      10012      10122      10123      10134      10133  
     10002      10003      10014      10013      10123      10124      10135      10134  
     10003      10004      10015      10014      10124      10125      10136      10135  
     10004      10005      10016      10015      10125      10126      10137      10136  
     10005      10006      10017      10016      10126      10127      10138      10137  
     10006      10007      10018      10017      10127      10128      10139      10138  
     10007      10008      10019      10018      10128      10129      10140      10139  
     10008      10009      10020      10019      10129      10130      10141      10140  
     10009      10010      10021      10020      10130      10131      10142      10141  
     10011      10012      10023      10022      10132      10133      10144      10143  
     10012      10013      10024      10023      10133      10134      10145      10144  
     10013      10014      10025      10024      10134      10135      10146      10145  
     10014      10015      10026      10025      10135      10136      10147      10146  
     10015      10016      10027      10026      10136      10137      10148      10147  
     10016      10017      10028      10027      10137      10138      10149      10148  
     10017      10018      10029      10028      10138      10139      10150      10149  
     10018      10019      10030      10029      10139      10140      10151      10150  
     10019      10020      10031      10030      10140      10141      10152      10151  
     10020      10021      10032      10031      10141      10142      10153      10152  
     10022      10023      10034      10033      10143      10144      10155      10154  
     10023      10024      10035      10034      10144      10145      10156      10155  
     10024      10025      10036      10035      10145      10146      10157      10156  
     10025      10026      10037      10036      10146      10147      10158      10157  
     10026      10027      10038      10037      10147      10148      10159      10158  
     10027      10028      10039      10038      10148      10149      10160      10159  
     10028      10029      10040      10039      10149      10150      10161      10160  
     10029      10030      10041      10040      10150      10151      10162      10161  
     10030      10031      10042      10041      10151      10152      10163      10162  
     10031      10032      10043      10042      10152      10153      10164      10163  
     10044      10045      10056      10055      10165      10166      10177      10176  
     10045      10046      10057      10056      10166      10167      10178      10177  
     10046      10047      10058      10057      10167      10168      10179      10178  
     10047      10048      10059      10058      10168      10169      10180      10179  
     10048      10049      10060      10059      10169      10170      10181      10180  
     10049      10050      10061      10060      10170      10171      10182      10181  
     10050      10051      10062      10061      10171      10172      10183      10182  
     10051      10052      10063      10062      10172      10173      10184      10183  
     10052      10053      10064      10063      10173      10174      10185      10184  
     10053      10054      10065      10064      10174      10175      10186      10185  
     10055      10056      10067      10066      10176      10177      10188      10187  
     10056      10057      10068      10067      10177      10178      10189      10188  
     10057      10058      10069      10068      10178      10179      10190      10189  
     10058      10059      10070      10069      10179      10180      10191      10190  
     10059      10060      10071      10070      10180      10181      10192      10191  
     10060      10061      10072      10071      10181      10182      10193      10192  
     10061      10062      10073      10072      10182      10183      10194      10193  
     10062      10063      10074      10073      10183      10184      10195      10194  
     10063      10064      10075      10074      10184      10185      10196      10195  
     10064      10065      10076      10075      10185      10186      10197      10196  
     10066      10067      10078      10077      10187      10188      10199      10198  
     10067      10068      10079      10078      10188      10189      10200      10199  
     10068      10069      10080      10079      10189      10190      10201      10200  
     10069      10070      10081      10080      10190      10191      10202      10201  
     10070      10071      10082      10081      10191      10192      10203      10202  
     10071      10072      10083      10082      10192      10193      10204      10203  
     10072      10073      10084      10083      10193      10194      10205      10204  
     10073      10074      10085      10084      10194      10195      10206      10205  
     10074      10075      10086      10085      10195      10196      10207      10206  
     10075      10076      10087      10086      10196      10197      10208      10207  
     10077      10078      10089      10088      10198      10199      10210      10209  
     10078      10079      10090      10089      10199      10200      10211      10210  
     10079      10080      10091      10090      10200      10201      10212      10211  
     10080      10081      10092      10091      10201      10202      10213      10212  
     10081      10082      10093      10092      10202      10203      10214      10213  
     10082      10083      10094      10093      10203      10204      10215      10214  
     10083      10084      10095      10094      10204      10205      10216      10215  
     10084      10085      10096      10095      10205      10206      10217      10216  
     10085      10086      10097      10096      10206      10207      10218      10217  
     10086      10087      10098      10097      10207      10208      10219      10218  
     10088      10089      10100      10099      10209      10210      10221      10220  
     10089      10090      10101      10100      10210      10211      10222      10221  
     10090      10091      10102      10101      10211      10212      10223      10222  
     10091      10092      10103      10102      10212      10213      10224      10223  
     10092      10093      10104      10103      10213      10214      10225      10224  
     10093      10094      10105      10104      10214      10215      10226      10225  
     10094      10095      10106      10105      10215      10216      10227      10226  
     10095      10096      10107      10106      10216      10217      10228      10227  
     10096      10097      10108      10107      10217      10218      10229      10228  
     10097      10098      10109      10108      10218      10219      10230      10229  
     10099      10100      10111      10110      10220      10221      10232      10231  
     10100      10101      10112      10111      10221      10222      10233      10232  
     10101      10102      10113      10112      10222      10223      10234      10233  
     10102      10103      10114      10113      10223      10224      10235      10234  
     10103      10104      10115      10114      10224      10225      10236      10235  
     10104      10105      10116      10115      10225      10226      10237      10236  
     10105      10106      10117      10116      10226      10227      10238      10237  
     10106      10107      10118      10117      10227      10228      10239      10238  
     10107      10108      10119      10118      10228      10229      10240      10239  
     10108      10109      10120      10119      10229      10230      10241      10240  
     10110      10111      10122      10121      10231      10232      10243      10242  
     10111      10112      10123      10122      10232      10233      10244      10243  
     10112      10113      10124      10123      10233      10234      10245      10244  
     10113      10114      10125      10124      10234      10235      10246      10245  
     10114      10115      10126      10125      10235      10236      10247      10246  
     10115      10116      10127      10126      10236      10237      10248      10247  
     10116      10117      10128      10127      10237      10238      10249      10248  
     10117      10118      10129      10128      10238      10239      10250      10249  
     10118      10119      10130      10129      10239      10240      10251      10250  
     10119      10120      10131      10130      10240      10241      10252      10251  
     10121      10122      10133      10132      10242      10243      10254      10253  
     10122      10123      10134      10133      10243      10244      10255      10254  
     10123      10124      10135      10134      10244      10245      10256      10255  
     10124      10125      10136      10135      10245      10246      10257      10256  
     10125      10126      10137      10136      10246      10247      10258      10257  
     10126      10127      10138      10137      10247      10248      10259      10258  
     10127      10128      10139      10138      10248      10249      10260      10259  
     10128      10129      10140      10139      10249      10250      10261      10260  
     10129      10130      10141      10140      10250      10251      10262      10261  
     10130      10131      10142      10141      10251      10252      10263      10262  
     10132      10133      10144      10143      10253      10254      10265      10264  
     10133      10134      10145      10144      10254      10255      10266      10265  
     10134      10135      10146      10145      10255      10256      10267      10266  
     10135      10136      10147      10146      10256      10257      10268      10267  
     10136      10137      10148      10147      10257      10258      10269      10268  
     10137      10138      10149      10148      10258      10259      10270      10269  
     10138      10139      10150      10149      10259      10260      10271      10270  
     10139      10140      10151      10150      10260      10261      10272      10271  
     10140      10141      10152      10151      10261      10262      10273      10272  
     10141      10142      10153      10152      10262      10263      10274      10273  
     10143      10144      10155      10154      10264      10265      10276      10275  
     10144      10145      10156      10155      10265      10266      10277      10276  
     10145      10146      10157      10156      10266      10267      10278      10277  
     10146      10147      10158      10157      10267      10268      10279      10278  
     10147      10148      10159      10158      10268      10269      10280      10279  
     10148      10149      10160      10159      10269      10270      10281      10280  
     10149      10150      10161      10160      10270      10271      10282      10281  
     10150      10151      10162      10161      10271      10272      10283      10282  
     10151      10152      10163      10162      10272      10273      10284      10283  
     10152      10153      10164      10163      10273      10274      10285      10284  
     10165      10166      10177      10176      10286      10287      10298      10297  
     10166      10167      10178      10177      10287      10288      10299      10298  
     10167      10168      10179      10178      10288      10289      10300      10299  
     10168      10169      10180      10179      10289      10290      10301      10300  
     10169      10170      10181      10180      10290      10291      10302      10301  
     10170      10171      10182      10181      10291      10292      10303      10302  
     10171      10172      10183      10182      10292      10293      10304      10303  
     10172      10173      10184      10183      10293      10294      10305      10304  
     10173      10174      10185      10184      10294      10295      10306      10305  
     10174      10175      10186      10185      10295      10296      10307      10306  
     10176      10177      10188      10187      10297      10298      10309      10308  
     10177      10178      10189      10188      10298      10299      10310      10309  
     10178      10179      10190      10189      10299      10300      10311      10310  
     10179      10180      10191      10190      10300      10301      10312      10311  
     10180      10181      10192      10191      10301      10302      10313      10312  
     10181      10182      10193      10192      10302      10303      10314      10313  
     10182      10183      10194      10193      10303      10304      10315      10314  
     10183      10184      10195      10194      10304      10305      10316      10315  
     10184      10185      10196      10195      10305      10306      10317      10316  
     10185      10186      10197      10196      10306      10307      10318      10317  
     10187      10188      10199      10198      10308      10309      10320      10319  
     10188      10189      10200      10199      10309      10310      10321      10320  
     10189      10190      10201      10200      10310      10311      10322      10321  
     10190      10191      10202      10201      10311      10312      10323      10322  
     10191      10192      10203      10202      10312      10313      10324      10323  
     10192      10193      10204      10203      10313      10314      10325      10324  
     10193      10194      10205      10204      10314      10315      10326      10325  
     10194      10195      10206      10205      10315      10316      10327      10326  
     10195      10196      10207      10206      10316      10317      10328      10327  
     10196      10197      10208      10207      10317      10318      10329      10328  
     10198      10199      10210      10209      10319      10320      10331      10330  
     10199      10200      10211      10210      10320      10321      10332      10331  
     10200      10201      10212      10211      10321      10322      10333      10332  
     10201      10202      10213      10212      10322      10323      10334      10333  
     10202      10203      10214      10213      10323      10324      10335      10334  
     10203      10204      10215      10214      10324      10325      10336      10335  
     10204      10205      10216      10215      10325      10326      10337      10336  
     10205      10206      10217      10216      10326      10327      10338      10337  
     10206      10207      10218      10217      10327      10328      10339      10338  
     10207      10208      10219      10218      10328      10329      10340      10339  
     10209      10210      10221      10220      10330      10331      10342      10341  
     10210      10211      10222      10221      10331      10332      10343      10342  
     10211      10212      10223      10222      10332      10333      10344      10343  
     10212      10213      10224      10223      10333      10334      10345      10344  
     10213      10214      10225      10224      10334      10335      10346      10345  
     10214      10215      10226      10225      10335      10336      10347      10346  
     10215      10216      10227      10226      10336      10337      10348      10347  
     10216      10217      10228      10227      10337      10338      10349      10348  
     10217      10218      10229      10228      10338      10339      10350      10349  
     10218      10219      10230      10229      10339      10340      10351      10350  
     10220      10221      10232      10231      10341      10342      10353      10352  
     10221      10222      10233      10232      10342      10343      10354      10353  
     10222      10223      10234      10233      10343      10344      10355      10354  
     10223      10224      10235      10234      10344      10345      10356      10355  
     10224      10225      10236      10235      10345      10346      10357      10356  
     10225      10226      10237      10236      10346      10347      10358      10357  
     10226      10227      10238      10237      10347      10348      10359      10358  
     10227      10228      10239      10238      10348      10349      10360      10359  
     10228      10229      10240      10239      10349      10350      10361      10360  
     10229      10230      10241      10240      10350      10351      10362      10361  
     10231      10232      10243      10242      10352      10353      10364      10363  
     10232      10233      10244      10243      10353      10354      10365      10364  
     10233      10234      10245      10244      10354      10355      10366      10365  
     10234      10235      10246      10245      10355      10356      10367      10366  
     10235      10236      10247      10246      10356      10357      10368      10367  
     10236      10237      10248      10247      10357      10358      10369      10368  
     10237      10238      10249      10248      10358      10359      10370      10369  
     10238      10239      10250      10249      10359      10360      10371      10370  
     10239      10240      10251      10250      10360      10361      10372      10371  
     10240      10241      10252      10251      10361      10362      10373      10372  
     10242      10243      10254      10253      10363      10364      10375      10374  
     10243      10244      10255      10254      10364      10365      10376      10375  
     10244      10245      10256      10255      10365      10366      10377      10376  
     10245      10246      10257      10256      10366      10367      10378      10377  
     10246      10247      10258      10257      10367      10368      10379      10378  
     10247      10248      10259      10258      10368      10369      10380      10379  
     10248      10249      10260      10259      10369      10370      10381      10380  
     10249      10250      10261      10260      10370      10371      10382      10381  
     10250      10251      10262      10261      10371      10372      10383      10382  
     10251      10252      10263      10262      10372      10373      10384      10383  
     10253      10254      10265      10264      10374      10375      10386      10385  
     10254      10255      10266      10265      10375      10376      10387      10386  
     10255      10256      10267      10266      10376      10377      10388      10387  
     10256      10257      10268      10267      10377      10378      10389      10388  
     10257      10258      10269      10268      10378      10379      10390      10389  
     10258      10259      10270      10269      10379      10380      10391      10390  
     10259      10260      10271      10270      10380      10381      10392      10391  
     10260      10261      10272      10271      10381      10382      10393      10392  
     10261      10262      10273      10272      10382      10383      10394      10393  
     10262      10263      10274      10273      10383      10384      10395      10394  
     10264      10265      10276      10275      10385      10386      10397      10396  
     10265      10266      10277      10276      10386      10387      10398      10397  
     10266      10267      10278      10277      10387      10388      10399      10398  
     10267      10268      10279      10278      10388      10389      10400      10399  
     10268      10269      10280      10279      10389      10390      10401      10400  
     10269      10270      10281      10280      10390      10391      10402      10401  
     10270      10271      10282      10281      10391      10392      10403      10402  
     10271      10272      10283      10282      10392      10393      10404      10403  
     10272      10273      10284      10283      10393      10394      10405      10404  
     10273      10274      10285      10284      10394      10395      10406      10405  
     10286      10287      10298      10297      10407      10408      10419      10418  
     10287      10288      10299      10298      10408      10409      10420      10419  
     10288      10289      10300      10299      10409      10410      10421      10420  
     10289      10290      10301      10300      10410      10411      10422      10421  
     10290      10291      10302      10301      10411      10412      10423      10422  
     10291      10292      10303      10302      10412      10413      10424      10423  
     10292      10293      10304      10303      10413      10414      10425      10424  
     10293      10294      10305      10304      10414      10415      10426      10425  
     10294      10295      10306      10305      10415      10416      10427      10426  
     10295      10296      10307      10306      10416      10417      10428      10427  
     10297      10298      10309      10308      10418      10419      10430      10429  
     10298      10299      10310      10309      10419      10420      10431      10430  
     10299      10300      10311      10310      10420      10421      10432      10431  
     10300      10301      10312      10311      10421      10422      10433      10432  
     10301      10302      10313      10312      10422      10423      10434      10433  
     10302      10303      10314      10313      10423      10424      10435      10434  
     10303      10304      10315      10314      10424      10425      10436      10435  
     10304      10305      10316      10315      10425      10426      10437      10436  
     10305      10306      10317      10316      10426      10427      10438      10437  
     10306      10307      10318      10317      10427      10428      10439      10438  
     10308      10309      10320      10319      10429      10430      10441      10440  
     10309      10310      10321      10320      10430      10431      10442      10441  
     10310      10311      10322      10321      10431      10432      10443      10442  
     10311      10312      10323      10322      10432      10433      10444      10443  
     10312      10313      10324      10323      10433      10434      10445      10444  
     10313      10314      10325      10324      10434      10435      10446      10445  
     10314      10315      10326      10325      10435      10436      10447      10446  
     10315      10316      10327      10326      10436      10437      10448      10447  
     10316      10317      10328      10327      10437      10438      10449      10448  
     10317      10318      10329      10328      10438      10439      10450      10449  
     10319      10320      10331      10330      10440      10441      10452      10451  
     10320      10321      10332      10331      10441      10442      10453      10452  
     10321      10322      10333      10332      10442      10443      10454      10453  
     10322      10323      10334      10333      10443      10444      10455      10454  
     10323      10324      10335      10334      10444      10445      10456      10455  
     10324      10325      10336      10335      10445      10446      10457      10456  
     10325      10326      10337      10336      10446      10447      10458      10457  
     10326      10327      10338      10337      10447      10448      10459      10458  
     10327      10328      10339      10338      10448      10449      10460      10459  
     10328      10329      10340      10339      10449      10450      10461      10460  
     10330      10331      10342      10341      10451      10452      10463      10462  
     10331      10332      10343      10342      10452      10453      10464      10463  
     10332      10333      10344      10343      10453      10454      10465      10464  
     10333      10334      10345      10344      10454      10455      10466      10465  
     10334      10335      10346      10345      10455      10456      10467      10466  
     10335      10336      10347      10346      10456      10457      10468      10467  
     10336      10337      10348      10347      10457      10458      10469      10468  
     10337      10338      10349      10348      10458      10459      10470      10469  
     10338      10339      10350      10349      10459      10460      10471      10470  
     10339      10340      10351      10350      10460      10461      10472      10471  
     10341      10342      10353      10352      10462      10463      10474      10473  
     10342      10343      10354      10353      10463      10464      10475      10474  
     10343      10344      10355      10354      10464      10465      10476      10475  
     10344      10345      10356      10355      10465      10466      10477      10476  
     10345      10346      10357      10356      10466      10467      10478      10477  
     10346      10347      10358      10357      10467      10468      10479      10478  
     10347      10348      10359      10358      10468      10469      10480      10479  
     10348      10349      10360      10359      10469      10470      10481      10480  
     10349      10350      10361      10360      10470      10471      10482      10481  
     10350      10351      10362      10361      10471      10472      10483      10482  
     10352      10353      10364      10363      10473      10474      10485      10484  
     10353      10354      10365      10364      10474      10475      10486      10485  
     10354      10355      10366      10365      10475      10476      10487      10486  
     10355      10356      10367      10366      10476      10477      10488      10487  
     10356      10357      10368      10367      10477      10478      10489      10488  
     10357      10358      10369      10368      10478      10479      10490      10489  
     10358      10359      10370      10369      10479      10480      10491      10490  
     10359      10360      10371      10370      10480      10481      10492      10491  
     10360      10361      10372      10371      10481      10482      10493      10492  
     10361      10362      10373      10372      10482      10483      10494      10493  
     10363      10364      10375      10374      10484      10485      10496      10495  
     10364      10365      10376      10375      10485      10486      10497      10496  
     10365      10366      10377      10376      10486      10487      10498      10497  
     10366      10367      10378      10377      10487      10488      10499      10498  
     10367      10368      10379      10378      10488      10489      10500      10499  
     10368      10369      10380      10379      10489      10490      10501      10500  
     10369      10370      10381      10380      10490      10491      10502      10501  
     10370      10371      10382      10381      10491      10492      10503      10502  
     10371      10372      10383      10382      10492      10493      10504      10503  
     10372      10373      10384      10383      10493      10494      10505      10504  
     10374      10375      10386      10385      10495      10496      10507      10506  
     10375      10376      10387      10386      10496      10497      10508      10507  
     10376      10377      10388      10387      10497      10498      10509      10508  
     10377      10378      10389      10388      10498      10499      10510      10509  
     10378      10379      10390      10389      10499      10500      10511      10510  
     10379      10380      10391      10390      10500      10501      10512      10511  
     10380      10381      10392      10391      10501      10502      10513      10512  
     10381      10382      10393      10392      10502      10503      10514      10513  
     10382      10383      10394      10393      10503      10504      10515      10514  
     10383      10384      10395      10394      10504      10505      10516      10515  
     10385      10386      10397      10396      10506      10507      10518      10517  
     10386      10387      10398      10397      10507      10508      10519      10518  
     10387      10388      10399      10398      10508      10509      10520      10519  
     10388      10389      10400      10399      10509      10510      10521      10520  
     10389      10390      10401      10400      10510      10511      10522      10521  
     10390      10391      10402      10401      10511      10512      10523      10522  
     10391      10392      10403      10402      10512      10513      10524      10523  
     10392      10393      10404      10403      10513      10514      10525      10524  
     10393      10394      10405      10404      10514      10515      10526      10525  
     10394      10395      10406      10405      10515      10516      10527      10526  
     10407      10408      10419      10418      10528      10529      10540      10539  
     10408      10409      10420      10419      10529      10530      10541      10540  
     10409      10410      10421      10420      10530      10531      10542      10541  
     10410      10411      10422      10421      10531      10532      10543      10542  
     10411      10412      10423      10422      10532      10533      10544      10543  
     10412      10413      10424      10423      10533      10534      10545      10544  
     10413      10414      10425      10424      10534      10535      10546      10545  
     10414      10415      10426      10425      10535      10536      10547      10546  
     10415      10416      10427      10426      10536      10537      10548      10547  
     10416      10417      10428      10427      10537      10538      10549      10548  
     10418      10419      10430      10429      10539      10540      10551      10550  
     10419      10420      10431      10430      10540      10541      10552      10551  
     10420      10421      10432      10431      10541      10542      10553      10552  
     10421      10422      10433      10432      10542      10543      10554      10553  
     10422      10423      10434      10433      10543      10544      10555      10554  
     10423      10424      10435      10434      10544      10545      10556      10555  
     10424      10425      10436      10435      10545      10546      10557      10556  
     10425      10426      10437      10436      10546      10547      10558      10557  
     10426      10427      10438      10437      10547      10548      10559      10558  
     10427      10428      10439      10438      10548      10549      10560      10559  
     10429      10430      10441      10440      10550      10551      10562      10561  
     10430      10431      10442      10441      10551      10552      10563      10562  
     10431      10432      10443      10442      10552      10553      10564      10563  
     10432      10433      10444      10443      10553      10554      10565      10564  
     10433      10434      10445      10444      10554      10555      10566      10565  
     10434      10435      10446      10445      10555      10556      10567      10566  
     10435      10436      10447      10446      10556      10557      10568      10567  
     10436      10437      10448      10447      10557      10558      10569      10568  
     10437      10438      10449      10448      10558      10559      10570      10569  
     10438      10439      10450      10449      10559      10560      10571      10570  
     10440      10441      10452      10451      10561      10562      10573      10572  
     10441      10442      10453      10452      10562      10563      10574      10573  
     10442      10443      10454      10453      10563      10564      10575      10574  
     10443      10444      10455      10454      10564      10565      10576      10575  
     10444      10445      10456      10455      10565      10566      10577      10576  
     10445      10446      10457      10456      10566      10567      10578      10577  
     10446      10447      10458      10457      10567      10568      10579      10578  
     10447      10448      10459      10458      10568      10569      10580      10579  
     10448      10449      10460      10459      10569      10570      10581      10580  
     10449      10450      10461      10460      10570      10571      10582      10581  
     10451      10452      10463      10462      10572      10573      10584      10583  
     10452      10453      10464      10463      10573      10574      10585      10584  
     10453      10454      10465      10464      10574      10575      10586      10585  
     10454      10455      10466      10465      10575      10576      10587      10586  
     10455      10456      10467      10466      10576      10577      10588      10587  
     10456      10457      10468      10467      10577      10578      10589      10588  
     10457      10458      10469      10468      10578      10579      10590      10589  
     10458      10459      10470      10469      10579      10580      10591      10590  
     10459      10460      10471      10470      10580      10581      10592      10591  
     10460      10461      10472      10471      10581      10582      10593      10592  
     10462      10463      10474      10473      10583      10584      10595      10594  
     10463      10464      10475      10474      10584      10585      10596      10595  
     10464      10465      10476      10475      10585      10586      10597      10596  
     10465      10466      10477      10476      10586      10587      10598      10597  
     10466      10467      10478      10477      10587      10588      10599      10598  
     10467      10468      10479      10478      10588      10589      10600      10599  
     10468      10469      10480      10479      10589      10590      10601      10600  
     10469      10470      10481      10480      10590      10591      10602      10601  
     10470      10471      10482      10481      10591      10592      10603      10602  
     10471      10472      10483      10482      10592      10593      10604      10603  
     10473      10474      10485      10484      10594      10595      10606      10605  
     10474      10475      10486      10485      10595      10596      10607      10606  
     10475      10476      10487      10486      10596      10597      10608      10607  
     10476      10477      10488      10487      10597      10598      10609      10608  
     10477      10478      10489      10488      10598      10599      10610      10609  
     10478      10479      10490      10489      10599      10600      10611      10610  
     10479      10480      10491      10490      10600      10601      10612      10611  
     10480      10481      10492      10491      10601      10602      10613      10612  
     10481      10482      10493      10492      10602      10603      10614      10613  
     10482      10483      10494      10493      10603      10604      10615      10614  
     10484      10485      10496      10495      10605      10606      10617      10616  
     10485      10486      10497      10496      10606      10607      10618      10617  
     10486      10487      10498      10497      10607      10608      10619      10618  
     10487      10488      10499      10498      10608      10609      10620      10619  
     10488      10489      10500      10499      10609      10610      10621      10620  
     10489      10490      10501      10500      10610      10611      10622      10621  
     10490      10491      10502      10501      10611      10612      10623      10622  
     10491      10492      10503      10502      10612      10613      10624      10623  
     10492      10493      10504      10503      10613      10614      10625      10624  
     10493      10494      10505      10504      10614      10615      10626      10625  
     10495      10496      10507      10506      10616      10617      10628      10627  
     10496      10497      10508      10507      10617      10618      10629      10628  
     10497      10498      10509      10508      10618      10619      10630      10629  
     10498      10499      10510      10509      10619      10620      10631      10630  
     10499      10500      10511      10510      10620      10621      10632      10631  
     10500      10501      10512      10511      10621      10622      10633      10632  
     10501      10502      10513      10512      10622      10623      10634      10633  
     10502      10503      10514      10513      10623      10624      10635      10634  
     10503      10504      10515      10514      10624      10625      10636      10635  
     10504      10505      10516      10515      10625      10626      10637      10636  
     10506      10507      10518      10517      10627      10628      10639      10638  
     10507      10508      10519      10518      10628      10629      10640      10639  
     10508      10509      10520      10519      10629      10630      10641      10640  
     10509      10510      10521      10520      10630      10631      10642      10641  
     10510      10511      10522      10521      10631      10632      10643      10642  
     10511      10512      10523      10522      10632      10633      10644      10643  
     10512      10513      10524      10523      10633      10634      10645      10644  
     10513      10514      10525      10524      10634      10635      10646      10645  
     10514      10515      10526      10525      10635      10636      10647      10646  
     10515      10516      10527      10526      10636      10637      10648      10647  
     10528      10529      10540      10539      10649      10650      10661      10660  
     10529      10530      10541      10540      10650      10651      10662      10661  
     10530      10531      10542      10541      10651      10652      10663      10662  
     10531      10532      10543      10542      10652      10653      10664      10663  
     10532      10533      10544      10543      10653      10654      10665      10664  
     10533      10534      10545      10544      10654      10655      10666      10665  
     10534      10535      10546      10545      10655      10656      10667      10666  
     10535      10536      10547      10546      10656      10657      10668      10667  
     10536      10537      10548      10547      10657      10658      10669      10668  
     10537      10538      10549      10548      10658      10659      10670      10669  
     10539      10540      10551      10550      10660      10661      10672      10671  
     10540      10541      10552      10551      10661      10662      10673      10672  
     10541      10542      10553      10552      10662      10663      10674      10673  
     10542      10543      10554      10553      10663      10664      10675      10674  
     10543      10544      10555      10554      10664      10665      10676      10675  
     10544      10545      10556      10555      10665      10666      10677      10676  
     10545      10546      10557      10556      10666      10667      10678      10677  
     10546      10547      10558      10557      10667      10668      10679      10678  
     10547      10548      10559      10558      10668      10669      10680      10679  
     10548      10549      10560      10559      10669      10670      10681      10680  
     10550      10551      10562      10561      10671      10672      10683      10682  
     10551      10552      10563      10562      10672      10673      10684      10683  
     10552      10553      10564      10563      10673      10674      10685      10684  
     10553      10554      10565      10564      10674      10675      10686      10685  
     10554      10555      10566      10565      10675      10676      10687      10686  
     10555      10556      10567      10566      10676      10677      10688      10687  
     10556      10557      10568      10567      10677      10678      10689      10688  
     10557      10558      10569      10568      10678      10679      10690      10689  
     10558      10559      10570      10569      10679      10680      10691      10690  
     10559      10560      10571      10570      10680      10681      10692      10691  
     10561      10562      10573      10572      10682      10683      10694      10693  
     10562      10563      10574      10573      10683      10684      10695      10694  
     10563      10564      10575      10574      10684      10685      10696      10695  
     10564      10565      10576      10575      10685      10686      10697      10696  
     10565      10566      10577      10576      10686      10687      10698      10697  
     10566      10567      10578      10577      10687      10688      10699      10698  
     10567      10568      10579      10578      10688      10689      10700      10699  
     10568      10569      10580      10579      10689      10690      10701      10700  
     10569      10570      10581      10580      10690      10691      10702      10701  
     10570      10571      10582      10581      10691      10692      10703      10702  
     10572      10573      10584      10583      10693      10694      10705      10704  
     10573      10574      10585      10584      10694      10695      10706      10705  
     10574      10575      10586      10585      10695      10696      10707      10706  
     10575      10576      10587      10586      10696      10697      10708      10707  
     10576      10577      10588      10587      10697      10698      10709      10708  
     10577      10578      10589      10588      10698      10699      10710      10709  
     10578      10579      10590      10589      10699      10700      10711      10710  
     10579      10580      10591      10590      10700      10701      10712      10711  
     10580      10581      10592      10591      10701      10702      10713      10712  
     10581      10582      10593      10592      10702      10703      10714      10713  
     10583      10584      10595      10594      10704      10705      10716      10715  
     10584      10585      10596      10595      10705      10706      10717      10716  
     10585      10586      10597      10596      10706      10707      10718      10717  
     10586      10587      10598      10597      10707      10708      10719      10718  
     10587      10588      10599      10598      10708      10709      10720      10719  
     10588      10589      10600      10599      10709      10710      10721      10720  
     10589      10590      10601      10600      10710      10711      10722      10721  
     10590      10591      10602      10601      10711      10712      10723      10722  
     10591      10592      10603      10602      10712      10713      10724      10723  
     10592      10593      10604      10603      10713      10714      10725      10724  
     10594      10595      10606      10605      10715      10716      10727      10726  
     10595      10596      10607      10606      10716      10717      10728      10727  
     10596      10597      10608      10607      10717      10718      10729      10728  
     10597      10598      10609      10608      10718      10719      10730      10729  
     10598      10599      10610      10609      10719      10720      10731      10730  
     10599      10600      10611      10610      10720      10721      10732      10731  
     10600      10601      10612      10611      10721      10722      10733      10732  
     10601      10602      10613      10612      10722      10723      10734      10733  
     10602      10603      10614      10613      10723      10724      10735      10734  
     10603      10604      10615      10614      10724      10725      10736      10735  
     10605      10606      10617      10616      10726      10727      10738      10737  
     10606      10607      10618      10617      10727      10728      10739      10738  
     10607      10608      10619      10618      10728      10729      10740      10739  
     10608      10609      10620      10619      10729      10730      10741      10740  
     10609      10610      10621      10620      10730      10731      10742      10741  
     10610      10611      10622      10621      10731      10732      10743      10742  
     10611      10612      10623      10622      10732      10733      10744      10743  
     10612      10613      10624      10623      10733      10734      10745      10744  
     10613      10614      10625      10624      10734      10735      10746      10745  
     10614      10615      10626      10625      10735      10736      10747      10746  
     10616      10617      10628      10627      10737      10738      10749      10748  
     10617      10618      10629      10628      10738      10739      10750      10749  
     10618      10619      10630      10629      10739      10740      10751      10750  
     10619      10620      10631      10630      10740      10741      10752      10751  
     10620      10621      10632      10631      10741      10742      10753      10752  
     10621      10622      10633      10632      10742      10743      10754      10753  
     10622      10623      10634      10633      10743      10744      10755      10754  
     10623      10624      10635      10634      10744      10745      10756      10755  
     10624      10625      10636      10635      10745      10746      10757      10756  
     10625      10626      10637      10636      10746      10747      10758      10757  
     10627      10628      10639      10638      10748      10749      10760      10759  
     10628      10629      10640      10639      10749      10750      10761      10760  
     10629      10630      10641      10640      10750      10751      10762      10761  
     10630      10631      10642      10641      10751      10752      10763      10762  
     10631      10632      10643      10642      10752      10753      10764      10763  
     10632      10633      10644      10643      10753      10754      10765      10764  
     10633      10634      10645      10644      10754      10755      10766      10765  
     10634      10635      10646      10645      10755      10756      10767      10766  
     10635      10636      10647      10646      10756      10757      10768      10767  
     10636      10637      10648      10647      10757      10758      10769      10768  
     10649      10650      10661      10660      10770      10771      10782      10781  
     10650      10651      10662      10661      10771      10772      10783      10782  
     10651      10652      10663      10662      10772      10773      10784      10783  
     10652      10653      10664      10663      10773      10774      10785      10784  
     10653      10654      10665      10664      10774      10775      10786      10785  
     10654      10655      10666      10665      10775      10776      10787      10786  
     10655      10656      10667      10666      10776      10777      10788      10787  
     10656      10657      10668      10667      10777      10778      10789      10788  
     10657      10658      10669      10668      10778      10779      10790      10789  
     10658      10659      10670      10669      10779      10780      10791      10790  
     10660      10661      10672      10671      10781      10782      10793      10792  
     10661      10662      10673      10672      10782      10783      10794      10793  
     10662      10663      10674      10673      10783      10784      10795      10794  
     10663      10664      10675      10674      10784      10785      10796      10795  
     10664      10665      10676      10675      10785      10786      10797      10796  
     10665      10666      10677      10676      10786      10787      10798      10797  
     10666      10667      10678      10677      10787      10788      10799      10798  
     10667      10668      10679      10678      10788      10789      10800      10799  
     10668      10669      10680      10679      10789      10790      10801      10800  
     10669      10670      10681      10680      10790      10791      10802      10801  
     10671      10672      10683      10682      10792      10793      10804      10803  
     10672      10673      10684      10683      10793      10794      10805      10804  
     10673      10674      10685      10684      10794      10795      10806      10805  
     10674      10675      10686      10685      10795      10796      10807      10806  
     10675      10676      10687      10686      10796      10797      10808      10807  
     10676      10677      10688      10687      10797      10798      10809      10808  
     10677      10678      10689      10688      10798      10799      10810      10809  
     10678      10679      10690      10689      10799      10800      10811      10810  
     10679      10680      10691      10690      10800      10801      10812      10811  
     10680      10681      10692      10691      10801      10802      10813      10812  
     10682      10683      10694      10693      10803      10804      10815      10814  
     10683      10684      10695      10694      10804      10805      10816      10815  
     10684      10685      10696      10695      10805      10806      10817      10816  
     10685      10686      10697      10696      10806      10807      10818      10817  
     10686      10687      10698      10697      10807      10808      10819      10818  
     10687      10688      10699      10698      10808      10809      10820      10819  
     10688      10689      10700      10699      10809      10810      10821      10820  
     10689      10690      10701      10700      10810      10811      10822      10821  
     10690      10691      10702      10701      10811      10812      10823      10822  
     10691      10692      10703      10702      10812      10813      10824      10823  
     10693      10694      10705      10704      10814      10815      10826      10825  
     10694      10695      10706      10705      10815      10816      10827      10826  
     10695      10696      10707      10706      10816      10817      10828      10827  
     10696      10697      10708      10707      10817      10818      10829      10828  
     10697      10698      10709      10708      10818      10819      10830      10829  
     10698      10699      10710      10709      10819      10820      10831      10830  
     10699      10700      10711      10710      10820      10821      10832      10831  
     10700      10701      10712      10711      10821      10822      10833      10832  
     10701      10702      10713      10712      10822      10823      10834      10833  
     10702      10703      10714      10713      10823      10824      10835      10834  
     10704      10705      10716      10715      10825      10826      10837      10836  
     10705      10706      10717      10716      10826      10827      10838      10837  
     10706      10707      10718      10717      10827      10828      10839      10838  
     10707      10708      10719      10718      10828      10829      10840      10839  
     10708      10709      10720      10719      10829      10830      10841      10840  
     10709      10710      10721      10720      10830      10831      10842      10841  
     10710      10711      10722      10721      10831      10832      10843      10842  
     10711      10712      10723      10722      10832      10833      10844      10843  
     10712      10713      10724      10723      10833      10834      10845      10844  
     10713      10714      10725      10724      10834      10835      10846      10845  
     10715      10716      10727      10726      10836      10837      10848      10847  
     10716      10717      10728      10727      10837      10838      10849      10848  
     10717      10718      10729      10728      10838      10839      10850      10849  
     10718      10719      10730      10729      10839      10840      10851      10850  
     10719      10720      10731      10730      10840      10841      10852      10851  
     10720      10721      10732      10731      10841      10842      10853      10852  
     10721      10722      10733      10732      10842      10843      10854      10853  
     10722      10723      10734      10733      10843      10844      10855      10854  
     10723      10724      10735      10734      10844      10845      10856      10855  
     10724      10725      10736      10735      10845      10846      10857      10856  
     10726      10727      10738      10737      10847      10848      10859      10858  
     10727      10728      10739      10738      10848      10849      10860      10859  
     10728      10729      10740      10739      10849      10850      10861      10860  
     10729      10730      10741      10740      10850      10851      10862      10861  
     10730      10731      10742      10741      10851      10852      10863      10862  
     10731      10732      10743      10742      10852      10853      10864      10863  
     10732      10733      10744      10743      10853      10854      10865      10864  
     10733      10734      10745      10744      10854      10855      10866      10865  
     10734      10735      10746      10745      10855      10856      10867      10866  
     10735      10736      10747      10746      10856      10857      10868      10867  
     10737      10738      10749      10748      10858      10859      10870      10869  
     10738      10739      10750      10749      10859      10860      10871      10870  
     10739      10740      10751      10750      10860      10861      10872      10871  
     10740      10741      10752      10751      10861      10862      10873      10872  
     10741      10742      10753      10752      10862      10863      10874      10873  
     10742      10743      10754      10753      10863      10864      10875      10874  
     10743      10744      10755      10754      10864      10865      10876      10875  
     10744      10745      10756      10755      10865      10866      10877      10876  
     10745      10746      10757      10756      10866      10867      10878      10877  
     10746      10747      10758      10757      10867      10868      10879      10878  
     10748      10749      10760      10759      10869      10870      10881      10880  
     10749      10750      10761      10760      10870      10871      10882      10881  
     10750      10751      10762      10761      10871      10872      10883      10882  
     10751      10752      10763      10762      10872      10873      10884      10883  
     10752      10753      10764      10763      10873      10874      10885      10884  
     10753      10754      10765      10764      10874      10875      10886      10885  
     10754      10755      10766      10765      10875      10876      10887      10886  
     10755      10756      10767      10766      10876      10877      10888      10887  
     10756      10757      10768      10767      10877      10878      10889      10888  
     10757      10758      10769      10768      10878      10879      10890      10889  
     10770      10771      10782      10781      10891      10892      10903      10902  
     10771      10772      10783      10782      10892      10893      10904      10903  
     10772      10773      10784      10783      10893      10894      10905      10904  
     10773      10774      10785      10784      10894      10895      10906      10905  
     10774      10775      10786      10785      10895      10896      10907      10906  
     10775      10776      10787      10786      10896      10897      10908      10907  
     10776      10777      10788      10787      10897      10898      10909      10908  
     10777      10778      10789      10788      10898      10899      10910      10909  
     10778      10779      10790      10789      10899      10900      10911      10910  
     10779      10780      10791      10790      10900      10901      10912      10911  
     10781      10782      10793      10792      10902      10903      10914      10913  
     10782      10783      10794      10793      10903      10904      10915      10914  
     10783      10784      10795      10794      10904      10905      10916      10915  
     10784      10785      10796      10795      10905      10906      10917      10916  
     10785      10786      10797      10796      10906      10907      10918      10917  
     10786      10787      10798      10797      10907      10908      10919      10918  
     10787      10788      10799      10798      10908      10909      10920      10919  
     10788      10789      10800      10799      10909      10910      10921      10920  
     10789      10790      10801      10800      10910      10911      10922      10921  
     10790      10791      10802      10801      10911      10912      10923      10922  
     10792      10793      10804      10803      10913      10914      10925      10924  
     10793      10794      10805      10804      10914      10915      10926      10925  
     10794      10795      10806      10805      10915      10916      10927      10926  
     10795      10796      10807      10806      10916      10917      10928      10927  
     10796      10797      10808      10807      10917      10918      10929      10928  
     10797      10798      10809      10808      10918      10919      10930      10929  
     10798      10799      10810      10809      10919      10920      10931      10930  
     10799      10800      10811      10810      10920      10921      10932      10931  
     10800      10801      10812      10811      10921      10922      10933      10932  
     10801      10802      10813      10812      10922      10923      10934      10933  
     10803      10804      10815      10814      10924      10925      10936      10935  
     10804      10805      10816      10815      10925      10926      10937      10936  
     10805      10806      10817      10816      10926      10927      10938      10937  
     10806      10807      10818      10817      10927      10928      10939      10938  
     10807      10808      10819      10818      10928      10929      10940      10939  
     10808      10809      10820      10819      10929      10930      10941      10940  
     10809      10810      10821      10820      10930      10931      10942      10941  
     10810      10811      10822      10821      10931      10932      10943      10942  
     10811      10812      10823      10822      10932      10933      10944      10943  
     10812      10813      10824      10823      10933      10934      10945      10944  
     10814      10815      10826      10825      10935      10936      10947      10946  
     10815      10816      10827      10826      10936      10937      10948      10947  
     10816      10817      10828      10827      10937      10938      10949      10948  
     10817      10818      10829      10828      10938      10939      10950      10949  
     10818      10819      10830      10829      10939      10940      10951      10950  
     10819      10820      10831      10830      10940      10941      10952      10951  
     10820      10821      10832      10831      10941      10942      10953      10952  
     10821      10822      10833      10832      10942      10943      10954      10953  
     10822      10823      10834      10833      10943      10944      10955      10954  
     10823      10824      10835      10834      10944      10945      10956      10955  
     10825      10826      10837      10836      10946      10947      10958      10957  
     10826      10827      10838      10837      10947      10948      10959      10958  
     10827      10828      10839      10838      10948      10949      10960      10959  
     10828      10829      10840      10839      10949      10950      10961      10960  
     10829      10830      10841      10840      10950      10951      10962      10961  
     10830      10831      10842      10841      10951      10952      10963      10962  
     10831      10832      10843      10842      10952      10953      10964      10963  
     10832      10833      10844      10843      10953      10954      10965      10964  
     10833      10834      10845      10844      10954      10955      10966      10965  
     10834      10835      10846      10845      10955      10956      10967      10966  
     10836      10837      10848      10847      10957      10958      10969      10968  
     10837      10838      10849      10848      10958      10959      10970      10969  
     10838      10839      10850      10849      10959      10960      10971      10970  
     10839      10840      10851      10850      10960      10961      10972      10971  
     10840      10841      10852      10851      10961      10962      10973      10972  
     10841      10842      10853      10852      10962      10963      10974      10973  
     10842      10843      10854      10853      10963      10964      10975      10974  
     10843      10844      10855      10854      10964      10965      10976      10975  
     10844      10845      10856      10855      10965      10966      10977      10976  
     10845      10846      10857      10856      10966      10967      10978      10977  
     10847      10848      10859      10858      10968      10969      10980      10979  
     10848      10849      10860      10859      10969      10970      10981      10980  
     10849      10850      10861      10860      10970      10971      10982      10981  
     10850      10851      10862      10861      10971      10972      10983      10982  
     10851      10852      10863      10862      10972      10973      10984      10983  
     10852      10853      10864      10863      10973      10974      10985      10984  
     10853      10854      10865      10864      10974      10975      10986      10985  
     10854      10855      10866      10865      10975      10976      10987      10986  
     10855      10856      10867      10866      10976      10977      10988      10987  
     10856      10857      10868      10867      10977      10978      10989      10988  
     10858      10859      10870      10869      10979      10980      10991      10990  
     10859      10860      10871      10870      10980      10981      10992      10991  
     10860      10861      10872      10871      10981      10982      10993      10992  
     10861      10862      10873      10872      10982      10983      10994      10993  
     10862      10863      10874      10873      10983      10984      10995      10994  
     10863      10864      10875      10874      10984      10985      10996      10995  
     10864      10865      10876      10875      10985      10986      10997      10996  
     10865      10866      10877      10876      10986      10987      10998      10997  
     10866      10867      10878      10877      10987      10988      10999      10998  
     10867      10868      10879      10878      10988      10989      11000      10999  
     10869      10870      10881      10880      10990      10991      11002      11001  
     10870      10871      10882      10881      10991      10992      11003      11002  
     10871      10872      10883      10882      10992      10993      11004      11003  
     10872      10873      10884      10883      10993      10994      11005      11004  
     10873      10874      10885      10884      10994      10995      11006      11005  
     10874      10875      10886      10885      10995      10996      11007      11006  
     10875      10876      10887      10886      10996      10997      11008      11007  
     10876      10877      10888      10887      10997      10998      11009      11008  
     10877      10878      10889      10888      10998      10999      11010      11009  
     10878      10879      10890      10889      10999      11000      11011      11010  
     10891      10892      10903      10902      11012      11013      11024      11023  
     10892      10893      10904      10903      11013      11014      11025      11024  
     10893      10894      10905      10904      11014      11015      11026      11025  
     10894      10895      10906      10905      11015      11016      11027      11026  
     10895      10896      10907      10906      11016      11017      11028      11027  
     10896      10897      10908      10907      11017      11018      11029      11028  
     10897      10898      10909      10908      11018      11019      11030      11029  
     10898      10899      10910      10909      11019      11020      11031      11030  
     10899      10900      10911      10910      11020      11021      11032      11031  
     10900      10901      10912      10911      11021      11022      11033      11032  
     10902      10903      10914      10913      11023      11024      11035      11034  
     10903      10904      10915      10914      11024      11025      11036      11035  
     10904      10905      10916      10915      11025      11026      11037      11036  
     10905      10906      10917      10916      11026      11027      11038      11037  
     10906      10907      10918      10917      11027      11028      11039      11038  
     10907      10908      10919      10918      11028      11029      11040      11039  
     10908      10909      10920      10919      11029      11030      11041      11040  
     10909      10910      10921      10920      11030      11031      11042      11041  
     10910      10911      10922      10921      11031      11032      11043      11042  
     10911      10912      10923      10922      11032      11033      11044      11043  
     10913      10914      10925      10924      11034      11035      11046      11045  
     10914      10915      10926      10925      11035      11036      11047      11046  
     10915      10916      10927      10926      11036      11037      11048      11047  
     10916      10917      10928      10927      11037      11038      11049      11048  
     10917      10918      10929      10928      11038      11039      11050      11049  
     10918      10919      10930      10929      11039      11040      11051      11050  
     10919      10920      10931      10930      11040      11041      11052      11051  
     10920      10921      10932      10931      11041      11042      11053      11052  
     10921      10922      10933      10932      11042      11043      11054      11053  
     10922      10923      10934      10933      11043      11044      11055      11054  
     10924      10925      10936      10935      11045      11046      11057      11056  
     10925      10926      10937      10936      11046      11047      11058      11057  
     10926      10927      10938      10937      11047      11048      11059      11058  
     10927      10928      10939      10938      11048      11049      11060      11059  
     10928      10929      10940      10939      11049      11050      11061      11060  
     10929      10930      10941      10940      11050      11051      11062      11061  
     10930      10931      10942      10941      11051      11052      11063      11062  
     10931      10932      10943      10942      11052      11053      11064      11063  
     10932      10933      10944      10943      11053      11054      11065      11064  
     10933      10934      10945      10944      11054      11055      11066      11065  
     10935      10936      10947      10946      11056      11057      11068      11067  
     10936      10937      10948      10947      11057      11058      11069      11068  
     10937      10938      10949      10948      11058      11059      11070      11069  
     10938      10939      10950      10949      11059      11060      11071      11070  
     10939      10940      10951      10950      11060      11061      11072      11071  
     10940      10941      10952      10951      11061      11062      11073      11072  
     10941      10942      10953      10952      11062      11063      11074      11073  
     10942      10943      10954      10953      11063      11064      11075      11074  
     10943      10944      10955      10954      11064      11065      11076      11075  
     10944      10945      10956      10955      11065      11066      11077      11076  
     10946      10947      10958      10957      11067      11068      11079      11078  
     10947      10948      10959      10958      11068      11069      11080      11079  
     10948      10949      10960      10959      11069      11070      11081      11080  
     10949      10950      10961      10960      11070      11071      11082      11081  
     10950      10951      10962      10961      11071      11072      11083      11082  
     10951      10952      10963      10962      11072      11073      11084      11083  
     10952      10953      10964      10963      11073      11074      11085      11084  
     10953      10954      10965      10964      11074      11075      11086      11085  
     10954      10955      10966      10965      11075      11076      11087      11086  
     10955      10956      10967      10966      11076      11077      11088      11087  
     10957      10958      10969      10968      11078      11079      11090      11089  
     10958      10959      10970      10969      11079      11080      11091      11090  
     10959      10960      10971      10970      11080      11081      11092      11091  
     10960      10961      10972      10971      11081      11082      11093      11092  
     10961      10962      10973      10972      11082      11083      11094      11093  
     10962      10963      10974      10973      11083      11084      11095      11094  
     10963      10964      10975      10974      11084      11085      11096      11095  
     10964      10965      10976      10975      11085      11086      11097      11096  
     10965      10966      10977      10976      11086      11087      11098      11097  
     10966      10967      10978      10977      11087      11088      11099      11098  
     10968      10969      10980      10979      11089      11090      11101      11100  
     10969      10970      10981      10980      11090      11091      11102      11101  
     10970      10971      10982      10981      11091      11092      11103      11102  
     10971      10972      10983      10982      11092      11093      11104      11103  
     10972      10973      10984      10983      11093      11094      11105      11104  
     10973      10974      10985      10984      11094      11095      11106      11105  
     10974      10975      10986      10985      11095      11096      11107      11106  
     10975      10976      10987      10986      11096      11097      11108      11107  
     10976      10977      10988      10987      11097      11098      11109      11108  
     10977      10978      10989      10988      11098      11099      11110      11109  
     10979      10980      10991      10990      11100      11101      11112      11111  
     10980      10981      10992      10991      11101      11102      11113      11112  
     10981      10982      10993      10992      11102      11103      11114      11113  
     10982      10983      10994      10993      11103      11104      11115      11114  
     10983      10984      10995      10994      11104      11105      11116      11115  
     10984      10985      10996      10995      11105      11106      11117      11116  
     10985      10986      10997      10996      11106      11107      11118      11117  
     10986      10987      10998      10997      11107      11108      11119      11118  
     10987      10988      10999      10998      11108      11109      11120      11119  
     10988      10989      11000      10999      11109      11110      11121      11120  
     10990      10991      11002      11001      11111      11112      11123      11122  
     10991      10992      11003      11002      11112      11113      11124      11123  
     10992      10993      11004      11003      11113      11114      11125      11124  
     10993      10994      11005      11004      11114      11115      11126      11125  
     10994      10995      11006      11005      11115      11116      11127      11126  
     10995      10996      11007      11006      11116      11117      11128      11127  
     10996      10997      11008      11007      11117      11118      11129      11128  
     10997      10998      11009      11008      11118      11119      11130      11129  
     10998      10999      11010      11009      11119      11120      11131      11130  
     10999      11000      11011      11010      11120      11121      11132      11131  
     11012      11013      11024      11023      11133      11134      11145      11144  
     11013      11014      11025      11024      11134      11135      11146      11145  
     11014      11015      11026      11025      11135      11136      11147      11146  
     11015      11016      11027      11026      11136      11137      11148      11147  
     11016      11017      11028      11027      11137      11138      11149      11148  
     11017      11018      11029      11028      11138      11139      11150      11149  
     11018      11019      11030      11029      11139      11140      11151      11150  
     11019      11020      11031      11030      11140      11141      11152      11151  
     11020      11021      11032      11031      11141      11142      11153      11152  
     11021      11022      11033      11032      11142      11143      11154      11153  
     11023      11024      11035      11034      11144      11145      11156      11155  
     11024      11025      11036      11035      11145      11146      11157      11156  
     11025      11026      11037      11036      11146      11147      11158      11157  
     11026      11027      11038      11037      11147      11148      11159      11158  
     11027      11028      11039      11038      11148      11149      11160      11159  
     11028      11029      11040      11039      11149      11150      11161      11160  
     11029      11030      11041      11040      11150      11151      11162      11161  
     11030      11031      11042      11041      11151      11152      11163      11162  
     11031      11032      11043      11042      11152      11153      11164      11163  
     11032      11033      11044      11043      11153      11154      11165      11164  
     11034      11035      11046      11045      11155      11156      11167      11166  
     11035      11036      11047      11046      11156      11157      11168      11167  
     11036      11037      11048      11047      11157      11158      11169      11168  
     11037      11038      11049      11048      11158      11159      11170      11169  
     11038      11039      11050      11049      11159      11160      11171      11170  
     11039      11040      11051      11050      11160      11161      11172      11171  
     11040      11041      11052      11051      11161      11162      11173      11172  
     11041      11042      11053      11052      11162      11163      11174      11173  
     11042      11043      11054      11053      11163      11164      11175      11174  
     11043      11044      11055      11054      11164      11165      11176      11175  
     11045      11046      11057      11056      11166      11167      11178      11177  
     11046      11047      11058      11057      11167      11168      11179      11178  
     11047      11048      11059      11058      11168      11169      11180      11179  
     11048      11049      11060      11059      11169      11170      11181      11180  
     11049      11050      11061      11060      11170      11171      11182      11181  
     11050      11051      11062      11061      11171      11172      11183      11182  
     11051      11052      11063      11062      11172      11173      11184      11183  
     11052      11053      11064      11063      11173      11174      11185      11184  
     11053      11054      11065      11064      11174      11175      11186      11185  
     11054      11055      11066      11065      11175      11176      11187      11186  
     11056      11057      11068      11067      11177      11178      11189      11188  
     11057      11058      11069      11068      11178      11179      11190      11189  
     11058      11059      11070      11069      11179      11180      11191      11190  
     11059      11060      11071      11070      11180      11181      11192      11191  
     11060      11061      11072      11071      11181      11182      11193      11192  
     11061      11062      11073      11072      11182      11183      11194      11193  
     11062      11063      11074      11073      11183      11184      11195      11194  
     11063      11064      11075      11074      11184      11185      11196      11195  
     11064      11065      11076      11075      11185      11186      11197      11196  
     11065      11066      11077      11076      11186      11187      11198      11197  
     11067      11068      11079      11078      11188      11189      11200      11199  
     11068      11069      11080      11079      11189      11190      11201      11200  
     11069      11070      11081      11080      11190      11191      11202      11201  
     11070      11071      11082      11081      11191      11192      11203      11202  
     11071      11072      11083      11082      11192      11193      11204      11203  
     11072      11073      11084      11083      11193      11194      11205      11204  
     11073      11074      11085      11084      11194      11195      11206      11205  
     11074      11075      11086      11085      11195      11196      11207      11206  
     11075      11076      11087      11086      11196      11197      11208      11207  
     11076      11077      11088      11087      11197      11198      11209      11208  
     11078      11079      11090      11089      11199      11200      11211      11210  
     11079      11080      11091      11090      11200      11201      11212      11211  
     11080      11081      11092      11091      11201      11202      11213      11212  
     11081      11082      11093      11092      11202      11203      11214      11213  
     11082      11083      11094      11093      11203      11204      11215      11214  
     11083      11084      11095      11094      11204      11205      11216      11215  
     11084      11085      11096      11095      11205      11206      11217      11216  
     11085      11086      11097      11096      11206      11207      11218      11217  
     11086      11087      11098      11097      11207      11208      11219      11218  
     11087      11088      11099      11098      11208      11209      11220      11219  
     11089      11090      11101      11100      11210      11211      11222      11221  
     11090      11091      11102      11101      11211      11212      11223      11222  
     11091      11092      11103      11102      11212      11213      11224      11223  
     11092      11093      11104      11103      11213      11214      11225      11224  
     11093      11094      11105      11104      11214      11215      11226      11225  
     11094      11095      11106      11105      11215      11216      11227      11226  
     11095      11096      11107      11106      11216      11217      11228      11227  
     11096      11097      11108      11107      11217      11218      11229      11228  
     11097      11098      11109      11108      11218      11219      11230      11229  
     11098      11099      11110      11109      11219      11220      11231      11230  
     11100      11101      11112      11111      11221      11222      11233      11232  
     11101      11102      11113      11112      11222      11223      11234      11233  
     11102      11103      11114      11113      11223      11224      11235      11234  
     11103      11104      11115      11114      11224      11225      11236      11235  
     11104      11105      11116      11115      11225      11226      11237      11236  
     11105      11106      11117      11116      11226      11227      11238      11237  
     11106      11107      11118      11117      11227      11228      11239      11238  
     11107      11108      11119      11118      11228      11229      11240      11239  
     11108      11109      11120      11119      11229      11230      11241      11240  
     11109      11110      11121      11120      11230      11231      11242      11241  
     11111      11112      11123      11122      11232      11233      11244      11243  
     11112      11113      11124      11123      11233      11234      11245      11244  
     11113      11114      11125      11124      11234      11235      11246      11245  
     11114      11115      11126      11125      11235      11236      11247      11246  
     11115      11116      11127      11126      11236      11237      11248      11247  
     11116      11117      11128      11127      11237      11238      11249      11248  
     11117      11118      11129      11128      11238      11239      11250      11249  
     11118      11119      11130      11129      11239      11240      11251      11250  
     11119      11120      11131      11130      11240      11241      11252      11251  
     11120      11121      11132      11131      11241      11242      11253      11252  
     11133      11134      11145      11144      11254      11255      11266      11265  
     11134      11135      11146      11145      11255      11256      11267      11266  
     11135      11136      11147      11146      11256      11257      11268      11267  
     11136      11137      11148      11147      11257      11258      11269      11268  
     11137      11138      11149      11148      11258      11259      11270      11269  
     11138      11139      11150      11149      11259      11260      11271      11270  
     11139      11140      11151      11150      11260      11261      11272      11271  
     11140      11141      11152      11151      11261      11262      11273      11272  
     11141      11142      11153      11152      11262      11263      11274      11273  
     11142      11143      11154      11153      11263      11264      11275      11274  
     11144      11145      11156      11155      11265      11266      11277      11276  
     11145      11146      11157      11156      11266      11267      11278      11277  
     11146      11147      11158      11157      11267      11268      11279      11278  
     11147      11148      11159      11158      11268      11269      11280      11279  
     11148      11149      11160      11159      11269      11270      11281      11280  
     11149      11150      11161      11160      11270      11271      11282      11281  
     11150      11151      11162      11161      11271      11272      11283      11282  
     11151      11152      11163      11162      11272      11273      11284      11283  
     11152      11153      11164      11163      11273      11274      11285      11284  
     11153      11154      11165      11164      11274      11275      11286      11285  
     11155      11156      11167      11166      11276      11277      11288      11287  
     11156      11157      11168      11167      11277      11278      11289      11288  
     11157      11158      11169      11168      11278      11279      11290      11289  
     11158      11159      11170      11169      11279      11280      11291      11290  
     11159      11160      11171      11170      11280      11281      11292      11291  
     11160      11161      11172      11171      11281      11282      11293      11292  
     11161      11162      11173      11172      11282      11283      11294      11293  
     11162      11163      11174      11173      11283      11284      11295      11294  
     11163      11164      11175      11174      11284      11285      11296      11295  
     11164      11165      11176      11175      11285      11286      11297      11296  
     11166      11167      11178      11177      11287      11288      11299      11298  
     11167      11168      11179      11178      11288      11289      11300      11299  
     11168      11169      11180      11179      11289      11290      11301      11300  
     11169      11170      11181      11180      11290      11291      11302      11301  
     11170      11171      11182      11181      11291      11292      11303      11302  
     11171      11172      11183      11182      11292      11293      11304      11303  
     11172      11173      11184      11183      11293      11294      11305      11304  
     11173      11174      11185      11184      11294      11295      11306      11305  
     11174      11175      11186      11185      11295      11296      11307      11306  
     11175      11176      11187      11186      11296      11297      11308      11307  
     11177      11178      11189      11188      11298      11299      11310      11309  
     11178      11179      11190      11189      11299      11300      11311      11310  
     11179      11180      11191      11190      11300      11301      11312      11311  
     11180      11181      11192      11191      11301      11302      11313      11312  
     11181      11182      11193      11192      11302      11303      11314      11313  
     11182      11183      11194      11193      11303      11304      11315      11314  
     11183      11184      11195      11194      11304      11305      11316      11315  
     11184      11185      11196      11195      11305      11306      11317      11316  
     11185      11186      11197      11196      11306      11307      11318      11317  
     11186      11187      11198      11197      11307      11308      11319      11318  
     11188      11189      11200      11199      11309      11310      11321      11320  
     11189      11190      11201      11200      11310      11311      11322      11321  
     11190      11191      11202      11201      11311      11312      11323      11322  
     11191      11192      11203      11202      11312      11313      11324      11323  
     11192      11193      11204      11203      11313      11314      11325      11324  
     11193      11194      11205      11204      11314      11315      11326      11325  
     11194      11195      11206      11205      11315      11316      11327      11326  
     11195      11196      11207      11206      11316      11317      11328      11327  
     11196      11197      11208      11207      11317      11318      11329      11328  
     11197      11198      11209      11208      11318      11319      11330      11329  
     11199      11200      11211      11210      11320      11321      11332      11331  
     11200      11201      11212      11211      11321      11322      11333      11332  
     11201      11202      11213      11212      11322      11323      11334      11333  
     11202      11203      11214      11213      11323      11324      11335      11334  
     11203      11204      11215      11214      11324      11325      11336      11335  
     11204      11205      11216      11215      11325      11326      11337      11336  
     11205      11206      11217      11216      11326      11327      11338      11337  
     11206      11207      11218      11217      11327      11328      11339      11338  
     11207      11208      11219      11218      11328      11329      11340      11339  
     11208      11209      11220      11219      11329      11330      11341      11340  
     11210      11211      11222      11221      11331      11332      11343      11342  
     11211      11212      11223      11222      11332      11333      11344      11343  
     11212      11213      11224      11223      11333      11334      11345      11344  
     11213      11214      11225      11224      11334      11335      11346      11345  
     11214      11215      11226      11225      11335      11336      11347      11346  
     11215      11216      11227      11226      11336      11337      11348      11347  
     11216      11217      11228      11227      11337      11338      11349      11348  
     11217      11218      11229      11228      11338      11339      11350      11349  
     11218      11219      11230      11229      11339      11340      11351      11350  
     11219      11220      11231      11230      11340      11341      11352      11351  
     11221      11222      11233      11232      11342      11343      11354      11353  
     11222      11223      11234      11233      11343      11344      11355      11354  
     11223      11224      11235      11234      11344      11345      11356      11355  
     11224      11225      11236      11235      11345      11346      11357      11356  
     11225      11226      11237      11236      11346      11347      11358      11357  
     11226      11227      11238      11237      11347      11348      11359      11358  
     11227      11228      11239      11238      11348      11349      11360      11359  
     11228      11229      11240      11239      11349      11350      11361      11360  
     11229      11230      11241      11240      11350      11351      11362      11361  
     11230      11231      11242      11241      11351      11352      11363      11362  
     11232      11233      11244      11243      11353      11354      11365      11364  
     11233      11234      11245      11244      11354      11355      11366      11365  
     11234      11235      11246      11245      11355      11356      11367      11366  
     11235      11236      11247      11246      11356      11357      11368      11367  
     11236      11237      11248      11247      11357      11358      11369      11368  
     11237      11238      11249      11248      11358      11359      11370      11369  
     11238      11239      11250      11249      11359      11360      11371      11370  
     11239      11240      11251      11250      11360      11361      11372      11371  
     11240      11241      11252      11251      11361      11362      11373      11372  
     11241      11242      11253      11252      11362      11363      11374      11373  
     11254      11255      11266      11265      11375      11376      11387      11386  
     11255      11256      11267      11266      11376      11377      11388      11387  
     11256      11257      11268      11267      11377      11378      11389      11388  
     11257      11258      11269      11268      11378      11379      11390      11389  
     11258      11259      11270      11269      11379      11380      11391      11390  
     11259      11260      11271      11270      11380      11381      11392      11391  
     11260      11261      11272      11271      11381      11382      11393      11392  
     11261      11262      11273      11272      11382      11383      11394      11393  
     11262      11263      11274      11273      11383      11384      11395      11394  
     11263      11264      11275      11274      11384      11385      11396      11395  
     11265      11266      11277      11276      11386      11387      11398      11397  
     11266      11267      11278      11277      11387      11388      11399      11398  
     11267      11268      11279      11278      11388      11389      11400      11399  
     11268      11269      11280      11279      11389      11390      11401      11400  
     11269      11270      11281      11280      11390      11391      11402      11401  
     11270      11271      11282      11281      11391      11392      11403      11402  
     11271      11272      11283      11282      11392      11393      11404      11403  
     11272      11273      11284      11283      11393      11394      11405      11404  
     11273      11274      11285      11284      11394      11395      11406      11405  
     11274      11275      11286      11285      11395      11396      11407      11406  
     11276      11277      11288      11287      11397      11398      11409      11408  
     11277      11278      11289      11288      11398      11399      11410      11409  
     11278      11279      11290      11289      11399      11400      11411      11410  
     11279      11280      11291      11290      11400      11401      11412      11411  
     11280      11281      11292      11291      11401      11402      11413      11412  
     11281      11282      11293      11292      11402      11403      11414      11413  
     11282      11283      11294      11293      11403      11404      11415      11414  
     11283      11284      11295      11294      11404      11405      11416      11415  
     11284      11285      11296      11295      11405      11406      11417      11416  
     11285      11286      11297      11296      11406      11407      11418      11417  
     11287      11288      11299      11298      11408      11409      11420      11419  
     11288      11289      11300      11299      11409      11410      11421      11420  
     11289      11290      11301      11300      11410      11411      11422      11421  
     11290      11291      11302      11301      11411      11412      11423      11422  
     11291      11292      11303      11302      11412      11413      11424      11423  
     11292      11293      11304      11303      11413      11414      11425      11424  
     11293      11294      11305      11304      11414      11415      11426      11425  
     11294      11295      11306      11305      11415      11416      11427      11426  
     11295      11296      11307      11306      11416      11417      11428      11427  
     11296      11297      11308      11307      11417      11418      11429      11428  
     11298      11299      11310      11309      11419      11420      11431      11430  
     11299      11300      11311      11310      11420      11421      11432      11431  
     11300      11301      11312      11311      11421      11422      11433      11432  
     11301      11302      11313      11312      11422      11423      11434      11433  
     11302      11303      11314      11313      11423      11424      11435      11434  
     11303      11304      11315      11314      11424      11425      11436      11435  
     11304      11305      11316      11315      11425      11426      11437      11436  
     11305      11306      11317      11316      11426      11427      11438      11437  
     11306      11307      11318      11317      11427      11428      11439      11438  
     11307      11308      11319      11318      11428      11429      11440      11439  
     11309      11310      11321      11320      11430      11431      11442      11441  
     11310      11311      11322      11321      11431      11432      11443      11442  
     11311      11312      11323      11322      11432      11433      11444      11443  
     11312      11313      11324      11323      11433      11434      11445      11444  
     11313      11314      11325      11324      11434      11435      11446      11445  
     11314      11315      11326      11325      11435      11436      11447      11446  
     11315      11316      11327      11326      11436      11437      11448      11447  
     11316      11317      11328      11327      11437      11438      11449      11448  
     11317      11318      11329      11328      11438      11439      11450      11449  
     11318      11319      11330      11329      11439      11440      11451      11450  
     11320      11321      11332      11331      11441      11442      11453      11452  
     11321      11322      11333      11332      11442      11443      11454      11453  
     11322      11323      11334      11333      11443      11444      11455      11454  
     11323      11324      11335      11334      11444      11445      11456      11455  
     11324      11325      11336      11335      11445      11446      11457      11456  
     11325      11326      11337      11336      11446      11447      11458      11457  
     11326      11327      11338      11337      11447      11448      11459      11458  
     11327      11328      11339      11338      11448      11449      11460      11459  
     11328      11329      11340      11339      11449      11450      11461      11460  
     11329      11330      11341      11340      11450      11451      11462      11461  
     11331      11332      11343      11342      11452      11453      11464      11463  
     11332      11333      11344      11343      11453      11454      11465      11464  
     11333      11334      11345      11344      11454      11455      11466      11465  
     11334      11335      11346      11345      11455      11456      11467      11466  
     11335      11336      11347      11346      11456      11457      11468      11467  
     11336      11337      11348      11347      11457      11458      11469      11468  
     11337      11338      11349      11348      11458      11459      11470      11469  
     11338      11339      11350      11349      11459      11460      11471      11470  
     11339      11340      11351      11350      11460      11461      11472      11471  
     11340      11341      11352      11351      11461      11462      11473      11472  
     11342      11343      11354      11353      11463      11464      11475      11474  
     11343      11344      11355      11354      11464      11465      11476      11475  
     11344      11345      11356      11355      11465      11466      11477      11476  
     11345      11346      11357      11356      11466      11467      11478      11477  
     11346      11347      11358      11357      11467      11468      11479      11478  
     11347      11348      11359      11358      11468      11469      11480      11479  
     11348      11349      11360      11359      11469      11470      11481      11480  
     11349      11350      11361      11360      11470      11471      11482      11481  
     11350      11351      11362      11361      11471      11472      11483      11482  
     11351      11352      11363      11362      11472      11473      11484      11483  
     11353      11354      11365      11364      11474      11475      11486      11485  
     11354      11355      11366      11365      11475      11476      11487      11486  
     11355      11356      11367      11366      11476      11477      11488      11487  
     11356      11357      11368      11367      11477      11478      11489      11488  
     11357      11358      11369      11368      11478      11479      11490      11489  
     11358      11359      11370      11369      11479      11480      11491      11490  
     11359      11360      11371      11370      11480      11481      11492      11491  
     11360      11361      11372      11371      11481      11482      11493      11492  
     11361      11362      11373      11372      11482      11483      11494      11493  
     11362      11363      11374      11373      11483      11484      11495      11494  
     11375      11376      11387      11386      11496      11497      11508      11507  
     11376      11377      11388      11387      11497      11498      11509      11508  
     11377      11378      11389      11388      11498      11499      11510      11509  
     11378      11379      11390      11389      11499      11500      11511      11510  
     11379      11380      11391      11390      11500      11501      11512      11511  
     11380      11381      11392      11391      11501      11502      11513      11512  
     11381      11382      11393      11392      11502      11503      11514      11513  
     11382      11383      11394      11393      11503      11504      11515      11514  
     11383      11384      11395      11394      11504      11505      11516      11515  
     11384      11385      11396      11395      11505      11506      11517      11516  
     11386      11387      11398      11397      11507      11508      11519      11518  
     11387      11388      11399      11398      11508      11509      11520      11519  
     11388      11389      11400      11399      11509      11510      11521      11520  
     11389      11390      11401      11400      11510      11511      11522      11521  
     11390      11391      11402      11401      11511      11512      11523      11522  
     11391      11392      11403      11402      11512      11513      11524      11523  
     11392      11393      11404      11403      11513      11514      11525      11524  
     11393      11394      11405      11404      11514      11515      11526      11525  
     11394      11395      11406      11405      11515      11516      11527      11526  
     11395      11396      11407      11406      11516      11517      11528      11527  
     11397      11398      11409      11408      11518      11519      11530      11529  
     11398      11399      11410      11409      11519      11520      11531      11530  
     11399      11400      11411      11410      11520      11521      11532      11531  
     11400      11401      11412      11411      11521      11522      11533      11532  
     11401      11402      11413      11412      11522      11523      11534      11533  
     11402      11403      11414      11413      11523      11524      11535      11534  
     11403      11404      11415      11414      11524      11525      11536      11535  
     11404      11405      11416      11415      11525      11526      11537      11536  
     11405      11406      11417      11416      11526      11527      11538      11537  
     11406      11407      11418      11417      11527      11528      11539      11538  
     11408      11409      11420      11419      11529      11530      11541      11540  
     11409      11410      11421      11420      11530      11531      11542      11541  
     11410      11411      11422      11421      11531      11532      11543      11542  
     11411      11412      11423      11422      11532      11533      11544      11543  
     11412      11413      11424      11423      11533      11534      11545      11544  
     11413      11414      11425      11424      11534      11535      11546      11545  
     11414      11415      11426      11425      11535      11536      11547      11546  
     11415      11416      11427      11426      11536      11537      11548      11547  
     11416      11417      11428      11427      11537      11538      11549      11548  
     11417      11418      11429      11428      11538      11539      11550      11549  
     11419      11420      11431      11430      11540      11541      11552      11551  
     11420      11421      11432      11431      11541      11542      11553      11552  
     11421      11422      11433      11432      11542      11543      11554      11553  
     11422      11423      11434      11433      11543      11544      11555      11554  
     11423      11424      11435      11434      11544      11545      11556      11555  
     11424      11425      11436      11435      11545      11546      11557      11556  
     11425      11426      11437      11436      11546      11547      11558      11557  
     11426      11427      11438      11437      11547      11548      11559      11558  
     11427      11428      11439      11438      11548      11549      11560      11559  
     11428      11429      11440      11439      11549      11550      11561      11560  
     11430      11431      11442      11441      11551      11552      11563      11562  
     11431      11432      11443      11442      11552      11553      11564      11563  
     11432      11433      11444      11443      11553      11554      11565      11564  
     11433      11434      11445      11444      11554      11555      11566      11565  
     11434      11435      11446      11445      11555      11556      11567      11566  
     11435      11436      11447      11446      11556      11557      11568      11567  
     11436      11437      11448      11447      11557      11558      11569      11568  
     11437      11438      11449      11448      11558      11559      11570      11569  
     11438      11439      11450      11449      11559      11560      11571      11570  
     11439      11440      11451      11450      11560      11561      11572      11571  
     11441      11442      11453      11452      11562      11563      11574      11573  
     11442      11443      11454      11453      11563      11564      11575      11574  
     11443      11444      11455      11454      11564      11565      11576      11575  
     11444      11445      11456      11455      11565      11566      11577      11576  
     11445      11446      11457      11456      11566      11567      11578      11577  
     11446      11447      11458      11457      11567      11568      11579      11578  
     11447      11448      11459      11458      11568      11569      11580      11579  
     11448      11449      11460      11459      11569      11570      11581      11580  
     11449      11450      11461      11460      11570      11571      11582      11581  
     11450      11451      11462      11461      11571      11572      11583      11582  
     11452      11453      11464      11463      11573      11574      11585      11584  
     11453      11454      11465      11464      11574      11575      11586      11585  
     11454      11455      11466      11465      11575      11576      11587      11586  
     11455      11456      11467      11466      11576      11577      11588      11587  
     11456      11457      11468      11467      11577      11578      11589      11588  
     11457      11458      11469      11468      11578      11579      11590      11589  
     11458      11459      11470      11469      11579      11580      11591      11590  
     11459      11460      11471      11470      11580      11581      11592      11591  
     11460      11461      11472      11471      11581      11582      11593      11592  
     11461      11462      11473      11472      11582      11583      11594      11593  
     11463      11464      11475      11474      11584      11585      11596      11595  
     11464      11465      11476      11475      11585      11586      11597      11596  
     11465      11466      11477      11476      11586      11587      11598      11597  
     11466      11467      11478      11477      11587      11588      11599      11598  
     11467      11468      11479      11478      11588      11589      11600      11599  
     11468      11469      11480      11479      11589      11590      11601      11600  
     11469      11470      11481      11480      11590      11591      11602      11601  
     11470      11471      11482      11481      11591      11592      11603      11602  
     11471      11472      11483      11482      11592      11593      11604      11603  
     11472      11473      11484      11483      11593      11594      11605      11604  
     11474      11475      11486      11485      11595      11596      11607      11606  
     11475      11476      11487      11486      11596      11597      11608      11607  
     11476      11477      11488      11487      11597      11598      11609      11608  
     11477      11478      11489      11488      11598      11599      11610      11609  
     11478      11479      11490      11489      11599      11600      11611      11610  
     11479      11480      11491      11490      11600      11601      11612      11611  
     11480      11481      11492      11491      11601      11602      11613      11612  
     11481      11482      11493      11492      11602      11603      11614      11613  
     11482      11483      11494      11493      11603      11604      11615      11614  
     11483      11484      11495      11494      11604      11605      11616      11615  
     11496      11497      11508      11507      11617      11618      11629      11628  
     11497      11498      11509      11508      11618      11619      11630      11629  
     11498      11499      11510      11509      11619      11620      11631      11630  
     11499      11500      11511      11510      11620      11621      11632      11631  
     11500      11501      11512      11511      11621      11622      11633      11632  
     11501      11502      11513      11512      11622      11623      11634      11633  
     11502      11503      11514      11513      11623      11624      11635      11634  
     11503      11504      11515      11514      11624      11625      11636      11635  
     11504      11505      11516      11515      11625      11626      11637      11636  
     11505      11506      11517      11516      11626      11627      11638      11637  
     11507      11508      11519      11518      11628      11629      11640      11639  
     11508      11509      11520      11519      11629      11630      11641      11640  
     11509      11510      11521      11520      11630      11631      11642      11641  
     11510      11511      11522      11521      11631      11632      11643      11642  
     11511      11512      11523      11522      11632      11633      11644      11643  
     11512      11513      11524      11523      11633      11634      11645      11644  
     11513      11514      11525      11524      11634      11635      11646      11645  
     11514      11515      11526      11525      11635      11636      11647      11646  
     11515      11516      11527      11526      11636      11637      11648      11647  
     11516      11517      11528      11527      11637      11638      11649      11648  
     11518      11519      11530      11529      11639      11640      11651      11650  
     11519      11520      11531      11530      11640      11641      11652      11651  
     11520      11521      11532      11531      11641      11642      11653      11652  
     11521      11522      11533      11532      11642      11643      11654      11653  
     11522      11523      11534      11533      11643      11644      11655      11654  
     11523      11524      11535      11534      11644      11645      11656      11655  
     11524      11525      11536      11535      11645      11646      11657      11656  
     11525      11526      11537      11536      11646      11647      11658      11657  
     11526      11527      11538      11537      11647      11648      11659      11658  
     11527      11528      11539      11538      11648      11649      11660      11659  
     11529      11530      11541      11540      11650      11651      11662      11661  
     11530      11531      11542      11541      11651      11652      11663      11662  
     11531      11532      11543      11542      11652      11653      11664      11663  
     11532      11533      11544      11543      11653      11654      11665      11664  
     11533      11534      11545      11544      11654      11655      11666      11665  
     11534      11535      11546      11545      11655      11656      11667      11666  
     11535      11536      11547      11546      11656      11657      11668      11667  
     11536      11537      11548      11547      11657      11658      11669      11668  
     11537      11538      11549      11548      11658      11659      11670      11669  
     11538      11539      11550      11549      11659      11660      11671      11670  
     11540      11541      11552      11551      11661      11662      11673      11672  
     11541      11542      11553      11552      11662      11663      11674      11673  
     11542      11543      11554      11553      11663      11664      11675      11674  
     11543      11544      11555      11554      11664      11665      11676      11675  
     11544      11545      11556      11555      11665      11666      11677      11676  
     11545      11546      11557      11556      11666      11667      11678      11677  
     11546      11547      11558      11557      11667      11668      11679      11678  
     11547      11548      11559      11558      11668      11669      11680      11679  
     11548      11549      11560      11559      11669      11670      11681      11680  
     11549      11550      11561      11560      11670      11671      11682      11681  
     11551      11552      11563      11562      11672      11673      11684      11683  
     11552      11553      11564      11563      11673      11674      11685      11684  
     11553      11554      11565      11564      11674      11675      11686      11685  
     11554      11555      11566      11565      11675      11676      11687      11686  
     11555      11556      11567      11566      11676      11677      11688      11687  
     11556      11557      11568      11567      11677      11678      11689      11688  
     11557      11558      11569      11568      11678      11679      11690      11689  
     11558      11559      11570      11569      11679      11680      11691      11690  
     11559      11560      11571      11570      11680      11681      11692      11691  
     11560      11561      11572      11571      11681      11682      11693      11692  
     11562      11563      11574      11573      11683      11684      11695      11694  
     11563      11564      11575      11574      11684      11685      11696      11695  
     11564      11565      11576      11575      11685      11686      11697      11696  
     11565      11566      11577      11576      11686      11687      11698      11697  
     11566      11567      11578      11577      11687      11688      11699      11698  
     11567      11568      11579      11578      11688      11689      11700      11699  
     11568      11569      11580      11579      11689      11690      11701      11700  
     11569      11570      11581      11580      11690      11691      11702      11701  
     11570      11571      11582      11581      11691      11692      11703      11702  
     11571      11572      11583      11582      11692      11693      11704      11703  
     11573      11574      11585      11584      11694      11695      11706      11705  
     11574      11575      11586      11585      11695      11696      11707      11706  
     11575      11576      11587      11586      11696      11697      11708      11707  
     11576      11577      11588      11587      11697      11698      11709      11708  
     11577      11578      11589      11588      11698      11699      11710      11709  
     11578      11579      11590      11589      11699      11700      11711      11710  
     11579      11580      11591      11590      11700      11701      11712      11711  
     11580      11581      11592      11591      11701      11702      11713      11712  
     11581      11582      11593      11592      11702      11703      11714      11713  
     11582      11583      11594      11593      11703      11704      11715      11714  
     11584      11585      11596      11595      11705      11706      11717      11716  
     11585      11586      11597      11596      11706      11707      11718      11717  
     11586      11587      11598      11597      11707      11708      11719      11718  
     11587      11588      11599      11598      11708      11709      11720      11719  
     11588      11589      11600      11599      11709      11710      11721      11720  
     11589      11590      11601      11600      11710      11711      11722      11721  
     11590      11591      11602      11601      11711      11712      11723      11722  
     11591      11592      11603      11602      11712      11713      11724      11723  
     11592      11593      11604      11603      11713      11714      11725      11724  
     11593      11594      11605      11604      11714      11715      11726      11725  
     11595      11596      11607      11606      11716      11717      11728      11727  
     11596      11597      11608      11607      11717      11718      11729      11728  
     11597      11598      11609      11608      11718      11719      11730      11729  
     11598      11599      11610      11609      11719      11720      11731      11730  
     11599      11600      11611      11610      11720      11721      11732      11731  
     11600      11601      11612      11611      11721      11722      11733      11732  
     11601      11602      11613      11612      11722      11723      11734      11733  
     11602      11603      11614      11613      11723      11724      11735      11734  
     11603      11604      11615      11614      11724      11725      11736      11735  
     11604      11605      11616      11615      11725      11726      11737      11736  
     11617      11618      11629      11628      11738      11739      11750      11749  
     11618      11619      11630      11629      11739      11740      11751      11750  
     11619      11620      11631      11630      11740      11741      11752      11751  
     11620      11621      11632      11631      11741      11742      11753      11752  
     11621      11622      11633      11632      11742      11743      11754      11753  
     11622      11623      11634      11633      11743      11744      11755      11754  
     11623      11624      11635      11634      11744      11745      11756      11755  
     11624      11625      11636      11635      11745      11746      11757      11756  
     11625      11626      11637      11636      11746      11747      11758      11757  
     11626      11627      11638      11637      11747      11748      11759      11758  
     11628      11629      11640      11639      11749      11750      11761      11760  
     11629      11630      11641      11640      11750      11751      11762      11761  
     11630      11631      11642      11641      11751      11752      11763      11762  
     11631      11632      11643      11642      11752      11753      11764      11763  
     11632      11633      11644      11643      11753      11754      11765      11764  
     11633      11634      11645      11644      11754      11755      11766      11765  
     11634      11635      11646      11645      11755      11756      11767      11766  
     11635      11636      11647      11646      11756      11757      11768      11767  
     11636      11637      11648      11647      11757      11758      11769      11768  
     11637      11638      11649      11648      11758      11759      11770      11769  
     11639      11640      11651      11650      11760      11761      11772      11771  
     11640      11641      11652      11651      11761      11762      11773      11772  
     11641      11642      11653      11652      11762      11763      11774      11773  
     11642      11643      11654      11653      11763      11764      11775      11774  
     11643      11644      11655      11654      11764      11765      11776      11775  
     11644      11645      11656      11655      11765      11766      11777      11776  
     11645      11646      11657      11656      11766      11767      11778      11777  
     11646      11647      11658      11657      11767      11768      11779      11778  
     11647      11648      11659      11658      11768      11769      11780      11779  
     11648      11649      11660      11659      11769      11770      11781      11780  
     11650      11651      11662      11661      11771      11772      11783      11782  
     11651      11652      11663      11662      11772      11773      11784      11783  
     11652      11653      11664      11663      11773      11774      11785      11784  
     11653      11654      11665      11664      11774      11775      11786      11785  
     11654      11655      11666      11665      11775      11776      11787      11786  
     11655      11656      11667      11666      11776      11777      11788      11787  
     11656      11657      11668      11667      11777      11778      11789      11788  
     11657      11658      11669      11668      11778      11779      11790      11789  
     11658      11659      11670      11669      11779      11780      11791      11790  
     11659      11660      11671      11670      11780      11781      11792      11791  
     11661      11662      11673      11672      11782      11783      11794      11793  
     11662      11663      11674      11673      11783      11784      11795      11794  
     11663      11664      11675      11674      11784      11785      11796      11795  
     11664      11665      11676      11675      11785      11786      11797      11796  
     11665      11666      11677      11676      11786      11787      11798      11797  
     11666      11667      11678      11677      11787      11788      11799      11798  
     11667      11668      11679      11678      11788      11789      11800      11799  
     11668      11669      11680      11679      11789      11790      11801      11800  
     11669      11670      11681      11680      11790      11791      11802      11801  
     11670      11671      11682      11681      11791      11792      11803      11802  
     11672      11673      11684      11683      11793      11794      11805      11804  
     11673      11674      11685      11684      11794      11795      11806      11805  
     11674      11675      11686      11685      11795      11796      11807      11806  
     11675      11676      11687      11686      11796      11797      11808      11807  
     11676      11677      11688      11687      11797      11798      11809      11808  
     11677      11678      11689      11688      11798      11799      11810      11809  
     11678      11679      11690      11689      11799      11800      11811      11810  
     11679      11680      11691      11690      11800      11801      11812      11811  
     11680      11681      11692      11691      11801      11802      11813      11812  
     11681      11682      11693      11692      11802      11803      11814      11813  
     11683      11684      11695      11694      11804      11805      11816      11815  
     11684      11685      11696      11695      11805      11806      11817      11816  
     11685      11686      11697      11696      11806      11807      11818      11817  
     11686      11687      11698      11697      11807      11808      11819      11818  
     11687      11688      11699      11698      11808      11809      11820      11819  
     11688      11689      11700      11699      11809      11810      11821      11820  
     11689      11690      11701      11700      11810      11811      11822      11821  
     11690      11691      11702      11701      11811      11812      11823      11822  
     11691      11692      11703      11702      11812      11813      11824      11823  
     11692      11693      11704      11703      11813      11814      11825      11824  
     11694      11695      11706      11705      11815      11816      11827      11826  
     11695      11696      11707      11706      11816      11817      11828      11827  
     11696      11697      11708      11707      11817      11818      11829      11828  
     11697      11698      11709      11708      11818      11819      11830      11829  
     11698      11699      11710      11709      11819      11820      11831      11830  
     11699      11700      11711      11710      11820      11821      11832      11831  
     11700      11701      11712      11711      11821      11822      11833      11832  
     11701      11702      11713      11712      11822      11823      11834      11833  
     11702      11703      11714      11713      11823      11824      11835      11834  
     11703      11704      11715      11714      11824      11825      11836      11835  
     11705      11706      11717      11716      11826      11827      11838      11837  
     11706      11707      11718      11717      11827      11828      11839      11838  
     11707      11708      11719      11718      11828      11829      11840      11839  
     11708      11709      11720      11719      11829      11830      11841      11840  
     11709      11710      11721      11720      11830      11831      11842      11841  
     11710      11711      11722      11721      11831      11832      11843      11842  
     11711      11712      11723      11722      11832      11833      11844      11843  
     11712      11713      11724      11723      11833      11834      11845      11844  
     11713      11714      11725      11724      11834      11835      11846      11845  
     11714      11715      11726      11725      11835      11836      11847      11846  
     11716      11717      11728      11727      11837      11838      11849      11848  
     11717      11718      11729      11728      11838      11839      11850      11849  
     11718      11719      11730      11729      11839      11840      11851      11850  
     11719      11720      11731      11730      11840      11841      11852      11851  
     11720      11721      11732      11731      11841      11842      11853      11852  
     11721      11722      11733      11732      11842      11843      11854      11853  
     11722      11723      11734      11733      11843      11844      11855      11854  
     11723      11724      11735      11734      11844      11845      11856      11855  
     11724      11725      11736      11735      11845      11846      11857      11856  
     11725      11726      11737      11736      11846      11847      11858      11857  
     11738      11739      11750      11749      11859      11860      11871      11870  
     11739      11740      11751      11750      11860      11861      11872      11871  
     11740      11741      11752      11751      11861      11862      11873      11872  
     11741      11742      11753      11752      11862      11863      11874      11873  
     11742      11743      11754      11753      11863      11864      11875      11874  
     11743      11744      11755      11754      11864      11865      11876      11875  
     11744      11745      11756      11755      11865      11866      11877      11876  
     11745      11746      11757      11756      11866      11867      11878      11877  
     11746      11747      11758      11757      11867      11868      11879      11878  
     11747      11748      11759      11758      11868      11869      11880      11879  
     11749      11750      11761      11760      11870      11871      11882      11881  
     11750      11751      11762      11761      11871      11872      11883      11882  
     11751      11752      11763      11762      11872      11873      11884      11883  
     11752      11753      11764      11763      11873      11874      11885      11884  
     11753      11754      11765      11764      11874      11875      11886      11885  
     11754      11755      11766      11765      11875      11876      11887      11886  
     11755      11756      11767      11766      11876      11877      11888      11887  
     11756      11757      11768      11767      11877      11878      11889      11888  
     11757      11758      11769      11768      11878      11879      11890      11889  
     11758      11759      11770      11769      11879      11880      11891      11890  
     11760      11761      11772      11771      11881      11882      11893      11892  
     11761      11762      11773      11772      11882      11883      11894      11893  
     11762      11763      11774      11773      11883      11884      11895      11894  
     11763      11764      11775      11774      11884      11885      11896      11895  
     11764      11765      11776      11775      11885      11886      11897      11896  
     11765      11766      11777      11776      11886      11887      11898      11897  
     11766      11767      11778      11777      11887      11888      11899      11898  
     11767      11768      11779      11778      11888      11889      11900      11899  
     11768      11769      11780      11779      11889      11890      11901      11900  
     11769      11770      11781      11780      11890      11891      11902      11901  
     11771      11772      11783      11782      11892      11893      11904      11903  
     11772      11773      11784      11783      11893      11894      11905      11904  
     11773      11774      11785      11784      11894      11895      11906      11905  
     11774      11775      11786      11785      11895      11896      11907      11906  
     11775      11776      11787      11786      11896      11897      11908      11907  
     11776      11777      11788      11787      11897      11898      11909      11908  
     11777      11778      11789      11788      11898      11899      11910      11909  
     11778      11779      11790      11789      11899      11900      11911      11910  
     11779      11780      11791      11790      11900      11901      11912      11911  
     11780      11781      11792      11791      11901      11902      11913      11912  
     11782      11783      11794      11793      11903      11904      11915      11914  
     11783      11784      11795      11794      11904      11905      11916      11915  
     11784      11785      11796      11795      11905      11906      11917      11916  
     11785      11786      11797      11796      11906      11907      11918      11917  
     11786      11787      11798      11797      11907      11908      11919      11918  
     11787      11788      11799      11798      11908      11909      11920      11919  
     11788      11789      11800      11799      11909      11910      11921      11920  
     11789      11790      11801      11800      11910      11911      11922      11921  
     11790      11791      11802      11801      11911      11912      11923      11922  
     11791      11792      11803      11802      11912      11913      11924      11923  
     11793      11794      11805      11804      11914      11915      11926      11925  
     11794      11795      11806      11805      11915      11916      11927      11926  
     11795      11796      11807      11806      11916      11917      11928      11927  
     11796      11797      11808      11807      11917      11918      11929      11928  
     11797      11798      11809      11808      11918      11919      11930      11929  
     11798      11799      11810      11809      11919      11920      11931      11930  
     11799      11800      11811      11810      11920      11921      11932      11931  
     11800      11801      11812      11811      11921      11922      11933      11932  
     11801      11802      11813      11812      11922      11923      11934      11933  
     11802      11803      11814      11813      11923      11924      11935      11934  
     11804      11805      11816      11815      11925      11926      11937      11936  
     11805      11806      11817      11816      11926      11927      11938      11937  
     11806      11807      11818      11817      11927      11928      11939      11938  
     11807      11808      11819      11818      11928      11929      11940      11939  
     11808      11809      11820      11819      11929      11930      11941      11940  
     11809      11810      11821      11820      11930      11931      11942      11941  
     11810      11811      11822      11821      11931      11932      11943      11942  
     11811      11812      11823      11822      11932      11933      11944      11943  
     11812      11813      11824      11823      11933      11934      11945      11944  
     11813      11814      11825      11824      11934      11935      11946      11945  
     11815      11816      11827      11826      11936      11937      11948      11947  
     11816      11817      11828      11827      11937      11938      11949      11948  
     11817      11818      11829      11828      11938      11939      11950      11949  
     11818      11819      11830      11829      11939      11940      11951      11950  
     11819      11820      11831      11830      11940      11941      11952      11951  
     11820      11821      11832      11831      11941      11942      11953      11952  
     11821      11822      11833      11832      11942      11943      11954      11953  
     11822      11823      11834      11833      11943      11944      11955      11954  
     11823      11824      11835      11834      11944      11945      11956      11955  
     11824      11825      11836      11835      11945      11946      11957      11956  
     11826      11827      11838      11837      11947      11948      11959      11958  
     11827      11828      11839      11838      11948      11949      11960      11959  
     11828      11829      11840      11839      11949      11950      11961      11960  
     11829      11830      11841      11840      11950      11951      11962      11961  
     11830      11831      11842      11841      11951      11952      11963      11962  
     11831      11832      11843      11842      11952      11953      11964      11963  
     11832      11833      11844      11843      11953      11954      11965      11964  
     11833      11834      11845      11844      11954      11955      11966      11965  
     11834      11835      11846      11845      11955      11956      11967      11966  
     11835      11836      11847      11846      11956      11957      11968      11967  
     11837      11838      11849      11848      11958      11959      11970      11969  
     11838      11839      11850      11849      11959      11960      11971      11970  
     11839      11840      11851      11850      11960      11961      11972      11971  
     11840      11841      11852      11851      11961      11962      11973      11972  
     11841      11842      11853      11852      11962      11963      11974      11973  
     11842      11843      11854      11853      11963      11964      11975      11974  
     11843      11844      11855      11854      11964      11965      11976      11975  
     11844      11845      11856      11855      11965      11966      11977      11976  
     11845      11846      11857      11856      11966      11967      11978      11977  
     11846      11847      11858      11857      11967      11968      11979      11978  
     11859      11860      11871      11870      11980      11981      11992      11991  
     11860      11861      11872      11871      11981      11982      11993      11992  
     11861      11862      11873      11872      11982      11983      11994      11993  
     11862      11863      11874      11873      11983      11984      11995      11994  
     11863      11864      11875      11874      11984      11985      11996      11995  
     11864      11865      11876      11875      11985      11986      11997      11996  
     11865      11866      11877      11876      11986      11987      11998      11997  
     11866      11867      11878      11877      11987      11988      11999      11998  
     11867      11868      11879      11878      11988      11989      12000      11999  
     11868      11869      11880      11879      11989      11990      12001      12000  
     11870      11871      11882      11881      11991      11992      12003      12002  
     11871      11872      11883      11882      11992      11993      12004      12003  
     11872      11873      11884      11883      11993      11994      12005      12004  
     11873      11874      11885      11884      11994      11995      12006      12005  
     11874      11875      11886      11885      11995      11996      12007      12006  
     11875      11876      11887      11886      11996      11997      12008      12007  
     11876      11877      11888      11887      11997      11998      12009      12008  
     11877      11878      11889      11888      11998      11999      12010      12009  
     11878      11879      11890      11889      11999      12000      12011      12010  
     11879      11880      11891      11890      12000      12001      12012      12011  
     11881      11882      11893      11892      12002      12003      12014      12013  
     11882      11883      11894      11893      12003      12004      12015      12014  
     11883      11884      11895      11894      12004      12005      12016      12015  
     11884      11885      11896      11895      12005      12006      12017      12016  
     11885      11886      11897      11896      12006      12007      12018      12017  
     11886      11887      11898      11897      12007      12008      12019      12018  
     11887      11888      11899      11898      12008      12009      12020      12019  
     11888      11889      11900      11899      12009      12010      12021      12020  
     11889      11890      11901      11900      12010      12011      12022      12021  
     11890      11891      11902      11901      12011      12012      12023      12022  
     11892      11893      11904      11903      12013      12014      12025      12024  
     11893      11894      11905      11904      12014      12015      12026      12025  
     11894      11895      11906      11905      12015      12016      12027      12026  
     11895      11896      11907      11906      12016      12017      12028      12027  
     11896      11897      11908      11907      12017      12018      12029      12028  
     11897      11898      11909      11908      12018      12019      12030      12029  
     11898      11899      11910      11909      12019      12020      12031      12030  
     11899      11900      11911      11910      12020      12021      12032      12031  
     11900      11901      11912      11911      12021      12022      12033      12032  
     11901      11902      11913      11912      12022      12023      12034      12033  
     11903      11904      11915      11914      12024      12025      12036      12035  
     11904      11905      11916      11915      12025      12026      12037      12036  
     11905      11906      11917      11916      12026      12027      12038      12037  
     11906      11907      11918      11917      12027      12028      12039      12038  
     11907      11908      11919      11918      12028      12029      12040      12039  
     11908      11909      11920      11919      12029      12030      12041      12040  
     11909      11910      11921      11920      12030      12031      12042      12041  
     11910      11911      11922      11921      12031      12032      12043      12042  
     11911      11912      11923      11922      12032      12033      12044      12043  
     11912      11913      11924      11923      12033      12034      12045      12044  
     11914      11915      11926      11925      12035      12036      12047      12046  
     11915      11916      11927      11926      12036      12037      12048      12047  
     11916      11917      11928      11927      12037      12038      12049      12048  
     11917      11918      11929      11928      12038      12039      12050      12049  
     11918      11919      11930      11929      12039      12040      12051      12050  
     11919      11920      11931      11930      12040      12041      12052      12051  
     11920      11921      11932      11931      12041      12042      12053      12052  
     11921      11922      11933      11932      12042      12043      12054      12053  
     11922      11923      11934      11933      12043      12044      12055      12054  
     11923      11924      11935      11934      12044      12045      12056      12055  
     11925      11926      11937      11936      12046      12047      12058      12057  
     11926      11927      11938      11937      12047      12048      12059      12058  
     11927      11928      11939      11938      12048      12049      12060      12059  
     11928      11929      11940      11939      12049      12050      12061      12060  
     11929      11930      11941      11940      12050      12051      12062      12061  
     11930      11931      11942      11941      12051      12052      12063      12062  
     11931      11932      11943      11942      12052      12053      12064      12063  
     11932      11933      11944      11943      12053      12054      12065      12064  
     11933      11934      11945      11944      12054      12055      12066      12065  
     11934      11935      11946      11945      12055      12056      12067      12066  
     11936      11937      11948      11947      12057      12058      12069      12068  
     11937      11938      11949      11948      12058      12059      12070      12069  
     11938      11939      11950      11949      12059      12060      12071      12070  
     11939      11940      11951      11950      12060      12061      12072      12071  
     11940      11941      11952      11951      12061      12062      12073      12072  
     11941      11942      11953      11952      12062      12063      12074      12073  
     11942      11943      11954      11953      12063      12064      12075      12074  
     11943      11944      11955      11954      12064      12065      12076      12075  
     11944      11945      11956      11955      12065      12066      12077      12076  
     11945      11946      11957      11956      12066      12067      12078      12077  
     11947      11948      11959      11958      12068      12069      12080      12079  
     11948      11949      11960      11959      12069      12070      12081      12080  
     11949      11950      11961      11960      12070      12071      12082      12081  
     11950      11951      11962      11961      12071      12072      12083      12082  
     11951      11952      11963      11962      12072      12073      12084      12083  
     11952      11953      11964      11963      12073      12074      12085      12084  
     11953      11954      11965      11964      12074      12075      12086      12085  
     11954      11955      11966      11965      12075      12076      12087      12086  
     11955      11956      11967      11966      12076      12077      12088      12087  
     11956      11957      11968      11967      12077      12078      12089      12088  
     11958      11959      11970      11969      12079      12080      12091      12090  
     11959      11960      11971      11970      12080      12081      12092      12091  
     11960      11961      11972      11971      12081      12082      12093      12092  
     11961      11962      11973      11972      12082      12083      12094      12093  
     11962      11963      11974      11973      12083      12084      12095      12094  
     11963      11964      11975      11974      12084      12085      12096      12095  
     11964      11965      11976      11975      12085      12086      12097      12096  
     11965      11966      11977      11976      12086      12087      12098      12097  
     11966      11967      11978      11977      12087      12088      12099      12098  
     11967      11968      11979      11978      12088      12089      12100      12099  
     11980      11981      11992      11991      12101      12102      12113      12112  
     11981      11982      11993      11992      12102      12103      12114      12113  
     11982      11983      11994      11993      12103      12104      12115      12114  
     11983      11984      11995      11994      12104      12105      12116      12115  
     11984      11985      11996      11995      12105      12106      12117      12116  
     11985      11986      11997      11996      12106      12107      12118      12117  
     11986      11987      11998      11997      12107      12108      12119      12118  
     11987      11988      11999      11998      12108      12109      12120      12119  
     11988      11989      12000      11999      12109      12110      12121      12120  
     11989      11990      12001      12000      12110      12111      12122      12121  
     11991      11992      12003      12002      12112      12113      12124      12123  
     11992      11993      12004      12003      12113      12114      12125      12124  
     11993      11994      12005      12004      12114      12115      12126      12125  
     11994      11995      12006      12005      12115      12116      12127      12126  
     11995      11996      12007      12006      12116      12117      12128      12127  
     11996      11997      12008      12007      12117      12118      12129      12128  
     11997      11998      12009      12008      12118      12119      12130      12129  
     11998      11999      12010      12009      12119      12120      12131      12130  
     11999      12000      12011      12010      12120      12121      12132      12131  
     12000      12001      12012      12011      12121      12122      12133      12132  
     12002      12003      12014      12013      12123      12124      12135      12134  
     12003      12004      12015      12014      12124      12125      12136      12135  
     12004      12005      12016      12015      12125      12126      12137      12136  
     12005      12006      12017      12016      12126      12127      12138      12137  
     12006      12007      12018      12017      12127      12128      12139      12138  
     12007      12008      12019      12018      12128      12129      12140      12139  
     12008      12009      12020      12019      12129      12130      12141      12140  
     12009      12010      12021      12020      12130      12131      12142      12141  
     12010      12011      12022      12021      12131      12132      12143      12142  
     12011      12012      12023      12022      12132      12133      12144      12143  
     12013      12014      12025      12024      12134      12135      12146      12145  
     12014      12015      12026      12025      12135      12136      12147      12146  
     12015      12016      12027      12026      12136      12137      12148      12147  
     12016      12017      12028      12027      12137      12138      12149      12148  
     12017      12018      12029      12028      12138      12139      12150      12149  
     12018      12019      12030      12029      12139      12140      12151      12150  
     12019      12020      12031      12030      12140      12141      12152      12151  
     12020      12021      12032      12031      12141      12142      12153      12152  
     12021      12022      12033      12032      12142      12143      12154      12153  
     12022      12023      12034      12033      12143      12144      12155      12154  
     12024      12025      12036      12035      12145      12146      12157      12156  
     12025      12026      12037      12036      12146      12147      12158      12157  
     12026      12027      12038      12037      12147      12148      12159      12158  
     12027      12028      12039      12038      12148      12149      12160      12159  
     12028      12029      12040      12039      12149      12150      12161      12160  
     12029      12030      12041      12040      12150      12151      12162      12161  
     12030      12031      12042      12041      12151      12152      12163      12162  
     12031      12032      12043      12042      12152      12153      12164      12163  
     12032      12033      12044      12043      12153      12154      12165      12164  
     12033      12034      12045      12044      12154      12155      12166      12165  
     12035      12036      12047      12046      12156      12157      12168      12167  
     12036      12037      12048      12047      12157      12158      12169      12168  
     12037      12038      12049      12048      12158      12159      12170      12169  
     12038      12039      12050      12049      12159      12160      12171      12170  
     12039      12040      12051      12050      12160      12161      12172      12171  
     12040      12041      12052      12051      12161      12162      12173      12172  
     12041      12042      12053      12052      12162      12163      12174      12173  
     12042      12043      12054      12053      12163      12164      12175      12174  
     12043      12044      12055      12054      12164      12165      12176      12175  
     12044      12045      12056      12055      12165      12166      12177      12176  
     12046      12047      12058      12057      12167      12168      12179      12178  
     12047      12048      12059      12058      12168      12169      12180      12179  
     12048      12049      12060      12059      12169      12170      12181      12180  
     12049      12050      12061      12060      12170      12171      12182      12181  
     12050      12051      12062      12061      12171      12172      12183      12182  
     12051      12052      12063      12062      12172      12173      12184      12183  
     12052      12053      12064      12063      12173      12174      12185      12184  
     12053      12054      12065      12064      12174      12175      12186      12185  
     12054      12055      12066      12065      12175      12176      12187      12186  
     12055      12056      12067      12066      12176      12177      12188      12187  
     12057      12058      12069      12068      12178      12179      12190      12189  
     12058      12059      12070      12069      12179      12180      12191      12190  
     12059      12060      12071      12070      12180      12181      12192      12191  
     12060      12061      12072      12071      12181      12182      12193      12192  
     12061      12062      12073      12072      12182      12183      12194      12193  
     12062      12063      12074      12073      12183      12184      12195      12194  
     12063      12064      12075      12074      12184      12185      12196      12195  
     12064      12065      12076      12075      12185      12186      12197      12196  
     12065      12066      12077      12076      12186      12187      12198      12197  
     12066      12067      12078      12077      12187      12188      12199      12198  
     12068      12069      12080      12079      12189      12190      12201      12200  
     12069      12070      12081      12080      12190      12191      12202      12201  
     12070      12071      12082      12081      12191      12192      12203      12202  
     12071      12072      12083      12082      12192      12193      12204      12203  
     12072      12073      12084      12083      12193      12194      12205      12204  
     12073      12074      12085      12084      12194      12195      12206      12205  
     12074      12075      12086      12085      12195      12196      12207      12206  
     12075      12076      12087      12086      12196      12197      12208      12207  
     12076      12077      12088      12087      12197      12198      12209      12208  
     12077      12078      12089      12088      12198      12199      12210      12209  
     12079      12080      12091      12090      12200      12201      12212      12211  
     12080      12081      12092      12091      12201      12202      12213      12212  
     12081      12082      12093      12092      12202      12203      12214      12213  
     12082      12083      12094      12093      12203      12204      12215      12214  
     12083      12084      12095      12094      12204      12205      12216      12215  
     12084      12085      12096      12095      12205      12206      12217      12216  
     12085      12086      12097      12096      12206      12207      12218      12217  
     12086      12087      12098      12097      12207      12208      12219      12218  
     12087      12088      12099      12098      12208      12209      12220      12219  
     12088      12089      12100      12099      12209      12210      12221      12220  
